*SPEF "ieee 1481-1999"
*DESIGN "gear_quantizer"
*DATE "11:11:11 Fri 11 11, 1111"
*VENDOR "OpenRCX"
*PROGRAM "Parallel Extraction"
*VERSION "1.0"
*DESIGN_FLOW "NAME_SCOPE LOCAL" "PIN_CAP NONE"
*DIVIDER /
*DELIMITER :
*BUS_DELIMITER []
*T_UNIT 1 NS
*C_UNIT 1 PF
*R_UNIT 1 OHM
*L_UNIT 1 HENRY

*NAME_MAP
*3 clk
*4 data_in[0]
*5 data_in[1]
*6 data_in[2]
*7 data_in[3]
*8 data_in[4]
*9 data_in[5]
*10 data_in[6]
*11 data_in[7]
*12 int4_out[0]
*13 int4_out[1]
*14 int4_out[2]
*15 int4_out[3]
*16 is_outlier
*17 round_mode
*18 rst_n
*19 scale[0]
*20 scale[1]
*21 scale[2]
*22 scale[3]
*23 sideband_out[0]
*24 sideband_out[1]
*25 sideband_out[2]
*26 sideband_out[3]
*27 sideband_out[4]
*28 sideband_out[5]
*29 sideband_out[6]
*30 sideband_out[7]
*31 threshold[0]
*32 threshold[1]
*33 threshold[2]
*34 threshold[3]
*35 threshold[4]
*36 threshold[5]
*37 threshold[6]
*38 threshold[7]
*39 valid_in
*40 valid_out
*41 _000_
*42 _001_
*43 _002_
*44 _003_
*45 _004_
*46 _005_
*47 _006_
*48 _007_
*49 _008_
*50 _009_
*51 _010_
*52 _011_
*53 _012_
*54 _013_
*55 _014_
*56 _015_
*57 _016_
*58 _017_
*59 _018_
*60 _019_
*61 _020_
*62 _021_
*63 _022_
*64 _023_
*65 _024_
*66 _025_
*67 _026_
*68 _027_
*69 _028_
*70 _029_
*71 _030_
*72 _031_
*73 _032_
*74 _033_
*75 _034_
*76 _035_
*77 _036_
*78 _037_
*79 _038_
*80 _039_
*81 _040_
*82 _041_
*83 _042_
*84 _043_
*85 _044_
*86 _045_
*87 _046_
*88 _047_
*89 _048_
*90 _049_
*91 _050_
*92 _051_
*93 _052_
*94 _053_
*95 _054_
*96 _055_
*97 _056_
*98 _057_
*99 _058_
*100 _059_
*101 _060_
*102 _061_
*103 _062_
*104 _063_
*105 _064_
*106 _065_
*107 _066_
*108 _067_
*109 _068_
*110 _069_
*111 _070_
*112 _071_
*113 _072_
*114 _073_
*115 _074_
*116 _075_
*117 _076_
*118 _077_
*119 _078_
*120 _079_
*121 _080_
*122 _081_
*123 _082_
*124 _083_
*125 _084_
*126 _085_
*127 _086_
*128 _087_
*129 _088_
*130 _089_
*131 _090_
*132 _091_
*133 _092_
*134 _093_
*135 _094_
*136 _095_
*137 _096_
*138 _097_
*139 _098_
*140 _099_
*141 _100_
*142 _101_
*143 _102_
*144 _103_
*145 _104_
*146 _105_
*147 _106_
*148 _107_
*149 _108_
*150 _109_
*151 _110_
*152 _111_
*153 _112_
*154 _113_
*155 _114_
*156 _115_
*157 _116_
*158 _117_
*159 _118_
*160 _119_
*161 _120_
*162 _121_
*163 _122_
*164 _123_
*165 _124_
*166 _125_
*167 _126_
*168 _127_
*169 _128_
*170 _129_
*171 _130_
*172 _131_
*173 _132_
*174 _133_
*175 _134_
*176 _135_
*177 _136_
*178 _137_
*179 _138_
*180 _139_
*181 _140_
*182 _141_
*183 _142_
*184 _143_
*185 _144_
*186 _145_
*187 _146_
*188 _147_
*189 _148_
*190 _149_
*191 _150_
*192 _151_
*193 _152_
*194 _153_
*195 _154_
*196 _155_
*197 _156_
*198 _157_
*199 _158_
*200 _159_
*201 _160_
*202 _161_
*203 _162_
*204 _163_
*205 _164_
*206 _165_
*207 _166_
*208 _167_
*209 _168_
*210 _169_
*211 _170_
*212 _171_
*213 _172_
*214 _173_
*215 _174_
*216 _175_
*217 _176_
*218 _177_
*219 _178_
*220 _179_
*221 _180_
*222 _181_
*223 _182_
*224 _183_
*225 _184_
*226 _185_
*227 _186_
*228 _187_
*229 _188_
*230 _189_
*231 _190_
*232 _191_
*233 _192_
*234 _193_
*235 _194_
*236 _195_
*237 _196_
*238 _197_
*239 _198_
*240 _199_
*241 _200_
*242 _201_
*243 _202_
*244 _203_
*245 _204_
*246 _205_
*247 _206_
*248 _207_
*249 _208_
*250 _209_
*251 _210_
*252 _211_
*253 _212_
*254 _213_
*255 _214_
*256 _215_
*257 _216_
*258 _217_
*259 _218_
*260 clknet_0_clk
*261 clknet_1_0__leaf_clk
*262 clknet_1_1__leaf_clk
*263 net1
*264 net10
*265 net11
*266 net12
*267 net13
*268 net14
*269 net15
*270 net16
*271 net17
*272 net18
*273 net19
*274 net2
*275 net20
*276 net21
*277 net22
*278 net23
*279 net24
*280 net25
*281 net26
*282 net27
*283 net28
*284 net29
*285 net3
*286 net30
*287 net31
*288 net32
*289 net33
*290 net34
*291 net35
*292 net36
*293 net37
*294 net38
*295 net39
*296 net4
*297 net40
*298 net41
*299 net42
*300 net5
*301 net6
*302 net7
*303 net8
*304 net9
*305 FILLER_0_0_109
*306 FILLER_0_0_113
*307 FILLER_0_0_119
*308 FILLER_0_0_126
*309 FILLER_0_0_138
*310 FILLER_0_0_141
*311 FILLER_0_0_153
*312 FILLER_0_0_161
*313 FILLER_0_0_167
*314 FILLER_0_0_169
*315 FILLER_0_0_181
*316 FILLER_0_0_19
*317 FILLER_0_0_193
*318 FILLER_0_0_197
*319 FILLER_0_0_209
*320 FILLER_0_0_221
*321 FILLER_0_0_225
*322 FILLER_0_0_237
*323 FILLER_0_0_249
*324 FILLER_0_0_253
*325 FILLER_0_0_258
*326 FILLER_0_0_27
*327 FILLER_0_0_270
*328 FILLER_0_0_278
*329 FILLER_0_0_281
*330 FILLER_0_0_293
*331 FILLER_0_0_303
*332 FILLER_0_0_307
*333 FILLER_0_0_309
*334 FILLER_0_0_321
*335 FILLER_0_0_333
*336 FILLER_0_0_337
*337 FILLER_0_0_343
*338 FILLER_0_0_35
*339 FILLER_0_0_355
*340 FILLER_0_0_363
*341 FILLER_0_0_365
*342 FILLER_0_0_377
*343 FILLER_0_0_389
*344 FILLER_0_0_399
*345 FILLER_0_0_47
*346 FILLER_0_0_55
*347 FILLER_0_0_57
*348 FILLER_0_0_69
*349 FILLER_0_0_7
*350 FILLER_0_0_77
*351 FILLER_0_0_83
*352 FILLER_0_0_85
*353 FILLER_0_0_97
*354 FILLER_0_10_109
*355 FILLER_0_10_121
*356 FILLER_0_10_133
*357 FILLER_0_10_139
*358 FILLER_0_10_141
*359 FILLER_0_10_15
*360 FILLER_0_10_153
*361 FILLER_0_10_165
*362 FILLER_0_10_177
*363 FILLER_0_10_189
*364 FILLER_0_10_195
*365 FILLER_0_10_197
*366 FILLER_0_10_209
*367 FILLER_0_10_221
*368 FILLER_0_10_233
*369 FILLER_0_10_245
*370 FILLER_0_10_251
*371 FILLER_0_10_253
*372 FILLER_0_10_265
*373 FILLER_0_10_27
*374 FILLER_0_10_277
*375 FILLER_0_10_289
*376 FILLER_0_10_29
*377 FILLER_0_10_3
*378 FILLER_0_10_301
*379 FILLER_0_10_307
*380 FILLER_0_10_309
*381 FILLER_0_10_321
*382 FILLER_0_10_333
*383 FILLER_0_10_345
*384 FILLER_0_10_357
*385 FILLER_0_10_363
*386 FILLER_0_10_365
*387 FILLER_0_10_377
*388 FILLER_0_10_389
*389 FILLER_0_10_401
*390 FILLER_0_10_41
*391 FILLER_0_10_53
*392 FILLER_0_10_65
*393 FILLER_0_10_77
*394 FILLER_0_10_83
*395 FILLER_0_10_85
*396 FILLER_0_10_97
*397 FILLER_0_11_105
*398 FILLER_0_11_111
*399 FILLER_0_11_113
*400 FILLER_0_11_125
*401 FILLER_0_11_137
*402 FILLER_0_11_149
*403 FILLER_0_11_161
*404 FILLER_0_11_167
*405 FILLER_0_11_169
*406 FILLER_0_11_181
*407 FILLER_0_11_193
*408 FILLER_0_11_205
*409 FILLER_0_11_21
*410 FILLER_0_11_217
*411 FILLER_0_11_223
*412 FILLER_0_11_225
*413 FILLER_0_11_237
*414 FILLER_0_11_249
*415 FILLER_0_11_261
*416 FILLER_0_11_273
*417 FILLER_0_11_279
*418 FILLER_0_11_281
*419 FILLER_0_11_293
*420 FILLER_0_11_305
*421 FILLER_0_11_317
*422 FILLER_0_11_329
*423 FILLER_0_11_33
*424 FILLER_0_11_335
*425 FILLER_0_11_337
*426 FILLER_0_11_349
*427 FILLER_0_11_361
*428 FILLER_0_11_373
*429 FILLER_0_11_385
*430 FILLER_0_11_391
*431 FILLER_0_11_393
*432 FILLER_0_11_405
*433 FILLER_0_11_45
*434 FILLER_0_11_53
*435 FILLER_0_11_57
*436 FILLER_0_11_69
*437 FILLER_0_11_81
*438 FILLER_0_11_9
*439 FILLER_0_11_93
*440 FILLER_0_12_109
*441 FILLER_0_12_121
*442 FILLER_0_12_133
*443 FILLER_0_12_139
*444 FILLER_0_12_141
*445 FILLER_0_12_15
*446 FILLER_0_12_153
*447 FILLER_0_12_165
*448 FILLER_0_12_177
*449 FILLER_0_12_189
*450 FILLER_0_12_195
*451 FILLER_0_12_197
*452 FILLER_0_12_209
*453 FILLER_0_12_221
*454 FILLER_0_12_233
*455 FILLER_0_12_245
*456 FILLER_0_12_251
*457 FILLER_0_12_253
*458 FILLER_0_12_265
*459 FILLER_0_12_27
*460 FILLER_0_12_277
*461 FILLER_0_12_289
*462 FILLER_0_12_29
*463 FILLER_0_12_3
*464 FILLER_0_12_301
*465 FILLER_0_12_307
*466 FILLER_0_12_309
*467 FILLER_0_12_321
*468 FILLER_0_12_333
*469 FILLER_0_12_345
*470 FILLER_0_12_357
*471 FILLER_0_12_363
*472 FILLER_0_12_365
*473 FILLER_0_12_377
*474 FILLER_0_12_389
*475 FILLER_0_12_401
*476 FILLER_0_12_41
*477 FILLER_0_12_53
*478 FILLER_0_12_65
*479 FILLER_0_12_77
*480 FILLER_0_12_83
*481 FILLER_0_12_85
*482 FILLER_0_12_97
*483 FILLER_0_13_105
*484 FILLER_0_13_111
*485 FILLER_0_13_113
*486 FILLER_0_13_125
*487 FILLER_0_13_137
*488 FILLER_0_13_149
*489 FILLER_0_13_15
*490 FILLER_0_13_161
*491 FILLER_0_13_167
*492 FILLER_0_13_169
*493 FILLER_0_13_181
*494 FILLER_0_13_193
*495 FILLER_0_13_205
*496 FILLER_0_13_217
*497 FILLER_0_13_223
*498 FILLER_0_13_225
*499 FILLER_0_13_237
*500 FILLER_0_13_249
*501 FILLER_0_13_261
*502 FILLER_0_13_27
*503 FILLER_0_13_273
*504 FILLER_0_13_279
*505 FILLER_0_13_281
*506 FILLER_0_13_293
*507 FILLER_0_13_3
*508 FILLER_0_13_305
*509 FILLER_0_13_317
*510 FILLER_0_13_329
*511 FILLER_0_13_335
*512 FILLER_0_13_337
*513 FILLER_0_13_349
*514 FILLER_0_13_361
*515 FILLER_0_13_373
*516 FILLER_0_13_385
*517 FILLER_0_13_39
*518 FILLER_0_13_391
*519 FILLER_0_13_393
*520 FILLER_0_13_405
*521 FILLER_0_13_51
*522 FILLER_0_13_55
*523 FILLER_0_13_57
*524 FILLER_0_13_69
*525 FILLER_0_13_81
*526 FILLER_0_13_93
*527 FILLER_0_14_109
*528 FILLER_0_14_121
*529 FILLER_0_14_133
*530 FILLER_0_14_139
*531 FILLER_0_14_141
*532 FILLER_0_14_15
*533 FILLER_0_14_153
*534 FILLER_0_14_165
*535 FILLER_0_14_177
*536 FILLER_0_14_189
*537 FILLER_0_14_195
*538 FILLER_0_14_197
*539 FILLER_0_14_209
*540 FILLER_0_14_221
*541 FILLER_0_14_233
*542 FILLER_0_14_245
*543 FILLER_0_14_251
*544 FILLER_0_14_253
*545 FILLER_0_14_265
*546 FILLER_0_14_27
*547 FILLER_0_14_277
*548 FILLER_0_14_289
*549 FILLER_0_14_29
*550 FILLER_0_14_3
*551 FILLER_0_14_301
*552 FILLER_0_14_307
*553 FILLER_0_14_309
*554 FILLER_0_14_321
*555 FILLER_0_14_333
*556 FILLER_0_14_345
*557 FILLER_0_14_357
*558 FILLER_0_14_363
*559 FILLER_0_14_365
*560 FILLER_0_14_377
*561 FILLER_0_14_389
*562 FILLER_0_14_401
*563 FILLER_0_14_41
*564 FILLER_0_14_53
*565 FILLER_0_14_65
*566 FILLER_0_14_77
*567 FILLER_0_14_83
*568 FILLER_0_14_85
*569 FILLER_0_14_97
*570 FILLER_0_15_105
*571 FILLER_0_15_111
*572 FILLER_0_15_113
*573 FILLER_0_15_125
*574 FILLER_0_15_137
*575 FILLER_0_15_149
*576 FILLER_0_15_15
*577 FILLER_0_15_161
*578 FILLER_0_15_167
*579 FILLER_0_15_169
*580 FILLER_0_15_181
*581 FILLER_0_15_193
*582 FILLER_0_15_205
*583 FILLER_0_15_217
*584 FILLER_0_15_223
*585 FILLER_0_15_225
*586 FILLER_0_15_237
*587 FILLER_0_15_249
*588 FILLER_0_15_261
*589 FILLER_0_15_27
*590 FILLER_0_15_273
*591 FILLER_0_15_279
*592 FILLER_0_15_281
*593 FILLER_0_15_293
*594 FILLER_0_15_3
*595 FILLER_0_15_305
*596 FILLER_0_15_317
*597 FILLER_0_15_329
*598 FILLER_0_15_335
*599 FILLER_0_15_337
*600 FILLER_0_15_349
*601 FILLER_0_15_361
*602 FILLER_0_15_373
*603 FILLER_0_15_385
*604 FILLER_0_15_39
*605 FILLER_0_15_391
*606 FILLER_0_15_393
*607 FILLER_0_15_405
*608 FILLER_0_15_51
*609 FILLER_0_15_55
*610 FILLER_0_15_57
*611 FILLER_0_15_69
*612 FILLER_0_15_81
*613 FILLER_0_15_93
*614 FILLER_0_16_109
*615 FILLER_0_16_121
*616 FILLER_0_16_133
*617 FILLER_0_16_139
*618 FILLER_0_16_141
*619 FILLER_0_16_15
*620 FILLER_0_16_153
*621 FILLER_0_16_165
*622 FILLER_0_16_177
*623 FILLER_0_16_189
*624 FILLER_0_16_195
*625 FILLER_0_16_197
*626 FILLER_0_16_209
*627 FILLER_0_16_221
*628 FILLER_0_16_233
*629 FILLER_0_16_245
*630 FILLER_0_16_251
*631 FILLER_0_16_253
*632 FILLER_0_16_265
*633 FILLER_0_16_27
*634 FILLER_0_16_277
*635 FILLER_0_16_289
*636 FILLER_0_16_29
*637 FILLER_0_16_3
*638 FILLER_0_16_301
*639 FILLER_0_16_307
*640 FILLER_0_16_309
*641 FILLER_0_16_321
*642 FILLER_0_16_333
*643 FILLER_0_16_345
*644 FILLER_0_16_357
*645 FILLER_0_16_363
*646 FILLER_0_16_365
*647 FILLER_0_16_377
*648 FILLER_0_16_389
*649 FILLER_0_16_401
*650 FILLER_0_16_41
*651 FILLER_0_16_53
*652 FILLER_0_16_65
*653 FILLER_0_16_77
*654 FILLER_0_16_83
*655 FILLER_0_16_85
*656 FILLER_0_16_97
*657 FILLER_0_17_105
*658 FILLER_0_17_111
*659 FILLER_0_17_113
*660 FILLER_0_17_125
*661 FILLER_0_17_137
*662 FILLER_0_17_149
*663 FILLER_0_17_15
*664 FILLER_0_17_161
*665 FILLER_0_17_167
*666 FILLER_0_17_169
*667 FILLER_0_17_181
*668 FILLER_0_17_193
*669 FILLER_0_17_205
*670 FILLER_0_17_217
*671 FILLER_0_17_223
*672 FILLER_0_17_225
*673 FILLER_0_17_237
*674 FILLER_0_17_249
*675 FILLER_0_17_261
*676 FILLER_0_17_27
*677 FILLER_0_17_273
*678 FILLER_0_17_279
*679 FILLER_0_17_281
*680 FILLER_0_17_293
*681 FILLER_0_17_3
*682 FILLER_0_17_305
*683 FILLER_0_17_317
*684 FILLER_0_17_329
*685 FILLER_0_17_335
*686 FILLER_0_17_337
*687 FILLER_0_17_349
*688 FILLER_0_17_361
*689 FILLER_0_17_373
*690 FILLER_0_17_385
*691 FILLER_0_17_39
*692 FILLER_0_17_391
*693 FILLER_0_17_393
*694 FILLER_0_17_405
*695 FILLER_0_17_51
*696 FILLER_0_17_55
*697 FILLER_0_17_57
*698 FILLER_0_17_69
*699 FILLER_0_17_81
*700 FILLER_0_17_93
*701 FILLER_0_18_109
*702 FILLER_0_18_121
*703 FILLER_0_18_133
*704 FILLER_0_18_139
*705 FILLER_0_18_141
*706 FILLER_0_18_15
*707 FILLER_0_18_153
*708 FILLER_0_18_165
*709 FILLER_0_18_177
*710 FILLER_0_18_189
*711 FILLER_0_18_195
*712 FILLER_0_18_197
*713 FILLER_0_18_209
*714 FILLER_0_18_221
*715 FILLER_0_18_233
*716 FILLER_0_18_245
*717 FILLER_0_18_251
*718 FILLER_0_18_253
*719 FILLER_0_18_265
*720 FILLER_0_18_27
*721 FILLER_0_18_277
*722 FILLER_0_18_289
*723 FILLER_0_18_29
*724 FILLER_0_18_3
*725 FILLER_0_18_301
*726 FILLER_0_18_307
*727 FILLER_0_18_309
*728 FILLER_0_18_321
*729 FILLER_0_18_333
*730 FILLER_0_18_345
*731 FILLER_0_18_357
*732 FILLER_0_18_363
*733 FILLER_0_18_365
*734 FILLER_0_18_377
*735 FILLER_0_18_389
*736 FILLER_0_18_401
*737 FILLER_0_18_41
*738 FILLER_0_18_53
*739 FILLER_0_18_65
*740 FILLER_0_18_77
*741 FILLER_0_18_83
*742 FILLER_0_18_85
*743 FILLER_0_18_97
*744 FILLER_0_19_105
*745 FILLER_0_19_111
*746 FILLER_0_19_113
*747 FILLER_0_19_125
*748 FILLER_0_19_137
*749 FILLER_0_19_149
*750 FILLER_0_19_15
*751 FILLER_0_19_161
*752 FILLER_0_19_167
*753 FILLER_0_19_169
*754 FILLER_0_19_181
*755 FILLER_0_19_193
*756 FILLER_0_19_205
*757 FILLER_0_19_217
*758 FILLER_0_19_223
*759 FILLER_0_19_225
*760 FILLER_0_19_237
*761 FILLER_0_19_249
*762 FILLER_0_19_261
*763 FILLER_0_19_27
*764 FILLER_0_19_273
*765 FILLER_0_19_279
*766 FILLER_0_19_281
*767 FILLER_0_19_293
*768 FILLER_0_19_3
*769 FILLER_0_19_305
*770 FILLER_0_19_317
*771 FILLER_0_19_329
*772 FILLER_0_19_335
*773 FILLER_0_19_337
*774 FILLER_0_19_349
*775 FILLER_0_19_361
*776 FILLER_0_19_373
*777 FILLER_0_19_385
*778 FILLER_0_19_39
*779 FILLER_0_19_391
*780 FILLER_0_19_393
*781 FILLER_0_19_405
*782 FILLER_0_19_51
*783 FILLER_0_19_55
*784 FILLER_0_19_57
*785 FILLER_0_19_69
*786 FILLER_0_19_81
*787 FILLER_0_19_93
*788 FILLER_0_1_105
*789 FILLER_0_1_111
*790 FILLER_0_1_113
*791 FILLER_0_1_125
*792 FILLER_0_1_137
*793 FILLER_0_1_149
*794 FILLER_0_1_15
*795 FILLER_0_1_161
*796 FILLER_0_1_167
*797 FILLER_0_1_169
*798 FILLER_0_1_181
*799 FILLER_0_1_193
*800 FILLER_0_1_205
*801 FILLER_0_1_217
*802 FILLER_0_1_223
*803 FILLER_0_1_225
*804 FILLER_0_1_237
*805 FILLER_0_1_249
*806 FILLER_0_1_261
*807 FILLER_0_1_27
*808 FILLER_0_1_273
*809 FILLER_0_1_279
*810 FILLER_0_1_281
*811 FILLER_0_1_293
*812 FILLER_0_1_3
*813 FILLER_0_1_305
*814 FILLER_0_1_317
*815 FILLER_0_1_329
*816 FILLER_0_1_335
*817 FILLER_0_1_337
*818 FILLER_0_1_349
*819 FILLER_0_1_361
*820 FILLER_0_1_373
*821 FILLER_0_1_385
*822 FILLER_0_1_39
*823 FILLER_0_1_391
*824 FILLER_0_1_393
*825 FILLER_0_1_405
*826 FILLER_0_1_51
*827 FILLER_0_1_55
*828 FILLER_0_1_57
*829 FILLER_0_1_69
*830 FILLER_0_1_81
*831 FILLER_0_1_93
*832 FILLER_0_20_109
*833 FILLER_0_20_121
*834 FILLER_0_20_133
*835 FILLER_0_20_139
*836 FILLER_0_20_141
*837 FILLER_0_20_153
*838 FILLER_0_20_165
*839 FILLER_0_20_177
*840 FILLER_0_20_189
*841 FILLER_0_20_19
*842 FILLER_0_20_195
*843 FILLER_0_20_197
*844 FILLER_0_20_209
*845 FILLER_0_20_221
*846 FILLER_0_20_233
*847 FILLER_0_20_245
*848 FILLER_0_20_251
*849 FILLER_0_20_253
*850 FILLER_0_20_265
*851 FILLER_0_20_27
*852 FILLER_0_20_277
*853 FILLER_0_20_289
*854 FILLER_0_20_29
*855 FILLER_0_20_301
*856 FILLER_0_20_307
*857 FILLER_0_20_309
*858 FILLER_0_20_321
*859 FILLER_0_20_333
*860 FILLER_0_20_345
*861 FILLER_0_20_357
*862 FILLER_0_20_363
*863 FILLER_0_20_365
*864 FILLER_0_20_377
*865 FILLER_0_20_389
*866 FILLER_0_20_401
*867 FILLER_0_20_41
*868 FILLER_0_20_53
*869 FILLER_0_20_65
*870 FILLER_0_20_7
*871 FILLER_0_20_77
*872 FILLER_0_20_83
*873 FILLER_0_20_85
*874 FILLER_0_20_97
*875 FILLER_0_21_105
*876 FILLER_0_21_111
*877 FILLER_0_21_113
*878 FILLER_0_21_125
*879 FILLER_0_21_137
*880 FILLER_0_21_149
*881 FILLER_0_21_15
*882 FILLER_0_21_161
*883 FILLER_0_21_167
*884 FILLER_0_21_169
*885 FILLER_0_21_181
*886 FILLER_0_21_193
*887 FILLER_0_21_205
*888 FILLER_0_21_217
*889 FILLER_0_21_223
*890 FILLER_0_21_225
*891 FILLER_0_21_237
*892 FILLER_0_21_249
*893 FILLER_0_21_261
*894 FILLER_0_21_27
*895 FILLER_0_21_273
*896 FILLER_0_21_279
*897 FILLER_0_21_281
*898 FILLER_0_21_293
*899 FILLER_0_21_3
*900 FILLER_0_21_305
*901 FILLER_0_21_317
*902 FILLER_0_21_329
*903 FILLER_0_21_335
*904 FILLER_0_21_337
*905 FILLER_0_21_349
*906 FILLER_0_21_361
*907 FILLER_0_21_373
*908 FILLER_0_21_385
*909 FILLER_0_21_39
*910 FILLER_0_21_391
*911 FILLER_0_21_393
*912 FILLER_0_21_51
*913 FILLER_0_21_55
*914 FILLER_0_21_57
*915 FILLER_0_21_69
*916 FILLER_0_21_81
*917 FILLER_0_21_93
*918 FILLER_0_22_109
*919 FILLER_0_22_121
*920 FILLER_0_22_133
*921 FILLER_0_22_139
*922 FILLER_0_22_141
*923 FILLER_0_22_15
*924 FILLER_0_22_153
*925 FILLER_0_22_165
*926 FILLER_0_22_177
*927 FILLER_0_22_189
*928 FILLER_0_22_195
*929 FILLER_0_22_197
*930 FILLER_0_22_209
*931 FILLER_0_22_221
*932 FILLER_0_22_233
*933 FILLER_0_22_245
*934 FILLER_0_22_251
*935 FILLER_0_22_253
*936 FILLER_0_22_265
*937 FILLER_0_22_27
*938 FILLER_0_22_277
*939 FILLER_0_22_289
*940 FILLER_0_22_29
*941 FILLER_0_22_3
*942 FILLER_0_22_301
*943 FILLER_0_22_307
*944 FILLER_0_22_309
*945 FILLER_0_22_321
*946 FILLER_0_22_333
*947 FILLER_0_22_345
*948 FILLER_0_22_357
*949 FILLER_0_22_363
*950 FILLER_0_22_365
*951 FILLER_0_22_377
*952 FILLER_0_22_389
*953 FILLER_0_22_401
*954 FILLER_0_22_41
*955 FILLER_0_22_53
*956 FILLER_0_22_65
*957 FILLER_0_22_77
*958 FILLER_0_22_83
*959 FILLER_0_22_85
*960 FILLER_0_22_97
*961 FILLER_0_23_105
*962 FILLER_0_23_111
*963 FILLER_0_23_113
*964 FILLER_0_23_125
*965 FILLER_0_23_137
*966 FILLER_0_23_149
*967 FILLER_0_23_15
*968 FILLER_0_23_161
*969 FILLER_0_23_167
*970 FILLER_0_23_169
*971 FILLER_0_23_181
*972 FILLER_0_23_193
*973 FILLER_0_23_205
*974 FILLER_0_23_217
*975 FILLER_0_23_223
*976 FILLER_0_23_225
*977 FILLER_0_23_237
*978 FILLER_0_23_249
*979 FILLER_0_23_261
*980 FILLER_0_23_27
*981 FILLER_0_23_273
*982 FILLER_0_23_279
*983 FILLER_0_23_281
*984 FILLER_0_23_293
*985 FILLER_0_23_3
*986 FILLER_0_23_305
*987 FILLER_0_23_317
*988 FILLER_0_23_329
*989 FILLER_0_23_335
*990 FILLER_0_23_337
*991 FILLER_0_23_349
*992 FILLER_0_23_361
*993 FILLER_0_23_373
*994 FILLER_0_23_385
*995 FILLER_0_23_39
*996 FILLER_0_23_391
*997 FILLER_0_23_393
*998 FILLER_0_23_405
*999 FILLER_0_23_51
*1000 FILLER_0_23_55
*1001 FILLER_0_23_57
*1002 FILLER_0_23_69
*1003 FILLER_0_23_81
*1004 FILLER_0_23_93
*1005 FILLER_0_24_109
*1006 FILLER_0_24_121
*1007 FILLER_0_24_133
*1008 FILLER_0_24_139
*1009 FILLER_0_24_141
*1010 FILLER_0_24_15
*1011 FILLER_0_24_153
*1012 FILLER_0_24_165
*1013 FILLER_0_24_177
*1014 FILLER_0_24_189
*1015 FILLER_0_24_195
*1016 FILLER_0_24_197
*1017 FILLER_0_24_209
*1018 FILLER_0_24_221
*1019 FILLER_0_24_233
*1020 FILLER_0_24_245
*1021 FILLER_0_24_251
*1022 FILLER_0_24_253
*1023 FILLER_0_24_265
*1024 FILLER_0_24_27
*1025 FILLER_0_24_277
*1026 FILLER_0_24_289
*1027 FILLER_0_24_29
*1028 FILLER_0_24_3
*1029 FILLER_0_24_301
*1030 FILLER_0_24_307
*1031 FILLER_0_24_309
*1032 FILLER_0_24_321
*1033 FILLER_0_24_333
*1034 FILLER_0_24_345
*1035 FILLER_0_24_357
*1036 FILLER_0_24_363
*1037 FILLER_0_24_365
*1038 FILLER_0_24_377
*1039 FILLER_0_24_389
*1040 FILLER_0_24_401
*1041 FILLER_0_24_41
*1042 FILLER_0_24_53
*1043 FILLER_0_24_65
*1044 FILLER_0_24_77
*1045 FILLER_0_24_83
*1046 FILLER_0_24_85
*1047 FILLER_0_24_97
*1048 FILLER_0_25_105
*1049 FILLER_0_25_111
*1050 FILLER_0_25_113
*1051 FILLER_0_25_125
*1052 FILLER_0_25_137
*1053 FILLER_0_25_149
*1054 FILLER_0_25_15
*1055 FILLER_0_25_161
*1056 FILLER_0_25_167
*1057 FILLER_0_25_169
*1058 FILLER_0_25_181
*1059 FILLER_0_25_193
*1060 FILLER_0_25_205
*1061 FILLER_0_25_217
*1062 FILLER_0_25_223
*1063 FILLER_0_25_225
*1064 FILLER_0_25_237
*1065 FILLER_0_25_249
*1066 FILLER_0_25_261
*1067 FILLER_0_25_27
*1068 FILLER_0_25_273
*1069 FILLER_0_25_279
*1070 FILLER_0_25_281
*1071 FILLER_0_25_293
*1072 FILLER_0_25_3
*1073 FILLER_0_25_305
*1074 FILLER_0_25_317
*1075 FILLER_0_25_329
*1076 FILLER_0_25_335
*1077 FILLER_0_25_337
*1078 FILLER_0_25_349
*1079 FILLER_0_25_361
*1080 FILLER_0_25_373
*1081 FILLER_0_25_385
*1082 FILLER_0_25_39
*1083 FILLER_0_25_391
*1084 FILLER_0_25_393
*1085 FILLER_0_25_405
*1086 FILLER_0_25_51
*1087 FILLER_0_25_55
*1088 FILLER_0_25_57
*1089 FILLER_0_25_69
*1090 FILLER_0_25_81
*1091 FILLER_0_25_93
*1092 FILLER_0_26_109
*1093 FILLER_0_26_121
*1094 FILLER_0_26_133
*1095 FILLER_0_26_139
*1096 FILLER_0_26_141
*1097 FILLER_0_26_15
*1098 FILLER_0_26_153
*1099 FILLER_0_26_165
*1100 FILLER_0_26_177
*1101 FILLER_0_26_189
*1102 FILLER_0_26_195
*1103 FILLER_0_26_197
*1104 FILLER_0_26_209
*1105 FILLER_0_26_221
*1106 FILLER_0_26_233
*1107 FILLER_0_26_245
*1108 FILLER_0_26_251
*1109 FILLER_0_26_253
*1110 FILLER_0_26_265
*1111 FILLER_0_26_27
*1112 FILLER_0_26_277
*1113 FILLER_0_26_289
*1114 FILLER_0_26_29
*1115 FILLER_0_26_3
*1116 FILLER_0_26_301
*1117 FILLER_0_26_307
*1118 FILLER_0_26_309
*1119 FILLER_0_26_321
*1120 FILLER_0_26_333
*1121 FILLER_0_26_345
*1122 FILLER_0_26_357
*1123 FILLER_0_26_363
*1124 FILLER_0_26_365
*1125 FILLER_0_26_377
*1126 FILLER_0_26_389
*1127 FILLER_0_26_401
*1128 FILLER_0_26_41
*1129 FILLER_0_26_53
*1130 FILLER_0_26_65
*1131 FILLER_0_26_77
*1132 FILLER_0_26_83
*1133 FILLER_0_26_85
*1134 FILLER_0_26_97
*1135 FILLER_0_27_105
*1136 FILLER_0_27_111
*1137 FILLER_0_27_113
*1138 FILLER_0_27_125
*1139 FILLER_0_27_137
*1140 FILLER_0_27_149
*1141 FILLER_0_27_161
*1142 FILLER_0_27_167
*1143 FILLER_0_27_169
*1144 FILLER_0_27_181
*1145 FILLER_0_27_19
*1146 FILLER_0_27_193
*1147 FILLER_0_27_205
*1148 FILLER_0_27_217
*1149 FILLER_0_27_223
*1150 FILLER_0_27_225
*1151 FILLER_0_27_237
*1152 FILLER_0_27_249
*1153 FILLER_0_27_261
*1154 FILLER_0_27_273
*1155 FILLER_0_27_279
*1156 FILLER_0_27_281
*1157 FILLER_0_27_293
*1158 FILLER_0_27_305
*1159 FILLER_0_27_31
*1160 FILLER_0_27_317
*1161 FILLER_0_27_329
*1162 FILLER_0_27_335
*1163 FILLER_0_27_337
*1164 FILLER_0_27_349
*1165 FILLER_0_27_361
*1166 FILLER_0_27_373
*1167 FILLER_0_27_385
*1168 FILLER_0_27_391
*1169 FILLER_0_27_393
*1170 FILLER_0_27_405
*1171 FILLER_0_27_43
*1172 FILLER_0_27_55
*1173 FILLER_0_27_57
*1174 FILLER_0_27_69
*1175 FILLER_0_27_7
*1176 FILLER_0_27_81
*1177 FILLER_0_27_93
*1178 FILLER_0_28_109
*1179 FILLER_0_28_121
*1180 FILLER_0_28_133
*1181 FILLER_0_28_139
*1182 FILLER_0_28_141
*1183 FILLER_0_28_15
*1184 FILLER_0_28_153
*1185 FILLER_0_28_165
*1186 FILLER_0_28_177
*1187 FILLER_0_28_189
*1188 FILLER_0_28_195
*1189 FILLER_0_28_197
*1190 FILLER_0_28_209
*1191 FILLER_0_28_221
*1192 FILLER_0_28_233
*1193 FILLER_0_28_245
*1194 FILLER_0_28_251
*1195 FILLER_0_28_253
*1196 FILLER_0_28_265
*1197 FILLER_0_28_27
*1198 FILLER_0_28_277
*1199 FILLER_0_28_289
*1200 FILLER_0_28_29
*1201 FILLER_0_28_3
*1202 FILLER_0_28_301
*1203 FILLER_0_28_307
*1204 FILLER_0_28_309
*1205 FILLER_0_28_321
*1206 FILLER_0_28_333
*1207 FILLER_0_28_345
*1208 FILLER_0_28_357
*1209 FILLER_0_28_363
*1210 FILLER_0_28_365
*1211 FILLER_0_28_377
*1212 FILLER_0_28_389
*1213 FILLER_0_28_401
*1214 FILLER_0_28_41
*1215 FILLER_0_28_53
*1216 FILLER_0_28_65
*1217 FILLER_0_28_77
*1218 FILLER_0_28_83
*1219 FILLER_0_28_85
*1220 FILLER_0_28_97
*1221 FILLER_0_29_105
*1222 FILLER_0_29_111
*1223 FILLER_0_29_113
*1224 FILLER_0_29_125
*1225 FILLER_0_29_137
*1226 FILLER_0_29_149
*1227 FILLER_0_29_15
*1228 FILLER_0_29_161
*1229 FILLER_0_29_167
*1230 FILLER_0_29_169
*1231 FILLER_0_29_181
*1232 FILLER_0_29_193
*1233 FILLER_0_29_205
*1234 FILLER_0_29_217
*1235 FILLER_0_29_223
*1236 FILLER_0_29_225
*1237 FILLER_0_29_237
*1238 FILLER_0_29_249
*1239 FILLER_0_29_261
*1240 FILLER_0_29_27
*1241 FILLER_0_29_273
*1242 FILLER_0_29_279
*1243 FILLER_0_29_281
*1244 FILLER_0_29_293
*1245 FILLER_0_29_3
*1246 FILLER_0_29_305
*1247 FILLER_0_29_317
*1248 FILLER_0_29_329
*1249 FILLER_0_29_335
*1250 FILLER_0_29_337
*1251 FILLER_0_29_349
*1252 FILLER_0_29_361
*1253 FILLER_0_29_373
*1254 FILLER_0_29_385
*1255 FILLER_0_29_39
*1256 FILLER_0_29_391
*1257 FILLER_0_29_393
*1258 FILLER_0_29_405
*1259 FILLER_0_29_51
*1260 FILLER_0_29_55
*1261 FILLER_0_29_57
*1262 FILLER_0_29_69
*1263 FILLER_0_29_77
*1264 FILLER_0_2_109
*1265 FILLER_0_2_121
*1266 FILLER_0_2_133
*1267 FILLER_0_2_139
*1268 FILLER_0_2_141
*1269 FILLER_0_2_15
*1270 FILLER_0_2_153
*1271 FILLER_0_2_165
*1272 FILLER_0_2_177
*1273 FILLER_0_2_189
*1274 FILLER_0_2_195
*1275 FILLER_0_2_197
*1276 FILLER_0_2_209
*1277 FILLER_0_2_221
*1278 FILLER_0_2_233
*1279 FILLER_0_2_245
*1280 FILLER_0_2_251
*1281 FILLER_0_2_253
*1282 FILLER_0_2_265
*1283 FILLER_0_2_27
*1284 FILLER_0_2_277
*1285 FILLER_0_2_289
*1286 FILLER_0_2_29
*1287 FILLER_0_2_3
*1288 FILLER_0_2_301
*1289 FILLER_0_2_307
*1290 FILLER_0_2_309
*1291 FILLER_0_2_321
*1292 FILLER_0_2_333
*1293 FILLER_0_2_345
*1294 FILLER_0_2_357
*1295 FILLER_0_2_363
*1296 FILLER_0_2_365
*1297 FILLER_0_2_377
*1298 FILLER_0_2_389
*1299 FILLER_0_2_401
*1300 FILLER_0_2_41
*1301 FILLER_0_2_53
*1302 FILLER_0_2_65
*1303 FILLER_0_2_77
*1304 FILLER_0_2_83
*1305 FILLER_0_2_85
*1306 FILLER_0_2_97
*1307 FILLER_0_30_131
*1308 FILLER_0_30_139
*1309 FILLER_0_30_141
*1310 FILLER_0_30_15
*1311 FILLER_0_30_153
*1312 FILLER_0_30_165
*1313 FILLER_0_30_177
*1314 FILLER_0_30_189
*1315 FILLER_0_30_195
*1316 FILLER_0_30_203
*1317 FILLER_0_30_207
*1318 FILLER_0_30_220
*1319 FILLER_0_30_233
*1320 FILLER_0_30_245
*1321 FILLER_0_30_251
*1322 FILLER_0_30_253
*1323 FILLER_0_30_265
*1324 FILLER_0_30_27
*1325 FILLER_0_30_277
*1326 FILLER_0_30_289
*1327 FILLER_0_30_29
*1328 FILLER_0_30_3
*1329 FILLER_0_30_301
*1330 FILLER_0_30_307
*1331 FILLER_0_30_309
*1332 FILLER_0_30_321
*1333 FILLER_0_30_333
*1334 FILLER_0_30_345
*1335 FILLER_0_30_357
*1336 FILLER_0_30_363
*1337 FILLER_0_30_365
*1338 FILLER_0_30_377
*1339 FILLER_0_30_389
*1340 FILLER_0_30_401
*1341 FILLER_0_30_41
*1342 FILLER_0_30_53
*1343 FILLER_0_30_65
*1344 FILLER_0_30_77
*1345 FILLER_0_30_83
*1346 FILLER_0_30_85
*1347 FILLER_0_31_103
*1348 FILLER_0_31_111
*1349 FILLER_0_31_120
*1350 FILLER_0_31_132
*1351 FILLER_0_31_143
*1352 FILLER_0_31_147
*1353 FILLER_0_31_15
*1354 FILLER_0_31_167
*1355 FILLER_0_31_169
*1356 FILLER_0_31_201
*1357 FILLER_0_31_214
*1358 FILLER_0_31_245
*1359 FILLER_0_31_257
*1360 FILLER_0_31_269
*1361 FILLER_0_31_27
*1362 FILLER_0_31_277
*1363 FILLER_0_31_281
*1364 FILLER_0_31_293
*1365 FILLER_0_31_3
*1366 FILLER_0_31_305
*1367 FILLER_0_31_317
*1368 FILLER_0_31_329
*1369 FILLER_0_31_335
*1370 FILLER_0_31_337
*1371 FILLER_0_31_349
*1372 FILLER_0_31_361
*1373 FILLER_0_31_373
*1374 FILLER_0_31_385
*1375 FILLER_0_31_39
*1376 FILLER_0_31_391
*1377 FILLER_0_31_393
*1378 FILLER_0_31_405
*1379 FILLER_0_31_51
*1380 FILLER_0_31_55
*1381 FILLER_0_31_57
*1382 FILLER_0_31_69
*1383 FILLER_0_31_81
*1384 FILLER_0_32_102
*1385 FILLER_0_32_114
*1386 FILLER_0_32_125
*1387 FILLER_0_32_129
*1388 FILLER_0_32_144
*1389 FILLER_0_32_15
*1390 FILLER_0_32_166
*1391 FILLER_0_32_176
*1392 FILLER_0_32_184
*1393 FILLER_0_32_197
*1394 FILLER_0_32_205
*1395 FILLER_0_32_214
*1396 FILLER_0_32_222
*1397 FILLER_0_32_237
*1398 FILLER_0_32_249
*1399 FILLER_0_32_253
*1400 FILLER_0_32_265
*1401 FILLER_0_32_27
*1402 FILLER_0_32_277
*1403 FILLER_0_32_289
*1404 FILLER_0_32_29
*1405 FILLER_0_32_3
*1406 FILLER_0_32_301
*1407 FILLER_0_32_307
*1408 FILLER_0_32_309
*1409 FILLER_0_32_321
*1410 FILLER_0_32_333
*1411 FILLER_0_32_345
*1412 FILLER_0_32_357
*1413 FILLER_0_32_363
*1414 FILLER_0_32_365
*1415 FILLER_0_32_377
*1416 FILLER_0_32_389
*1417 FILLER_0_32_401
*1418 FILLER_0_32_41
*1419 FILLER_0_32_53
*1420 FILLER_0_32_65
*1421 FILLER_0_32_77
*1422 FILLER_0_32_83
*1423 FILLER_0_32_85
*1424 FILLER_0_33_109
*1425 FILLER_0_33_142
*1426 FILLER_0_33_15
*1427 FILLER_0_33_158
*1428 FILLER_0_33_166
*1429 FILLER_0_33_176
*1430 FILLER_0_33_184
*1431 FILLER_0_33_196
*1432 FILLER_0_33_222
*1433 FILLER_0_33_246
*1434 FILLER_0_33_258
*1435 FILLER_0_33_27
*1436 FILLER_0_33_270
*1437 FILLER_0_33_278
*1438 FILLER_0_33_281
*1439 FILLER_0_33_293
*1440 FILLER_0_33_3
*1441 FILLER_0_33_305
*1442 FILLER_0_33_317
*1443 FILLER_0_33_329
*1444 FILLER_0_33_335
*1445 FILLER_0_33_337
*1446 FILLER_0_33_349
*1447 FILLER_0_33_361
*1448 FILLER_0_33_373
*1449 FILLER_0_33_385
*1450 FILLER_0_33_39
*1451 FILLER_0_33_391
*1452 FILLER_0_33_393
*1453 FILLER_0_33_405
*1454 FILLER_0_33_51
*1455 FILLER_0_33_55
*1456 FILLER_0_33_57
*1457 FILLER_0_33_69
*1458 FILLER_0_33_81
*1459 FILLER_0_34_100
*1460 FILLER_0_34_133
*1461 FILLER_0_34_139
*1462 FILLER_0_34_141
*1463 FILLER_0_34_15
*1464 FILLER_0_34_157
*1465 FILLER_0_34_197
*1466 FILLER_0_34_216
*1467 FILLER_0_34_228
*1468 FILLER_0_34_235
*1469 FILLER_0_34_247
*1470 FILLER_0_34_251
*1471 FILLER_0_34_253
*1472 FILLER_0_34_265
*1473 FILLER_0_34_27
*1474 FILLER_0_34_277
*1475 FILLER_0_34_289
*1476 FILLER_0_34_29
*1477 FILLER_0_34_3
*1478 FILLER_0_34_301
*1479 FILLER_0_34_307
*1480 FILLER_0_34_309
*1481 FILLER_0_34_321
*1482 FILLER_0_34_333
*1483 FILLER_0_34_345
*1484 FILLER_0_34_357
*1485 FILLER_0_34_363
*1486 FILLER_0_34_365
*1487 FILLER_0_34_377
*1488 FILLER_0_34_389
*1489 FILLER_0_34_401
*1490 FILLER_0_34_41
*1491 FILLER_0_34_53
*1492 FILLER_0_34_65
*1493 FILLER_0_34_77
*1494 FILLER_0_34_83
*1495 FILLER_0_34_85
*1496 FILLER_0_34_95
*1497 FILLER_0_35_107
*1498 FILLER_0_35_111
*1499 FILLER_0_35_120
*1500 FILLER_0_35_127
*1501 FILLER_0_35_139
*1502 FILLER_0_35_157
*1503 FILLER_0_35_166
*1504 FILLER_0_35_173
*1505 FILLER_0_35_179
*1506 FILLER_0_35_191
*1507 FILLER_0_35_203
*1508 FILLER_0_35_207
*1509 FILLER_0_35_21
*1510 FILLER_0_35_219
*1511 FILLER_0_35_223
*1512 FILLER_0_35_245
*1513 FILLER_0_35_257
*1514 FILLER_0_35_269
*1515 FILLER_0_35_277
*1516 FILLER_0_35_281
*1517 FILLER_0_35_293
*1518 FILLER_0_35_305
*1519 FILLER_0_35_317
*1520 FILLER_0_35_329
*1521 FILLER_0_35_33
*1522 FILLER_0_35_335
*1523 FILLER_0_35_337
*1524 FILLER_0_35_349
*1525 FILLER_0_35_361
*1526 FILLER_0_35_373
*1527 FILLER_0_35_385
*1528 FILLER_0_35_391
*1529 FILLER_0_35_393
*1530 FILLER_0_35_405
*1531 FILLER_0_35_45
*1532 FILLER_0_35_53
*1533 FILLER_0_35_57
*1534 FILLER_0_35_69
*1535 FILLER_0_35_81
*1536 FILLER_0_35_9
*1537 FILLER_0_36_104
*1538 FILLER_0_36_133
*1539 FILLER_0_36_15
*1540 FILLER_0_36_185
*1541 FILLER_0_36_189
*1542 FILLER_0_36_197
*1543 FILLER_0_36_205
*1544 FILLER_0_36_213
*1545 FILLER_0_36_221
*1546 FILLER_0_36_229
*1547 FILLER_0_36_241
*1548 FILLER_0_36_249
*1549 FILLER_0_36_253
*1550 FILLER_0_36_265
*1551 FILLER_0_36_27
*1552 FILLER_0_36_277
*1553 FILLER_0_36_289
*1554 FILLER_0_36_29
*1555 FILLER_0_36_3
*1556 FILLER_0_36_301
*1557 FILLER_0_36_307
*1558 FILLER_0_36_309
*1559 FILLER_0_36_321
*1560 FILLER_0_36_333
*1561 FILLER_0_36_345
*1562 FILLER_0_36_357
*1563 FILLER_0_36_363
*1564 FILLER_0_36_365
*1565 FILLER_0_36_377
*1566 FILLER_0_36_389
*1567 FILLER_0_36_401
*1568 FILLER_0_36_41
*1569 FILLER_0_36_53
*1570 FILLER_0_36_65
*1571 FILLER_0_36_77
*1572 FILLER_0_36_83
*1573 FILLER_0_36_85
*1574 FILLER_0_37_100
*1575 FILLER_0_37_113
*1576 FILLER_0_37_137
*1577 FILLER_0_37_145
*1578 FILLER_0_37_15
*1579 FILLER_0_37_167
*1580 FILLER_0_37_174
*1581 FILLER_0_37_182
*1582 FILLER_0_37_190
*1583 FILLER_0_37_201
*1584 FILLER_0_37_207
*1585 FILLER_0_37_220
*1586 FILLER_0_37_237
*1587 FILLER_0_37_249
*1588 FILLER_0_37_261
*1589 FILLER_0_37_27
*1590 FILLER_0_37_273
*1591 FILLER_0_37_279
*1592 FILLER_0_37_281
*1593 FILLER_0_37_293
*1594 FILLER_0_37_3
*1595 FILLER_0_37_305
*1596 FILLER_0_37_317
*1597 FILLER_0_37_329
*1598 FILLER_0_37_335
*1599 FILLER_0_37_337
*1600 FILLER_0_37_349
*1601 FILLER_0_37_361
*1602 FILLER_0_37_373
*1603 FILLER_0_37_385
*1604 FILLER_0_37_39
*1605 FILLER_0_37_391
*1606 FILLER_0_37_393
*1607 FILLER_0_37_401
*1608 FILLER_0_37_51
*1609 FILLER_0_37_55
*1610 FILLER_0_37_57
*1611 FILLER_0_37_69
*1612 FILLER_0_37_77
*1613 FILLER_0_38_119
*1614 FILLER_0_38_131
*1615 FILLER_0_38_139
*1616 FILLER_0_38_141
*1617 FILLER_0_38_15
*1618 FILLER_0_38_153
*1619 FILLER_0_38_170
*1620 FILLER_0_38_195
*1621 FILLER_0_38_197
*1622 FILLER_0_38_201
*1623 FILLER_0_38_209
*1624 FILLER_0_38_217
*1625 FILLER_0_38_243
*1626 FILLER_0_38_251
*1627 FILLER_0_38_253
*1628 FILLER_0_38_265
*1629 FILLER_0_38_27
*1630 FILLER_0_38_277
*1631 FILLER_0_38_289
*1632 FILLER_0_38_29
*1633 FILLER_0_38_3
*1634 FILLER_0_38_301
*1635 FILLER_0_38_307
*1636 FILLER_0_38_309
*1637 FILLER_0_38_321
*1638 FILLER_0_38_333
*1639 FILLER_0_38_345
*1640 FILLER_0_38_357
*1641 FILLER_0_38_363
*1642 FILLER_0_38_365
*1643 FILLER_0_38_377
*1644 FILLER_0_38_389
*1645 FILLER_0_38_401
*1646 FILLER_0_38_41
*1647 FILLER_0_38_53
*1648 FILLER_0_38_65
*1649 FILLER_0_38_77
*1650 FILLER_0_38_83
*1651 FILLER_0_38_85
*1652 FILLER_0_38_94
*1653 FILLER_0_39_128
*1654 FILLER_0_39_148
*1655 FILLER_0_39_15
*1656 FILLER_0_39_161
*1657 FILLER_0_39_167
*1658 FILLER_0_39_173
*1659 FILLER_0_39_189
*1660 FILLER_0_39_210
*1661 FILLER_0_39_225
*1662 FILLER_0_39_237
*1663 FILLER_0_39_249
*1664 FILLER_0_39_261
*1665 FILLER_0_39_27
*1666 FILLER_0_39_273
*1667 FILLER_0_39_279
*1668 FILLER_0_39_281
*1669 FILLER_0_39_293
*1670 FILLER_0_39_3
*1671 FILLER_0_39_305
*1672 FILLER_0_39_317
*1673 FILLER_0_39_329
*1674 FILLER_0_39_335
*1675 FILLER_0_39_337
*1676 FILLER_0_39_349
*1677 FILLER_0_39_361
*1678 FILLER_0_39_373
*1679 FILLER_0_39_385
*1680 FILLER_0_39_39
*1681 FILLER_0_39_391
*1682 FILLER_0_39_393
*1683 FILLER_0_39_405
*1684 FILLER_0_39_51
*1685 FILLER_0_39_55
*1686 FILLER_0_39_57
*1687 FILLER_0_39_69
*1688 FILLER_0_39_81
*1689 FILLER_0_39_89
*1690 FILLER_0_3_105
*1691 FILLER_0_3_111
*1692 FILLER_0_3_113
*1693 FILLER_0_3_125
*1694 FILLER_0_3_137
*1695 FILLER_0_3_149
*1696 FILLER_0_3_15
*1697 FILLER_0_3_161
*1698 FILLER_0_3_167
*1699 FILLER_0_3_169
*1700 FILLER_0_3_181
*1701 FILLER_0_3_193
*1702 FILLER_0_3_205
*1703 FILLER_0_3_217
*1704 FILLER_0_3_223
*1705 FILLER_0_3_225
*1706 FILLER_0_3_237
*1707 FILLER_0_3_249
*1708 FILLER_0_3_261
*1709 FILLER_0_3_27
*1710 FILLER_0_3_273
*1711 FILLER_0_3_279
*1712 FILLER_0_3_281
*1713 FILLER_0_3_293
*1714 FILLER_0_3_3
*1715 FILLER_0_3_305
*1716 FILLER_0_3_317
*1717 FILLER_0_3_329
*1718 FILLER_0_3_335
*1719 FILLER_0_3_337
*1720 FILLER_0_3_349
*1721 FILLER_0_3_361
*1722 FILLER_0_3_373
*1723 FILLER_0_3_385
*1724 FILLER_0_3_39
*1725 FILLER_0_3_391
*1726 FILLER_0_3_393
*1727 FILLER_0_3_405
*1728 FILLER_0_3_51
*1729 FILLER_0_3_55
*1730 FILLER_0_3_57
*1731 FILLER_0_3_69
*1732 FILLER_0_3_81
*1733 FILLER_0_3_93
*1734 FILLER_0_40_105
*1735 FILLER_0_40_118
*1736 FILLER_0_40_137
*1737 FILLER_0_40_141
*1738 FILLER_0_40_149
*1739 FILLER_0_40_15
*1740 FILLER_0_40_164
*1741 FILLER_0_40_174
*1742 FILLER_0_40_181
*1743 FILLER_0_40_187
*1744 FILLER_0_40_195
*1745 FILLER_0_40_197
*1746 FILLER_0_40_203
*1747 FILLER_0_40_211
*1748 FILLER_0_40_219
*1749 FILLER_0_40_231
*1750 FILLER_0_40_243
*1751 FILLER_0_40_251
*1752 FILLER_0_40_253
*1753 FILLER_0_40_265
*1754 FILLER_0_40_27
*1755 FILLER_0_40_277
*1756 FILLER_0_40_289
*1757 FILLER_0_40_29
*1758 FILLER_0_40_3
*1759 FILLER_0_40_301
*1760 FILLER_0_40_307
*1761 FILLER_0_40_309
*1762 FILLER_0_40_321
*1763 FILLER_0_40_333
*1764 FILLER_0_40_345
*1765 FILLER_0_40_357
*1766 FILLER_0_40_363
*1767 FILLER_0_40_365
*1768 FILLER_0_40_377
*1769 FILLER_0_40_389
*1770 FILLER_0_40_401
*1771 FILLER_0_40_41
*1772 FILLER_0_40_53
*1773 FILLER_0_40_65
*1774 FILLER_0_40_77
*1775 FILLER_0_40_83
*1776 FILLER_0_41_126
*1777 FILLER_0_41_140
*1778 FILLER_0_41_15
*1779 FILLER_0_41_165
*1780 FILLER_0_41_175
*1781 FILLER_0_41_194
*1782 FILLER_0_41_206
*1783 FILLER_0_41_218
*1784 FILLER_0_41_225
*1785 FILLER_0_41_237
*1786 FILLER_0_41_249
*1787 FILLER_0_41_261
*1788 FILLER_0_41_27
*1789 FILLER_0_41_273
*1790 FILLER_0_41_279
*1791 FILLER_0_41_281
*1792 FILLER_0_41_293
*1793 FILLER_0_41_3
*1794 FILLER_0_41_305
*1795 FILLER_0_41_317
*1796 FILLER_0_41_329
*1797 FILLER_0_41_335
*1798 FILLER_0_41_337
*1799 FILLER_0_41_349
*1800 FILLER_0_41_361
*1801 FILLER_0_41_373
*1802 FILLER_0_41_385
*1803 FILLER_0_41_39
*1804 FILLER_0_41_391
*1805 FILLER_0_41_393
*1806 FILLER_0_41_405
*1807 FILLER_0_41_51
*1808 FILLER_0_41_55
*1809 FILLER_0_41_57
*1810 FILLER_0_41_69
*1811 FILLER_0_41_81
*1812 FILLER_0_42_121
*1813 FILLER_0_42_125
*1814 FILLER_0_42_15
*1815 FILLER_0_42_163
*1816 FILLER_0_42_169
*1817 FILLER_0_42_176
*1818 FILLER_0_42_184
*1819 FILLER_0_42_193
*1820 FILLER_0_42_202
*1821 FILLER_0_42_214
*1822 FILLER_0_42_226
*1823 FILLER_0_42_238
*1824 FILLER_0_42_250
*1825 FILLER_0_42_253
*1826 FILLER_0_42_265
*1827 FILLER_0_42_27
*1828 FILLER_0_42_277
*1829 FILLER_0_42_289
*1830 FILLER_0_42_29
*1831 FILLER_0_42_3
*1832 FILLER_0_42_301
*1833 FILLER_0_42_307
*1834 FILLER_0_42_309
*1835 FILLER_0_42_321
*1836 FILLER_0_42_333
*1837 FILLER_0_42_345
*1838 FILLER_0_42_357
*1839 FILLER_0_42_363
*1840 FILLER_0_42_365
*1841 FILLER_0_42_377
*1842 FILLER_0_42_389
*1843 FILLER_0_42_401
*1844 FILLER_0_42_41
*1845 FILLER_0_42_53
*1846 FILLER_0_42_65
*1847 FILLER_0_42_77
*1848 FILLER_0_42_83
*1849 FILLER_0_42_85
*1850 FILLER_0_43_105
*1851 FILLER_0_43_111
*1852 FILLER_0_43_113
*1853 FILLER_0_43_125
*1854 FILLER_0_43_129
*1855 FILLER_0_43_138
*1856 FILLER_0_43_15
*1857 FILLER_0_43_165
*1858 FILLER_0_43_173
*1859 FILLER_0_43_185
*1860 FILLER_0_43_199
*1861 FILLER_0_43_211
*1862 FILLER_0_43_223
*1863 FILLER_0_43_225
*1864 FILLER_0_43_237
*1865 FILLER_0_43_249
*1866 FILLER_0_43_261
*1867 FILLER_0_43_27
*1868 FILLER_0_43_273
*1869 FILLER_0_43_279
*1870 FILLER_0_43_281
*1871 FILLER_0_43_293
*1872 FILLER_0_43_3
*1873 FILLER_0_43_305
*1874 FILLER_0_43_317
*1875 FILLER_0_43_329
*1876 FILLER_0_43_335
*1877 FILLER_0_43_337
*1878 FILLER_0_43_349
*1879 FILLER_0_43_361
*1880 FILLER_0_43_373
*1881 FILLER_0_43_385
*1882 FILLER_0_43_39
*1883 FILLER_0_43_391
*1884 FILLER_0_43_393
*1885 FILLER_0_43_405
*1886 FILLER_0_43_51
*1887 FILLER_0_43_55
*1888 FILLER_0_43_57
*1889 FILLER_0_43_69
*1890 FILLER_0_43_81
*1891 FILLER_0_43_93
*1892 FILLER_0_44_105
*1893 FILLER_0_44_154
*1894 FILLER_0_44_166
*1895 FILLER_0_44_172
*1896 FILLER_0_44_195
*1897 FILLER_0_44_197
*1898 FILLER_0_44_209
*1899 FILLER_0_44_21
*1900 FILLER_0_44_221
*1901 FILLER_0_44_233
*1902 FILLER_0_44_245
*1903 FILLER_0_44_251
*1904 FILLER_0_44_253
*1905 FILLER_0_44_265
*1906 FILLER_0_44_27
*1907 FILLER_0_44_277
*1908 FILLER_0_44_289
*1909 FILLER_0_44_29
*1910 FILLER_0_44_301
*1911 FILLER_0_44_307
*1912 FILLER_0_44_309
*1913 FILLER_0_44_321
*1914 FILLER_0_44_333
*1915 FILLER_0_44_345
*1916 FILLER_0_44_357
*1917 FILLER_0_44_363
*1918 FILLER_0_44_365
*1919 FILLER_0_44_377
*1920 FILLER_0_44_389
*1921 FILLER_0_44_401
*1922 FILLER_0_44_41
*1923 FILLER_0_44_53
*1924 FILLER_0_44_65
*1925 FILLER_0_44_77
*1926 FILLER_0_44_83
*1927 FILLER_0_44_85
*1928 FILLER_0_44_9
*1929 FILLER_0_44_97
*1930 FILLER_0_45_105
*1931 FILLER_0_45_111
*1932 FILLER_0_45_119
*1933 FILLER_0_45_125
*1934 FILLER_0_45_143
*1935 FILLER_0_45_15
*1936 FILLER_0_45_151
*1937 FILLER_0_45_158
*1938 FILLER_0_45_164
*1939 FILLER_0_45_178
*1940 FILLER_0_45_185
*1941 FILLER_0_45_197
*1942 FILLER_0_45_209
*1943 FILLER_0_45_221
*1944 FILLER_0_45_225
*1945 FILLER_0_45_237
*1946 FILLER_0_45_249
*1947 FILLER_0_45_261
*1948 FILLER_0_45_27
*1949 FILLER_0_45_273
*1950 FILLER_0_45_279
*1951 FILLER_0_45_281
*1952 FILLER_0_45_293
*1953 FILLER_0_45_3
*1954 FILLER_0_45_305
*1955 FILLER_0_45_317
*1956 FILLER_0_45_329
*1957 FILLER_0_45_335
*1958 FILLER_0_45_337
*1959 FILLER_0_45_349
*1960 FILLER_0_45_361
*1961 FILLER_0_45_373
*1962 FILLER_0_45_385
*1963 FILLER_0_45_39
*1964 FILLER_0_45_391
*1965 FILLER_0_45_393
*1966 FILLER_0_45_401
*1967 FILLER_0_45_51
*1968 FILLER_0_45_55
*1969 FILLER_0_45_57
*1970 FILLER_0_45_69
*1971 FILLER_0_45_81
*1972 FILLER_0_45_93
*1973 FILLER_0_46_109
*1974 FILLER_0_46_121
*1975 FILLER_0_46_147
*1976 FILLER_0_46_15
*1977 FILLER_0_46_151
*1978 FILLER_0_46_166
*1979 FILLER_0_46_178
*1980 FILLER_0_46_184
*1981 FILLER_0_46_193
*1982 FILLER_0_46_197
*1983 FILLER_0_46_209
*1984 FILLER_0_46_221
*1985 FILLER_0_46_233
*1986 FILLER_0_46_245
*1987 FILLER_0_46_251
*1988 FILLER_0_46_253
*1989 FILLER_0_46_265
*1990 FILLER_0_46_27
*1991 FILLER_0_46_277
*1992 FILLER_0_46_289
*1993 FILLER_0_46_29
*1994 FILLER_0_46_3
*1995 FILLER_0_46_301
*1996 FILLER_0_46_307
*1997 FILLER_0_46_309
*1998 FILLER_0_46_321
*1999 FILLER_0_46_333
*2000 FILLER_0_46_345
*2001 FILLER_0_46_357
*2002 FILLER_0_46_363
*2003 FILLER_0_46_365
*2004 FILLER_0_46_377
*2005 FILLER_0_46_389
*2006 FILLER_0_46_401
*2007 FILLER_0_46_41
*2008 FILLER_0_46_53
*2009 FILLER_0_46_65
*2010 FILLER_0_46_77
*2011 FILLER_0_46_83
*2012 FILLER_0_46_85
*2013 FILLER_0_46_97
*2014 FILLER_0_47_105
*2015 FILLER_0_47_111
*2016 FILLER_0_47_113
*2017 FILLER_0_47_125
*2018 FILLER_0_47_143
*2019 FILLER_0_47_15
*2020 FILLER_0_47_151
*2021 FILLER_0_47_163
*2022 FILLER_0_47_167
*2023 FILLER_0_47_169
*2024 FILLER_0_47_178
*2025 FILLER_0_47_200
*2026 FILLER_0_47_208
*2027 FILLER_0_47_215
*2028 FILLER_0_47_223
*2029 FILLER_0_47_225
*2030 FILLER_0_47_237
*2031 FILLER_0_47_249
*2032 FILLER_0_47_261
*2033 FILLER_0_47_27
*2034 FILLER_0_47_273
*2035 FILLER_0_47_279
*2036 FILLER_0_47_281
*2037 FILLER_0_47_293
*2038 FILLER_0_47_3
*2039 FILLER_0_47_305
*2040 FILLER_0_47_317
*2041 FILLER_0_47_329
*2042 FILLER_0_47_335
*2043 FILLER_0_47_337
*2044 FILLER_0_47_349
*2045 FILLER_0_47_361
*2046 FILLER_0_47_373
*2047 FILLER_0_47_385
*2048 FILLER_0_47_39
*2049 FILLER_0_47_391
*2050 FILLER_0_47_393
*2051 FILLER_0_47_405
*2052 FILLER_0_47_51
*2053 FILLER_0_47_55
*2054 FILLER_0_47_57
*2055 FILLER_0_47_69
*2056 FILLER_0_47_81
*2057 FILLER_0_47_93
*2058 FILLER_0_48_109
*2059 FILLER_0_48_121
*2060 FILLER_0_48_133
*2061 FILLER_0_48_146
*2062 FILLER_0_48_15
*2063 FILLER_0_48_171
*2064 FILLER_0_48_192
*2065 FILLER_0_48_197
*2066 FILLER_0_48_209
*2067 FILLER_0_48_221
*2068 FILLER_0_48_233
*2069 FILLER_0_48_245
*2070 FILLER_0_48_251
*2071 FILLER_0_48_253
*2072 FILLER_0_48_265
*2073 FILLER_0_48_27
*2074 FILLER_0_48_277
*2075 FILLER_0_48_289
*2076 FILLER_0_48_29
*2077 FILLER_0_48_3
*2078 FILLER_0_48_301
*2079 FILLER_0_48_307
*2080 FILLER_0_48_309
*2081 FILLER_0_48_321
*2082 FILLER_0_48_333
*2083 FILLER_0_48_345
*2084 FILLER_0_48_357
*2085 FILLER_0_48_363
*2086 FILLER_0_48_365
*2087 FILLER_0_48_377
*2088 FILLER_0_48_389
*2089 FILLER_0_48_401
*2090 FILLER_0_48_41
*2091 FILLER_0_48_53
*2092 FILLER_0_48_65
*2093 FILLER_0_48_77
*2094 FILLER_0_48_83
*2095 FILLER_0_48_85
*2096 FILLER_0_48_97
*2097 FILLER_0_49_105
*2098 FILLER_0_49_111
*2099 FILLER_0_49_113
*2100 FILLER_0_49_125
*2101 FILLER_0_49_137
*2102 FILLER_0_49_15
*2103 FILLER_0_49_166
*2104 FILLER_0_49_169
*2105 FILLER_0_49_173
*2106 FILLER_0_49_183
*2107 FILLER_0_49_195
*2108 FILLER_0_49_207
*2109 FILLER_0_49_219
*2110 FILLER_0_49_223
*2111 FILLER_0_49_225
*2112 FILLER_0_49_237
*2113 FILLER_0_49_249
*2114 FILLER_0_49_261
*2115 FILLER_0_49_27
*2116 FILLER_0_49_273
*2117 FILLER_0_49_279
*2118 FILLER_0_49_281
*2119 FILLER_0_49_293
*2120 FILLER_0_49_3
*2121 FILLER_0_49_305
*2122 FILLER_0_49_317
*2123 FILLER_0_49_329
*2124 FILLER_0_49_335
*2125 FILLER_0_49_337
*2126 FILLER_0_49_349
*2127 FILLER_0_49_361
*2128 FILLER_0_49_373
*2129 FILLER_0_49_385
*2130 FILLER_0_49_39
*2131 FILLER_0_49_391
*2132 FILLER_0_49_393
*2133 FILLER_0_49_405
*2134 FILLER_0_49_51
*2135 FILLER_0_49_55
*2136 FILLER_0_49_57
*2137 FILLER_0_49_69
*2138 FILLER_0_49_81
*2139 FILLER_0_49_93
*2140 FILLER_0_4_109
*2141 FILLER_0_4_121
*2142 FILLER_0_4_133
*2143 FILLER_0_4_139
*2144 FILLER_0_4_141
*2145 FILLER_0_4_153
*2146 FILLER_0_4_165
*2147 FILLER_0_4_177
*2148 FILLER_0_4_189
*2149 FILLER_0_4_19
*2150 FILLER_0_4_195
*2151 FILLER_0_4_197
*2152 FILLER_0_4_209
*2153 FILLER_0_4_221
*2154 FILLER_0_4_233
*2155 FILLER_0_4_245
*2156 FILLER_0_4_251
*2157 FILLER_0_4_253
*2158 FILLER_0_4_265
*2159 FILLER_0_4_27
*2160 FILLER_0_4_277
*2161 FILLER_0_4_289
*2162 FILLER_0_4_29
*2163 FILLER_0_4_301
*2164 FILLER_0_4_307
*2165 FILLER_0_4_309
*2166 FILLER_0_4_321
*2167 FILLER_0_4_333
*2168 FILLER_0_4_345
*2169 FILLER_0_4_357
*2170 FILLER_0_4_363
*2171 FILLER_0_4_365
*2172 FILLER_0_4_377
*2173 FILLER_0_4_389
*2174 FILLER_0_4_401
*2175 FILLER_0_4_41
*2176 FILLER_0_4_53
*2177 FILLER_0_4_65
*2178 FILLER_0_4_7
*2179 FILLER_0_4_77
*2180 FILLER_0_4_83
*2181 FILLER_0_4_85
*2182 FILLER_0_4_97
*2183 FILLER_0_50_109
*2184 FILLER_0_50_121
*2185 FILLER_0_50_133
*2186 FILLER_0_50_139
*2187 FILLER_0_50_141
*2188 FILLER_0_50_15
*2189 FILLER_0_50_153
*2190 FILLER_0_50_165
*2191 FILLER_0_50_177
*2192 FILLER_0_50_189
*2193 FILLER_0_50_195
*2194 FILLER_0_50_197
*2195 FILLER_0_50_209
*2196 FILLER_0_50_221
*2197 FILLER_0_50_233
*2198 FILLER_0_50_245
*2199 FILLER_0_50_251
*2200 FILLER_0_50_253
*2201 FILLER_0_50_265
*2202 FILLER_0_50_27
*2203 FILLER_0_50_277
*2204 FILLER_0_50_289
*2205 FILLER_0_50_29
*2206 FILLER_0_50_3
*2207 FILLER_0_50_301
*2208 FILLER_0_50_307
*2209 FILLER_0_50_309
*2210 FILLER_0_50_321
*2211 FILLER_0_50_333
*2212 FILLER_0_50_345
*2213 FILLER_0_50_357
*2214 FILLER_0_50_363
*2215 FILLER_0_50_365
*2216 FILLER_0_50_377
*2217 FILLER_0_50_389
*2218 FILLER_0_50_401
*2219 FILLER_0_50_41
*2220 FILLER_0_50_53
*2221 FILLER_0_50_65
*2222 FILLER_0_50_77
*2223 FILLER_0_50_83
*2224 FILLER_0_50_85
*2225 FILLER_0_50_97
*2226 FILLER_0_51_105
*2227 FILLER_0_51_111
*2228 FILLER_0_51_113
*2229 FILLER_0_51_125
*2230 FILLER_0_51_137
*2231 FILLER_0_51_149
*2232 FILLER_0_51_161
*2233 FILLER_0_51_167
*2234 FILLER_0_51_169
*2235 FILLER_0_51_181
*2236 FILLER_0_51_19
*2237 FILLER_0_51_193
*2238 FILLER_0_51_205
*2239 FILLER_0_51_217
*2240 FILLER_0_51_223
*2241 FILLER_0_51_225
*2242 FILLER_0_51_237
*2243 FILLER_0_51_249
*2244 FILLER_0_51_261
*2245 FILLER_0_51_273
*2246 FILLER_0_51_279
*2247 FILLER_0_51_281
*2248 FILLER_0_51_293
*2249 FILLER_0_51_305
*2250 FILLER_0_51_31
*2251 FILLER_0_51_317
*2252 FILLER_0_51_329
*2253 FILLER_0_51_335
*2254 FILLER_0_51_337
*2255 FILLER_0_51_349
*2256 FILLER_0_51_361
*2257 FILLER_0_51_373
*2258 FILLER_0_51_385
*2259 FILLER_0_51_391
*2260 FILLER_0_51_393
*2261 FILLER_0_51_405
*2262 FILLER_0_51_43
*2263 FILLER_0_51_55
*2264 FILLER_0_51_57
*2265 FILLER_0_51_69
*2266 FILLER_0_51_7
*2267 FILLER_0_51_81
*2268 FILLER_0_51_93
*2269 FILLER_0_52_109
*2270 FILLER_0_52_121
*2271 FILLER_0_52_133
*2272 FILLER_0_52_139
*2273 FILLER_0_52_141
*2274 FILLER_0_52_15
*2275 FILLER_0_52_153
*2276 FILLER_0_52_165
*2277 FILLER_0_52_177
*2278 FILLER_0_52_189
*2279 FILLER_0_52_195
*2280 FILLER_0_52_197
*2281 FILLER_0_52_209
*2282 FILLER_0_52_221
*2283 FILLER_0_52_233
*2284 FILLER_0_52_245
*2285 FILLER_0_52_251
*2286 FILLER_0_52_253
*2287 FILLER_0_52_265
*2288 FILLER_0_52_27
*2289 FILLER_0_52_277
*2290 FILLER_0_52_289
*2291 FILLER_0_52_29
*2292 FILLER_0_52_3
*2293 FILLER_0_52_301
*2294 FILLER_0_52_307
*2295 FILLER_0_52_309
*2296 FILLER_0_52_321
*2297 FILLER_0_52_333
*2298 FILLER_0_52_345
*2299 FILLER_0_52_357
*2300 FILLER_0_52_363
*2301 FILLER_0_52_365
*2302 FILLER_0_52_377
*2303 FILLER_0_52_389
*2304 FILLER_0_52_401
*2305 FILLER_0_52_41
*2306 FILLER_0_52_53
*2307 FILLER_0_52_65
*2308 FILLER_0_52_77
*2309 FILLER_0_52_83
*2310 FILLER_0_52_85
*2311 FILLER_0_52_97
*2312 FILLER_0_53_105
*2313 FILLER_0_53_111
*2314 FILLER_0_53_113
*2315 FILLER_0_53_125
*2316 FILLER_0_53_137
*2317 FILLER_0_53_149
*2318 FILLER_0_53_15
*2319 FILLER_0_53_161
*2320 FILLER_0_53_167
*2321 FILLER_0_53_169
*2322 FILLER_0_53_181
*2323 FILLER_0_53_193
*2324 FILLER_0_53_205
*2325 FILLER_0_53_217
*2326 FILLER_0_53_223
*2327 FILLER_0_53_225
*2328 FILLER_0_53_237
*2329 FILLER_0_53_249
*2330 FILLER_0_53_261
*2331 FILLER_0_53_27
*2332 FILLER_0_53_273
*2333 FILLER_0_53_279
*2334 FILLER_0_53_281
*2335 FILLER_0_53_293
*2336 FILLER_0_53_3
*2337 FILLER_0_53_305
*2338 FILLER_0_53_317
*2339 FILLER_0_53_329
*2340 FILLER_0_53_335
*2341 FILLER_0_53_337
*2342 FILLER_0_53_349
*2343 FILLER_0_53_361
*2344 FILLER_0_53_373
*2345 FILLER_0_53_385
*2346 FILLER_0_53_39
*2347 FILLER_0_53_391
*2348 FILLER_0_53_393
*2349 FILLER_0_53_405
*2350 FILLER_0_53_51
*2351 FILLER_0_53_55
*2352 FILLER_0_53_57
*2353 FILLER_0_53_69
*2354 FILLER_0_53_81
*2355 FILLER_0_53_93
*2356 FILLER_0_54_109
*2357 FILLER_0_54_121
*2358 FILLER_0_54_133
*2359 FILLER_0_54_139
*2360 FILLER_0_54_141
*2361 FILLER_0_54_15
*2362 FILLER_0_54_153
*2363 FILLER_0_54_165
*2364 FILLER_0_54_177
*2365 FILLER_0_54_189
*2366 FILLER_0_54_195
*2367 FILLER_0_54_197
*2368 FILLER_0_54_209
*2369 FILLER_0_54_221
*2370 FILLER_0_54_233
*2371 FILLER_0_54_245
*2372 FILLER_0_54_251
*2373 FILLER_0_54_253
*2374 FILLER_0_54_265
*2375 FILLER_0_54_27
*2376 FILLER_0_54_277
*2377 FILLER_0_54_289
*2378 FILLER_0_54_29
*2379 FILLER_0_54_3
*2380 FILLER_0_54_301
*2381 FILLER_0_54_307
*2382 FILLER_0_54_309
*2383 FILLER_0_54_321
*2384 FILLER_0_54_333
*2385 FILLER_0_54_345
*2386 FILLER_0_54_357
*2387 FILLER_0_54_363
*2388 FILLER_0_54_365
*2389 FILLER_0_54_377
*2390 FILLER_0_54_389
*2391 FILLER_0_54_401
*2392 FILLER_0_54_41
*2393 FILLER_0_54_53
*2394 FILLER_0_54_65
*2395 FILLER_0_54_77
*2396 FILLER_0_54_83
*2397 FILLER_0_54_85
*2398 FILLER_0_54_97
*2399 FILLER_0_55_105
*2400 FILLER_0_55_111
*2401 FILLER_0_55_113
*2402 FILLER_0_55_125
*2403 FILLER_0_55_137
*2404 FILLER_0_55_149
*2405 FILLER_0_55_15
*2406 FILLER_0_55_161
*2407 FILLER_0_55_167
*2408 FILLER_0_55_169
*2409 FILLER_0_55_181
*2410 FILLER_0_55_193
*2411 FILLER_0_55_205
*2412 FILLER_0_55_217
*2413 FILLER_0_55_223
*2414 FILLER_0_55_225
*2415 FILLER_0_55_237
*2416 FILLER_0_55_249
*2417 FILLER_0_55_261
*2418 FILLER_0_55_27
*2419 FILLER_0_55_273
*2420 FILLER_0_55_279
*2421 FILLER_0_55_281
*2422 FILLER_0_55_293
*2423 FILLER_0_55_3
*2424 FILLER_0_55_305
*2425 FILLER_0_55_317
*2426 FILLER_0_55_329
*2427 FILLER_0_55_335
*2428 FILLER_0_55_337
*2429 FILLER_0_55_349
*2430 FILLER_0_55_361
*2431 FILLER_0_55_373
*2432 FILLER_0_55_385
*2433 FILLER_0_55_39
*2434 FILLER_0_55_391
*2435 FILLER_0_55_393
*2436 FILLER_0_55_405
*2437 FILLER_0_55_51
*2438 FILLER_0_55_55
*2439 FILLER_0_55_57
*2440 FILLER_0_55_69
*2441 FILLER_0_55_81
*2442 FILLER_0_55_93
*2443 FILLER_0_56_109
*2444 FILLER_0_56_121
*2445 FILLER_0_56_133
*2446 FILLER_0_56_139
*2447 FILLER_0_56_141
*2448 FILLER_0_56_15
*2449 FILLER_0_56_153
*2450 FILLER_0_56_165
*2451 FILLER_0_56_177
*2452 FILLER_0_56_189
*2453 FILLER_0_56_195
*2454 FILLER_0_56_197
*2455 FILLER_0_56_209
*2456 FILLER_0_56_221
*2457 FILLER_0_56_233
*2458 FILLER_0_56_245
*2459 FILLER_0_56_251
*2460 FILLER_0_56_253
*2461 FILLER_0_56_265
*2462 FILLER_0_56_27
*2463 FILLER_0_56_277
*2464 FILLER_0_56_289
*2465 FILLER_0_56_29
*2466 FILLER_0_56_3
*2467 FILLER_0_56_301
*2468 FILLER_0_56_307
*2469 FILLER_0_56_309
*2470 FILLER_0_56_321
*2471 FILLER_0_56_333
*2472 FILLER_0_56_345
*2473 FILLER_0_56_357
*2474 FILLER_0_56_363
*2475 FILLER_0_56_365
*2476 FILLER_0_56_377
*2477 FILLER_0_56_389
*2478 FILLER_0_56_401
*2479 FILLER_0_56_41
*2480 FILLER_0_56_53
*2481 FILLER_0_56_65
*2482 FILLER_0_56_77
*2483 FILLER_0_56_83
*2484 FILLER_0_56_85
*2485 FILLER_0_56_97
*2486 FILLER_0_57_105
*2487 FILLER_0_57_111
*2488 FILLER_0_57_113
*2489 FILLER_0_57_125
*2490 FILLER_0_57_137
*2491 FILLER_0_57_149
*2492 FILLER_0_57_15
*2493 FILLER_0_57_161
*2494 FILLER_0_57_167
*2495 FILLER_0_57_169
*2496 FILLER_0_57_181
*2497 FILLER_0_57_193
*2498 FILLER_0_57_205
*2499 FILLER_0_57_217
*2500 FILLER_0_57_223
*2501 FILLER_0_57_225
*2502 FILLER_0_57_237
*2503 FILLER_0_57_249
*2504 FILLER_0_57_261
*2505 FILLER_0_57_27
*2506 FILLER_0_57_273
*2507 FILLER_0_57_279
*2508 FILLER_0_57_281
*2509 FILLER_0_57_293
*2510 FILLER_0_57_3
*2511 FILLER_0_57_305
*2512 FILLER_0_57_317
*2513 FILLER_0_57_329
*2514 FILLER_0_57_335
*2515 FILLER_0_57_337
*2516 FILLER_0_57_349
*2517 FILLER_0_57_361
*2518 FILLER_0_57_373
*2519 FILLER_0_57_385
*2520 FILLER_0_57_39
*2521 FILLER_0_57_391
*2522 FILLER_0_57_393
*2523 FILLER_0_57_405
*2524 FILLER_0_57_51
*2525 FILLER_0_57_55
*2526 FILLER_0_57_57
*2527 FILLER_0_57_69
*2528 FILLER_0_57_81
*2529 FILLER_0_57_93
*2530 FILLER_0_58_109
*2531 FILLER_0_58_121
*2532 FILLER_0_58_133
*2533 FILLER_0_58_139
*2534 FILLER_0_58_141
*2535 FILLER_0_58_15
*2536 FILLER_0_58_153
*2537 FILLER_0_58_165
*2538 FILLER_0_58_177
*2539 FILLER_0_58_189
*2540 FILLER_0_58_195
*2541 FILLER_0_58_197
*2542 FILLER_0_58_209
*2543 FILLER_0_58_221
*2544 FILLER_0_58_233
*2545 FILLER_0_58_245
*2546 FILLER_0_58_251
*2547 FILLER_0_58_253
*2548 FILLER_0_58_265
*2549 FILLER_0_58_27
*2550 FILLER_0_58_277
*2551 FILLER_0_58_289
*2552 FILLER_0_58_29
*2553 FILLER_0_58_3
*2554 FILLER_0_58_301
*2555 FILLER_0_58_307
*2556 FILLER_0_58_309
*2557 FILLER_0_58_321
*2558 FILLER_0_58_333
*2559 FILLER_0_58_345
*2560 FILLER_0_58_357
*2561 FILLER_0_58_363
*2562 FILLER_0_58_365
*2563 FILLER_0_58_377
*2564 FILLER_0_58_389
*2565 FILLER_0_58_401
*2566 FILLER_0_58_41
*2567 FILLER_0_58_53
*2568 FILLER_0_58_65
*2569 FILLER_0_58_77
*2570 FILLER_0_58_83
*2571 FILLER_0_58_85
*2572 FILLER_0_58_97
*2573 FILLER_0_59_105
*2574 FILLER_0_59_111
*2575 FILLER_0_59_113
*2576 FILLER_0_59_125
*2577 FILLER_0_59_137
*2578 FILLER_0_59_149
*2579 FILLER_0_59_161
*2580 FILLER_0_59_167
*2581 FILLER_0_59_169
*2582 FILLER_0_59_181
*2583 FILLER_0_59_193
*2584 FILLER_0_59_205
*2585 FILLER_0_59_21
*2586 FILLER_0_59_217
*2587 FILLER_0_59_223
*2588 FILLER_0_59_225
*2589 FILLER_0_59_237
*2590 FILLER_0_59_249
*2591 FILLER_0_59_261
*2592 FILLER_0_59_273
*2593 FILLER_0_59_279
*2594 FILLER_0_59_281
*2595 FILLER_0_59_293
*2596 FILLER_0_59_305
*2597 FILLER_0_59_317
*2598 FILLER_0_59_329
*2599 FILLER_0_59_33
*2600 FILLER_0_59_335
*2601 FILLER_0_59_337
*2602 FILLER_0_59_349
*2603 FILLER_0_59_361
*2604 FILLER_0_59_373
*2605 FILLER_0_59_385
*2606 FILLER_0_59_391
*2607 FILLER_0_59_393
*2608 FILLER_0_59_405
*2609 FILLER_0_59_45
*2610 FILLER_0_59_53
*2611 FILLER_0_59_57
*2612 FILLER_0_59_69
*2613 FILLER_0_59_81
*2614 FILLER_0_59_9
*2615 FILLER_0_59_93
*2616 FILLER_0_5_105
*2617 FILLER_0_5_111
*2618 FILLER_0_5_113
*2619 FILLER_0_5_125
*2620 FILLER_0_5_137
*2621 FILLER_0_5_149
*2622 FILLER_0_5_15
*2623 FILLER_0_5_161
*2624 FILLER_0_5_167
*2625 FILLER_0_5_169
*2626 FILLER_0_5_181
*2627 FILLER_0_5_193
*2628 FILLER_0_5_205
*2629 FILLER_0_5_217
*2630 FILLER_0_5_223
*2631 FILLER_0_5_225
*2632 FILLER_0_5_237
*2633 FILLER_0_5_249
*2634 FILLER_0_5_261
*2635 FILLER_0_5_27
*2636 FILLER_0_5_273
*2637 FILLER_0_5_279
*2638 FILLER_0_5_281
*2639 FILLER_0_5_293
*2640 FILLER_0_5_3
*2641 FILLER_0_5_305
*2642 FILLER_0_5_317
*2643 FILLER_0_5_329
*2644 FILLER_0_5_335
*2645 FILLER_0_5_337
*2646 FILLER_0_5_349
*2647 FILLER_0_5_361
*2648 FILLER_0_5_373
*2649 FILLER_0_5_385
*2650 FILLER_0_5_39
*2651 FILLER_0_5_391
*2652 FILLER_0_5_393
*2653 FILLER_0_5_405
*2654 FILLER_0_5_51
*2655 FILLER_0_5_55
*2656 FILLER_0_5_57
*2657 FILLER_0_5_69
*2658 FILLER_0_5_81
*2659 FILLER_0_5_93
*2660 FILLER_0_60_109
*2661 FILLER_0_60_121
*2662 FILLER_0_60_133
*2663 FILLER_0_60_139
*2664 FILLER_0_60_141
*2665 FILLER_0_60_15
*2666 FILLER_0_60_153
*2667 FILLER_0_60_165
*2668 FILLER_0_60_177
*2669 FILLER_0_60_189
*2670 FILLER_0_60_195
*2671 FILLER_0_60_197
*2672 FILLER_0_60_209
*2673 FILLER_0_60_221
*2674 FILLER_0_60_233
*2675 FILLER_0_60_245
*2676 FILLER_0_60_251
*2677 FILLER_0_60_253
*2678 FILLER_0_60_265
*2679 FILLER_0_60_27
*2680 FILLER_0_60_277
*2681 FILLER_0_60_289
*2682 FILLER_0_60_29
*2683 FILLER_0_60_3
*2684 FILLER_0_60_301
*2685 FILLER_0_60_307
*2686 FILLER_0_60_309
*2687 FILLER_0_60_321
*2688 FILLER_0_60_333
*2689 FILLER_0_60_345
*2690 FILLER_0_60_357
*2691 FILLER_0_60_363
*2692 FILLER_0_60_365
*2693 FILLER_0_60_377
*2694 FILLER_0_60_389
*2695 FILLER_0_60_401
*2696 FILLER_0_60_41
*2697 FILLER_0_60_53
*2698 FILLER_0_60_65
*2699 FILLER_0_60_77
*2700 FILLER_0_60_83
*2701 FILLER_0_60_85
*2702 FILLER_0_60_97
*2703 FILLER_0_61_105
*2704 FILLER_0_61_111
*2705 FILLER_0_61_113
*2706 FILLER_0_61_125
*2707 FILLER_0_61_137
*2708 FILLER_0_61_149
*2709 FILLER_0_61_15
*2710 FILLER_0_61_161
*2711 FILLER_0_61_167
*2712 FILLER_0_61_169
*2713 FILLER_0_61_181
*2714 FILLER_0_61_193
*2715 FILLER_0_61_205
*2716 FILLER_0_61_217
*2717 FILLER_0_61_223
*2718 FILLER_0_61_225
*2719 FILLER_0_61_237
*2720 FILLER_0_61_249
*2721 FILLER_0_61_261
*2722 FILLER_0_61_27
*2723 FILLER_0_61_273
*2724 FILLER_0_61_279
*2725 FILLER_0_61_281
*2726 FILLER_0_61_293
*2727 FILLER_0_61_3
*2728 FILLER_0_61_305
*2729 FILLER_0_61_317
*2730 FILLER_0_61_329
*2731 FILLER_0_61_335
*2732 FILLER_0_61_337
*2733 FILLER_0_61_349
*2734 FILLER_0_61_361
*2735 FILLER_0_61_373
*2736 FILLER_0_61_385
*2737 FILLER_0_61_39
*2738 FILLER_0_61_391
*2739 FILLER_0_61_393
*2740 FILLER_0_61_51
*2741 FILLER_0_61_55
*2742 FILLER_0_61_57
*2743 FILLER_0_61_69
*2744 FILLER_0_61_81
*2745 FILLER_0_61_93
*2746 FILLER_0_62_109
*2747 FILLER_0_62_121
*2748 FILLER_0_62_133
*2749 FILLER_0_62_139
*2750 FILLER_0_62_141
*2751 FILLER_0_62_15
*2752 FILLER_0_62_153
*2753 FILLER_0_62_165
*2754 FILLER_0_62_177
*2755 FILLER_0_62_189
*2756 FILLER_0_62_195
*2757 FILLER_0_62_197
*2758 FILLER_0_62_209
*2759 FILLER_0_62_221
*2760 FILLER_0_62_233
*2761 FILLER_0_62_245
*2762 FILLER_0_62_251
*2763 FILLER_0_62_253
*2764 FILLER_0_62_265
*2765 FILLER_0_62_27
*2766 FILLER_0_62_277
*2767 FILLER_0_62_289
*2768 FILLER_0_62_29
*2769 FILLER_0_62_3
*2770 FILLER_0_62_301
*2771 FILLER_0_62_307
*2772 FILLER_0_62_309
*2773 FILLER_0_62_321
*2774 FILLER_0_62_333
*2775 FILLER_0_62_345
*2776 FILLER_0_62_357
*2777 FILLER_0_62_363
*2778 FILLER_0_62_365
*2779 FILLER_0_62_377
*2780 FILLER_0_62_389
*2781 FILLER_0_62_401
*2782 FILLER_0_62_41
*2783 FILLER_0_62_53
*2784 FILLER_0_62_65
*2785 FILLER_0_62_77
*2786 FILLER_0_62_83
*2787 FILLER_0_62_85
*2788 FILLER_0_62_97
*2789 FILLER_0_63_105
*2790 FILLER_0_63_111
*2791 FILLER_0_63_113
*2792 FILLER_0_63_125
*2793 FILLER_0_63_137
*2794 FILLER_0_63_149
*2795 FILLER_0_63_15
*2796 FILLER_0_63_161
*2797 FILLER_0_63_167
*2798 FILLER_0_63_169
*2799 FILLER_0_63_181
*2800 FILLER_0_63_193
*2801 FILLER_0_63_205
*2802 FILLER_0_63_217
*2803 FILLER_0_63_223
*2804 FILLER_0_63_225
*2805 FILLER_0_63_237
*2806 FILLER_0_63_249
*2807 FILLER_0_63_261
*2808 FILLER_0_63_27
*2809 FILLER_0_63_273
*2810 FILLER_0_63_279
*2811 FILLER_0_63_281
*2812 FILLER_0_63_293
*2813 FILLER_0_63_3
*2814 FILLER_0_63_305
*2815 FILLER_0_63_317
*2816 FILLER_0_63_329
*2817 FILLER_0_63_335
*2818 FILLER_0_63_337
*2819 FILLER_0_63_349
*2820 FILLER_0_63_361
*2821 FILLER_0_63_373
*2822 FILLER_0_63_385
*2823 FILLER_0_63_39
*2824 FILLER_0_63_391
*2825 FILLER_0_63_393
*2826 FILLER_0_63_405
*2827 FILLER_0_63_51
*2828 FILLER_0_63_55
*2829 FILLER_0_63_57
*2830 FILLER_0_63_69
*2831 FILLER_0_63_81
*2832 FILLER_0_63_93
*2833 FILLER_0_64_109
*2834 FILLER_0_64_119
*2835 FILLER_0_64_131
*2836 FILLER_0_64_139
*2837 FILLER_0_64_141
*2838 FILLER_0_64_149
*2839 FILLER_0_64_15
*2840 FILLER_0_64_153
*2841 FILLER_0_64_165
*2842 FILLER_0_64_169
*2843 FILLER_0_64_181
*2844 FILLER_0_64_193
*2845 FILLER_0_64_197
*2846 FILLER_0_64_202
*2847 FILLER_0_64_21
*2848 FILLER_0_64_214
*2849 FILLER_0_64_222
*2850 FILLER_0_64_225
*2851 FILLER_0_64_237
*2852 FILLER_0_64_247
*2853 FILLER_0_64_251
*2854 FILLER_0_64_253
*2855 FILLER_0_64_265
*2856 FILLER_0_64_27
*2857 FILLER_0_64_277
*2858 FILLER_0_64_281
*2859 FILLER_0_64_289
*2860 FILLER_0_64_29
*2861 FILLER_0_64_301
*2862 FILLER_0_64_307
*2863 FILLER_0_64_309
*2864 FILLER_0_64_321
*2865 FILLER_0_64_329
*2866 FILLER_0_64_335
*2867 FILLER_0_64_337
*2868 FILLER_0_64_349
*2869 FILLER_0_64_361
*2870 FILLER_0_64_365
*2871 FILLER_0_64_373
*2872 FILLER_0_64_380
*2873 FILLER_0_64_393
*2874 FILLER_0_64_401
*2875 FILLER_0_64_41
*2876 FILLER_0_64_53
*2877 FILLER_0_64_57
*2878 FILLER_0_64_65
*2879 FILLER_0_64_7
*2880 FILLER_0_64_72
*2881 FILLER_0_64_85
*2882 FILLER_0_64_97
*2883 FILLER_0_6_109
*2884 FILLER_0_6_121
*2885 FILLER_0_6_133
*2886 FILLER_0_6_139
*2887 FILLER_0_6_141
*2888 FILLER_0_6_15
*2889 FILLER_0_6_153
*2890 FILLER_0_6_165
*2891 FILLER_0_6_177
*2892 FILLER_0_6_189
*2893 FILLER_0_6_195
*2894 FILLER_0_6_197
*2895 FILLER_0_6_209
*2896 FILLER_0_6_221
*2897 FILLER_0_6_233
*2898 FILLER_0_6_245
*2899 FILLER_0_6_251
*2900 FILLER_0_6_253
*2901 FILLER_0_6_265
*2902 FILLER_0_6_27
*2903 FILLER_0_6_277
*2904 FILLER_0_6_289
*2905 FILLER_0_6_29
*2906 FILLER_0_6_3
*2907 FILLER_0_6_301
*2908 FILLER_0_6_307
*2909 FILLER_0_6_309
*2910 FILLER_0_6_321
*2911 FILLER_0_6_333
*2912 FILLER_0_6_345
*2913 FILLER_0_6_357
*2914 FILLER_0_6_363
*2915 FILLER_0_6_365
*2916 FILLER_0_6_377
*2917 FILLER_0_6_389
*2918 FILLER_0_6_41
*2919 FILLER_0_6_53
*2920 FILLER_0_6_65
*2921 FILLER_0_6_77
*2922 FILLER_0_6_83
*2923 FILLER_0_6_85
*2924 FILLER_0_6_97
*2925 FILLER_0_7_105
*2926 FILLER_0_7_111
*2927 FILLER_0_7_113
*2928 FILLER_0_7_125
*2929 FILLER_0_7_137
*2930 FILLER_0_7_149
*2931 FILLER_0_7_15
*2932 FILLER_0_7_161
*2933 FILLER_0_7_167
*2934 FILLER_0_7_169
*2935 FILLER_0_7_181
*2936 FILLER_0_7_193
*2937 FILLER_0_7_205
*2938 FILLER_0_7_217
*2939 FILLER_0_7_223
*2940 FILLER_0_7_225
*2941 FILLER_0_7_237
*2942 FILLER_0_7_249
*2943 FILLER_0_7_261
*2944 FILLER_0_7_27
*2945 FILLER_0_7_273
*2946 FILLER_0_7_279
*2947 FILLER_0_7_281
*2948 FILLER_0_7_293
*2949 FILLER_0_7_3
*2950 FILLER_0_7_305
*2951 FILLER_0_7_317
*2952 FILLER_0_7_329
*2953 FILLER_0_7_335
*2954 FILLER_0_7_337
*2955 FILLER_0_7_349
*2956 FILLER_0_7_361
*2957 FILLER_0_7_373
*2958 FILLER_0_7_385
*2959 FILLER_0_7_39
*2960 FILLER_0_7_391
*2961 FILLER_0_7_393
*2962 FILLER_0_7_405
*2963 FILLER_0_7_51
*2964 FILLER_0_7_55
*2965 FILLER_0_7_57
*2966 FILLER_0_7_69
*2967 FILLER_0_7_81
*2968 FILLER_0_7_93
*2969 FILLER_0_8_109
*2970 FILLER_0_8_121
*2971 FILLER_0_8_133
*2972 FILLER_0_8_139
*2973 FILLER_0_8_141
*2974 FILLER_0_8_15
*2975 FILLER_0_8_153
*2976 FILLER_0_8_165
*2977 FILLER_0_8_177
*2978 FILLER_0_8_189
*2979 FILLER_0_8_195
*2980 FILLER_0_8_197
*2981 FILLER_0_8_209
*2982 FILLER_0_8_221
*2983 FILLER_0_8_233
*2984 FILLER_0_8_245
*2985 FILLER_0_8_251
*2986 FILLER_0_8_253
*2987 FILLER_0_8_265
*2988 FILLER_0_8_27
*2989 FILLER_0_8_277
*2990 FILLER_0_8_289
*2991 FILLER_0_8_29
*2992 FILLER_0_8_3
*2993 FILLER_0_8_301
*2994 FILLER_0_8_307
*2995 FILLER_0_8_309
*2996 FILLER_0_8_321
*2997 FILLER_0_8_333
*2998 FILLER_0_8_345
*2999 FILLER_0_8_357
*3000 FILLER_0_8_363
*3001 FILLER_0_8_365
*3002 FILLER_0_8_377
*3003 FILLER_0_8_389
*3004 FILLER_0_8_401
*3005 FILLER_0_8_41
*3006 FILLER_0_8_53
*3007 FILLER_0_8_65
*3008 FILLER_0_8_77
*3009 FILLER_0_8_83
*3010 FILLER_0_8_85
*3011 FILLER_0_8_97
*3012 FILLER_0_9_105
*3013 FILLER_0_9_111
*3014 FILLER_0_9_113
*3015 FILLER_0_9_125
*3016 FILLER_0_9_137
*3017 FILLER_0_9_149
*3018 FILLER_0_9_15
*3019 FILLER_0_9_161
*3020 FILLER_0_9_167
*3021 FILLER_0_9_169
*3022 FILLER_0_9_181
*3023 FILLER_0_9_193
*3024 FILLER_0_9_205
*3025 FILLER_0_9_217
*3026 FILLER_0_9_223
*3027 FILLER_0_9_225
*3028 FILLER_0_9_237
*3029 FILLER_0_9_249
*3030 FILLER_0_9_261
*3031 FILLER_0_9_27
*3032 FILLER_0_9_273
*3033 FILLER_0_9_279
*3034 FILLER_0_9_281
*3035 FILLER_0_9_293
*3036 FILLER_0_9_3
*3037 FILLER_0_9_305
*3038 FILLER_0_9_317
*3039 FILLER_0_9_329
*3040 FILLER_0_9_335
*3041 FILLER_0_9_337
*3042 FILLER_0_9_349
*3043 FILLER_0_9_361
*3044 FILLER_0_9_373
*3045 FILLER_0_9_385
*3046 FILLER_0_9_39
*3047 FILLER_0_9_391
*3048 FILLER_0_9_393
*3049 FILLER_0_9_405
*3050 FILLER_0_9_51
*3051 FILLER_0_9_55
*3052 FILLER_0_9_57
*3053 FILLER_0_9_69
*3054 FILLER_0_9_81
*3055 FILLER_0_9_93
*3056 PHY_0
*3057 PHY_1
*3058 PHY_10
*3059 PHY_100
*3060 PHY_101
*3061 PHY_102
*3062 PHY_103
*3063 PHY_104
*3064 PHY_105
*3065 PHY_106
*3066 PHY_107
*3067 PHY_108
*3068 PHY_109
*3069 PHY_11
*3070 PHY_110
*3071 PHY_111
*3072 PHY_112
*3073 PHY_113
*3074 PHY_114
*3075 PHY_115
*3076 PHY_116
*3077 PHY_117
*3078 PHY_118
*3079 PHY_119
*3080 PHY_12
*3081 PHY_120
*3082 PHY_121
*3083 PHY_122
*3084 PHY_123
*3085 PHY_124
*3086 PHY_125
*3087 PHY_126
*3088 PHY_127
*3089 PHY_128
*3090 PHY_129
*3091 PHY_13
*3092 PHY_14
*3093 PHY_15
*3094 PHY_16
*3095 PHY_17
*3096 PHY_18
*3097 PHY_19
*3098 PHY_2
*3099 PHY_20
*3100 PHY_21
*3101 PHY_22
*3102 PHY_23
*3103 PHY_24
*3104 PHY_25
*3105 PHY_26
*3106 PHY_27
*3107 PHY_28
*3108 PHY_29
*3109 PHY_3
*3110 PHY_30
*3111 PHY_31
*3112 PHY_32
*3113 PHY_33
*3114 PHY_34
*3115 PHY_35
*3116 PHY_36
*3117 PHY_37
*3118 PHY_38
*3119 PHY_39
*3120 PHY_4
*3121 PHY_40
*3122 PHY_41
*3123 PHY_42
*3124 PHY_43
*3125 PHY_44
*3126 PHY_45
*3127 PHY_46
*3128 PHY_47
*3129 PHY_48
*3130 PHY_49
*3131 PHY_5
*3132 PHY_50
*3133 PHY_51
*3134 PHY_52
*3135 PHY_53
*3136 PHY_54
*3137 PHY_55
*3138 PHY_56
*3139 PHY_57
*3140 PHY_58
*3141 PHY_59
*3142 PHY_6
*3143 PHY_60
*3144 PHY_61
*3145 PHY_62
*3146 PHY_63
*3147 PHY_64
*3148 PHY_65
*3149 PHY_66
*3150 PHY_67
*3151 PHY_68
*3152 PHY_69
*3153 PHY_7
*3154 PHY_70
*3155 PHY_71
*3156 PHY_72
*3157 PHY_73
*3158 PHY_74
*3159 PHY_75
*3160 PHY_76
*3161 PHY_77
*3162 PHY_78
*3163 PHY_79
*3164 PHY_8
*3165 PHY_80
*3166 PHY_81
*3167 PHY_82
*3168 PHY_83
*3169 PHY_84
*3170 PHY_85
*3171 PHY_86
*3172 PHY_87
*3173 PHY_88
*3174 PHY_89
*3175 PHY_9
*3176 PHY_90
*3177 PHY_91
*3178 PHY_92
*3179 PHY_93
*3180 PHY_94
*3181 PHY_95
*3182 PHY_96
*3183 PHY_97
*3184 PHY_98
*3185 PHY_99
*3186 TAP_130
*3187 TAP_131
*3188 TAP_132
*3189 TAP_133
*3190 TAP_134
*3191 TAP_135
*3192 TAP_136
*3193 TAP_137
*3194 TAP_138
*3195 TAP_139
*3196 TAP_140
*3197 TAP_141
*3198 TAP_142
*3199 TAP_143
*3200 TAP_144
*3201 TAP_145
*3202 TAP_146
*3203 TAP_147
*3204 TAP_148
*3205 TAP_149
*3206 TAP_150
*3207 TAP_151
*3208 TAP_152
*3209 TAP_153
*3210 TAP_154
*3211 TAP_155
*3212 TAP_156
*3213 TAP_157
*3214 TAP_158
*3215 TAP_159
*3216 TAP_160
*3217 TAP_161
*3218 TAP_162
*3219 TAP_163
*3220 TAP_164
*3221 TAP_165
*3222 TAP_166
*3223 TAP_167
*3224 TAP_168
*3225 TAP_169
*3226 TAP_170
*3227 TAP_171
*3228 TAP_172
*3229 TAP_173
*3230 TAP_174
*3231 TAP_175
*3232 TAP_176
*3233 TAP_177
*3234 TAP_178
*3235 TAP_179
*3236 TAP_180
*3237 TAP_181
*3238 TAP_182
*3239 TAP_183
*3240 TAP_184
*3241 TAP_185
*3242 TAP_186
*3243 TAP_187
*3244 TAP_188
*3245 TAP_189
*3246 TAP_190
*3247 TAP_191
*3248 TAP_192
*3249 TAP_193
*3250 TAP_194
*3251 TAP_195
*3252 TAP_196
*3253 TAP_197
*3254 TAP_198
*3255 TAP_199
*3256 TAP_200
*3257 TAP_201
*3258 TAP_202
*3259 TAP_203
*3260 TAP_204
*3261 TAP_205
*3262 TAP_206
*3263 TAP_207
*3264 TAP_208
*3265 TAP_209
*3266 TAP_210
*3267 TAP_211
*3268 TAP_212
*3269 TAP_213
*3270 TAP_214
*3271 TAP_215
*3272 TAP_216
*3273 TAP_217
*3274 TAP_218
*3275 TAP_219
*3276 TAP_220
*3277 TAP_221
*3278 TAP_222
*3279 TAP_223
*3280 TAP_224
*3281 TAP_225
*3282 TAP_226
*3283 TAP_227
*3284 TAP_228
*3285 TAP_229
*3286 TAP_230
*3287 TAP_231
*3288 TAP_232
*3289 TAP_233
*3290 TAP_234
*3291 TAP_235
*3292 TAP_236
*3293 TAP_237
*3294 TAP_238
*3295 TAP_239
*3296 TAP_240
*3297 TAP_241
*3298 TAP_242
*3299 TAP_243
*3300 TAP_244
*3301 TAP_245
*3302 TAP_246
*3303 TAP_247
*3304 TAP_248
*3305 TAP_249
*3306 TAP_250
*3307 TAP_251
*3308 TAP_252
*3309 TAP_253
*3310 TAP_254
*3311 TAP_255
*3312 TAP_256
*3313 TAP_257
*3314 TAP_258
*3315 TAP_259
*3316 TAP_260
*3317 TAP_261
*3318 TAP_262
*3319 TAP_263
*3320 TAP_264
*3321 TAP_265
*3322 TAP_266
*3323 TAP_267
*3324 TAP_268
*3325 TAP_269
*3326 TAP_270
*3327 TAP_271
*3328 TAP_272
*3329 TAP_273
*3330 TAP_274
*3331 TAP_275
*3332 TAP_276
*3333 TAP_277
*3334 TAP_278
*3335 TAP_279
*3336 TAP_280
*3337 TAP_281
*3338 TAP_282
*3339 TAP_283
*3340 TAP_284
*3341 TAP_285
*3342 TAP_286
*3343 TAP_287
*3344 TAP_288
*3345 TAP_289
*3346 TAP_290
*3347 TAP_291
*3348 TAP_292
*3349 TAP_293
*3350 TAP_294
*3351 TAP_295
*3352 TAP_296
*3353 TAP_297
*3354 TAP_298
*3355 TAP_299
*3356 TAP_300
*3357 TAP_301
*3358 TAP_302
*3359 TAP_303
*3360 TAP_304
*3361 TAP_305
*3362 TAP_306
*3363 TAP_307
*3364 TAP_308
*3365 TAP_309
*3366 TAP_310
*3367 TAP_311
*3368 TAP_312
*3369 TAP_313
*3370 TAP_314
*3371 TAP_315
*3372 TAP_316
*3373 TAP_317
*3374 TAP_318
*3375 TAP_319
*3376 TAP_320
*3377 TAP_321
*3378 TAP_322
*3379 TAP_323
*3380 TAP_324
*3381 TAP_325
*3382 TAP_326
*3383 TAP_327
*3384 TAP_328
*3385 TAP_329
*3386 TAP_330
*3387 TAP_331
*3388 TAP_332
*3389 TAP_333
*3390 TAP_334
*3391 TAP_335
*3392 TAP_336
*3393 TAP_337
*3394 TAP_338
*3395 TAP_339
*3396 TAP_340
*3397 TAP_341
*3398 TAP_342
*3399 TAP_343
*3400 TAP_344
*3401 TAP_345
*3402 TAP_346
*3403 TAP_347
*3404 TAP_348
*3405 TAP_349
*3406 TAP_350
*3407 TAP_351
*3408 TAP_352
*3409 TAP_353
*3410 TAP_354
*3411 TAP_355
*3412 TAP_356
*3413 TAP_357
*3414 TAP_358
*3415 TAP_359
*3416 TAP_360
*3417 TAP_361
*3418 TAP_362
*3419 TAP_363
*3420 TAP_364
*3421 TAP_365
*3422 TAP_366
*3423 TAP_367
*3424 TAP_368
*3425 TAP_369
*3426 TAP_370
*3427 TAP_371
*3428 TAP_372
*3429 TAP_373
*3430 TAP_374
*3431 TAP_375
*3432 TAP_376
*3433 TAP_377
*3434 TAP_378
*3435 TAP_379
*3436 TAP_380
*3437 TAP_381
*3438 TAP_382
*3439 TAP_383
*3440 TAP_384
*3441 TAP_385
*3442 TAP_386
*3443 TAP_387
*3444 TAP_388
*3445 TAP_389
*3446 TAP_390
*3447 TAP_391
*3448 TAP_392
*3449 TAP_393
*3450 TAP_394
*3451 TAP_395
*3452 TAP_396
*3453 TAP_397
*3454 TAP_398
*3455 TAP_399
*3456 TAP_400
*3457 TAP_401
*3458 TAP_402
*3459 TAP_403
*3460 TAP_404
*3461 TAP_405
*3462 TAP_406
*3463 TAP_407
*3464 TAP_408
*3465 TAP_409
*3466 TAP_410
*3467 TAP_411
*3468 TAP_412
*3469 TAP_413
*3470 TAP_414
*3471 TAP_415
*3472 TAP_416
*3473 TAP_417
*3474 TAP_418
*3475 TAP_419
*3476 TAP_420
*3477 TAP_421
*3478 TAP_422
*3479 TAP_423
*3480 TAP_424
*3481 TAP_425
*3482 TAP_426
*3483 TAP_427
*3484 TAP_428
*3485 TAP_429
*3486 TAP_430
*3487 TAP_431
*3488 TAP_432
*3489 TAP_433
*3490 TAP_434
*3491 TAP_435
*3492 TAP_436
*3493 TAP_437
*3494 TAP_438
*3495 TAP_439
*3496 TAP_440
*3497 TAP_441
*3498 TAP_442
*3499 TAP_443
*3500 TAP_444
*3501 TAP_445
*3502 TAP_446
*3503 TAP_447
*3504 TAP_448
*3505 TAP_449
*3506 TAP_450
*3507 TAP_451
*3508 TAP_452
*3509 TAP_453
*3510 TAP_454
*3511 TAP_455
*3512 TAP_456
*3513 TAP_457
*3514 TAP_458
*3515 TAP_459
*3516 TAP_460
*3517 TAP_461
*3518 TAP_462
*3519 TAP_463
*3520 TAP_464
*3521 TAP_465
*3522 TAP_466
*3523 TAP_467
*3524 TAP_468
*3525 TAP_469
*3526 TAP_470
*3527 TAP_471
*3528 TAP_472
*3529 TAP_473
*3530 TAP_474
*3531 TAP_475
*3532 TAP_476
*3533 TAP_477
*3534 TAP_478
*3535 TAP_479
*3536 TAP_480
*3537 TAP_481
*3538 TAP_482
*3539 TAP_483
*3540 TAP_484
*3541 TAP_485
*3542 TAP_486
*3543 TAP_487
*3544 TAP_488
*3545 TAP_489
*3546 TAP_490
*3547 TAP_491
*3548 TAP_492
*3549 TAP_493
*3550 TAP_494
*3551 TAP_495
*3552 TAP_496
*3553 TAP_497
*3554 TAP_498
*3555 TAP_499
*3556 TAP_500
*3557 TAP_501
*3558 TAP_502
*3559 TAP_503
*3560 TAP_504
*3561 TAP_505
*3562 TAP_506
*3563 TAP_507
*3564 TAP_508
*3565 TAP_509
*3566 TAP_510
*3567 TAP_511
*3568 TAP_512
*3569 TAP_513
*3570 TAP_514
*3571 TAP_515
*3572 TAP_516
*3573 TAP_517
*3574 TAP_518
*3575 TAP_519
*3576 TAP_520
*3577 TAP_521
*3578 TAP_522
*3579 TAP_523
*3580 TAP_524
*3581 TAP_525
*3582 TAP_526
*3583 TAP_527
*3584 TAP_528
*3585 TAP_529
*3586 TAP_530
*3587 TAP_531
*3588 TAP_532
*3589 TAP_533
*3590 TAP_534
*3591 TAP_535
*3592 TAP_536
*3593 TAP_537
*3594 TAP_538
*3595 TAP_539
*3596 TAP_540
*3597 TAP_541
*3598 TAP_542
*3599 TAP_543
*3600 TAP_544
*3601 TAP_545
*3602 TAP_546
*3603 TAP_547
*3604 TAP_548
*3605 TAP_549
*3606 TAP_550
*3607 TAP_551
*3608 TAP_552
*3609 TAP_553
*3610 TAP_554
*3611 TAP_555
*3612 TAP_556
*3613 TAP_557
*3614 TAP_558
*3615 TAP_559
*3616 TAP_560
*3617 TAP_561
*3618 TAP_562
*3619 TAP_563
*3620 TAP_564
*3621 TAP_565
*3622 TAP_566
*3623 TAP_567
*3624 TAP_568
*3625 TAP_569
*3626 TAP_570
*3627 TAP_571
*3628 TAP_572
*3629 TAP_573
*3630 TAP_574
*3631 TAP_575
*3632 TAP_576
*3633 TAP_577
*3634 TAP_578
*3635 TAP_579
*3636 TAP_580
*3637 TAP_581
*3638 TAP_582
*3639 TAP_583
*3640 TAP_584
*3641 TAP_585
*3642 TAP_586
*3643 TAP_587
*3644 TAP_588
*3645 TAP_589
*3646 TAP_590
*3647 TAP_591
*3648 TAP_592
*3649 TAP_593
*3650 TAP_594
*3651 TAP_595
*3652 TAP_596
*3653 TAP_597
*3654 TAP_598
*3655 _219_
*3656 _220_
*3657 _221_
*3658 _222_
*3659 _223_
*3660 _224_
*3661 _225_
*3662 _226_
*3663 _227_
*3664 _228_
*3665 _229_
*3666 _230_
*3667 _231_
*3668 _232_
*3669 _233_
*3670 _234_
*3671 _235_
*3672 _236_
*3673 _237_
*3674 _238_
*3675 _239_
*3676 _240_
*3677 _241_
*3678 _242_
*3679 _243_
*3680 _244_
*3681 _245_
*3682 _246_
*3683 _247_
*3684 _248_
*3685 _249_
*3686 _250_
*3687 _251_
*3688 _252_
*3689 _253_
*3690 _254_
*3691 _255_
*3692 _256_
*3693 _257_
*3694 _258_
*3695 _259_
*3696 _260_
*3697 _261_
*3698 _262_
*3699 _263_
*3700 _264_
*3701 _265_
*3702 _266_
*3703 _267_
*3704 _268_
*3705 _269_
*3706 _270_
*3707 _271_
*3708 _272_
*3709 _273_
*3710 _274_
*3711 _275_
*3712 _276_
*3713 _277_
*3714 _278_
*3715 _279_
*3716 _280_
*3717 _281_
*3718 _282_
*3719 _283_
*3720 _284_
*3721 _285_
*3722 _286_
*3723 _287_
*3724 _288_
*3725 _289_
*3726 _290_
*3727 _291_
*3728 _292_
*3729 _293_
*3730 _294_
*3731 _295_
*3732 _296_
*3733 _297_
*3734 _298_
*3735 _299_
*3736 _300_
*3737 _301_
*3738 _302_
*3739 _303_
*3740 _304_
*3741 _305_
*3742 _306_
*3743 _307_
*3744 _308_
*3745 _309_
*3746 _310_
*3747 _311_
*3748 _312_
*3749 _313_
*3750 _314_
*3751 _315_
*3752 _316_
*3753 _317_
*3754 _318_
*3755 _319_
*3756 _320_
*3757 _321_
*3758 _322_
*3759 _323_
*3760 _324_
*3761 _325_
*3762 _326_
*3763 _327_
*3764 _328_
*3765 _329_
*3766 _330_
*3767 _331_
*3768 _332_
*3769 _333_
*3770 _334_
*3771 _335_
*3772 _336_
*3773 _337_
*3774 _338_
*3775 _339_
*3776 _340_
*3777 _341_
*3778 _342_
*3779 _343_
*3780 _344_
*3781 _345_
*3782 _346_
*3783 _347_
*3784 _348_
*3785 _349_
*3786 _350_
*3787 _351_
*3788 _352_
*3789 _353_
*3790 _354_
*3791 _355_
*3792 _356_
*3793 _357_
*3794 _358_
*3795 _359_
*3796 _360_
*3797 _361_
*3798 _362_
*3799 _363_
*3800 _364_
*3801 _365_
*3802 _366_
*3803 _367_
*3804 _368_
*3805 _369_
*3806 _370_
*3807 _371_
*3808 _372_
*3809 _373_
*3810 _374_
*3811 _375_
*3812 _376_
*3813 _377_
*3814 _378_
*3815 _379_
*3816 _380_
*3817 _381_
*3818 _382_
*3819 _383_
*3820 _384_
*3821 _385_
*3822 _386_
*3823 _387_
*3824 _388_
*3825 _389_
*3826 _390_
*3827 _391_
*3828 _392_
*3829 _393_
*3830 _394_
*3831 _395_
*3832 _396_
*3833 _397_
*3834 _398_
*3835 _399_
*3836 _400_
*3837 _401_
*3838 _402_
*3839 _403_
*3840 _404_
*3841 _405_
*3842 _406_
*3843 _407_
*3844 _408_
*3845 _409_
*3846 _410_
*3847 _411_
*3848 _412_
*3849 _413_
*3850 _414_
*3851 _415_
*3852 _416_
*3853 _417_
*3854 _418_
*3855 _419_
*3856 _420_
*3857 _421_
*3858 _422_
*3859 _423_
*3860 _424_
*3861 _425_
*3862 _426_
*3863 _427_
*3864 _428_
*3865 _429_
*3866 _430_
*3867 _431_
*3868 _432_
*3869 _433_
*3870 _434_
*3871 _435_
*3872 _436_
*3873 _437_
*3874 _438_
*3875 _439_
*3876 _440_
*3877 _441_
*3878 _442_
*3879 _443_
*3880 _444_
*3881 _445_
*3882 _446_
*3883 _447_
*3884 _448_
*3885 _449_
*3886 _450_
*3887 _451_
*3888 clkbuf_0_clk
*3889 clkbuf_1_0__f_clk
*3890 clkbuf_1_1__f_clk
*3891 fanout37
*3892 hold1
*3893 hold2
*3894 hold3
*3895 hold4
*3896 hold5
*3897 input1
*3898 input10
*3899 input11
*3900 input12
*3901 input13
*3902 input14
*3903 input15
*3904 input16
*3905 input17
*3906 input18
*3907 input19
*3908 input2
*3909 input20
*3910 input21
*3911 input22
*3912 input3
*3913 input4
*3914 input5
*3915 input6
*3916 input7
*3917 input8
*3918 input9
*3919 output23
*3920 output24
*3921 output25
*3922 output26
*3923 output27
*3924 output28
*3925 output29
*3926 output30
*3927 output31
*3928 output32
*3929 output33
*3930 output34
*3931 output35
*3932 output36

*PORTS
clk I
data_in[0] I
data_in[1] I
data_in[2] I
data_in[3] I
data_in[4] I
data_in[5] I
data_in[6] I
data_in[7] I
int4_out[0] O
int4_out[1] O
int4_out[2] O
int4_out[3] O
is_outlier O
round_mode I
rst_n I
scale[0] I
scale[1] I
scale[2] I
scale[3] I
sideband_out[0] O
sideband_out[1] O
sideband_out[2] O
sideband_out[3] O
sideband_out[4] O
sideband_out[5] O
sideband_out[6] O
sideband_out[7] O
threshold[0] I
threshold[1] I
threshold[2] I
threshold[3] I
threshold[4] I
threshold[5] I
threshold[6] I
threshold[7] I
valid_in I
valid_out O

*D_NET *3 0.01127
*CONN
*P clk I
*I *3888:A I *D sky130_fd_sc_hd__clkbuf_16
*CAP
1 clk 0.00126334
2 *3888:A 0
3 *3:13 0.00403432
4 *3:11 0.00529766
5 *3:11 *269:10 0
6 *3:11 *302:16 0
7 *3:13 *3695:B 9.54399e-05
8 *3:13 *3695:C 5.72829e-05
9 *3:13 *3697:B1 1.33707e-05
10 *3:13 *3699:A 0
11 *3:13 *3699:B 0.000139238
12 *3:13 *3726:B2 0
13 *3:13 *3727:A 0
14 *3:13 *3874:CLK 7.96104e-06
15 *3:13 *3875:CLK 0.000230907
16 *3:13 *3875:D 0
17 *3:13 *246:42 3.9442e-05
18 *3:13 *246:62 2.23485e-05
19 *3:13 *251:21 0
20 *3:13 *265:14 0
21 *3:13 *301:82 6.86819e-05
*RES
1 clk *3:11 13.0968 
2 *3:11 *3:13 69.3375 
3 *3:13 *3888:A 3.6 
*END

*D_NET *4 0.000585699
*CONN
*P data_in[0] I
*I *3897:A I *D sky130_fd_sc_hd__clkbuf_2
*CAP
1 data_in[0] 0.00029285
2 *3897:A 0.00029285
*RES
1 data_in[0] *3897:A 7.49543 
*END

*D_NET *5 0.000567435
*CONN
*P data_in[1] I
*I *3908:A I *D sky130_fd_sc_hd__clkbuf_2
*CAP
1 data_in[1] 0.000283717
2 *3908:A 0.000283717
3 *3908:A *277:8 0
*RES
1 data_in[1] *3908:A 7.49543 
*END

*D_NET *6 0.00108304
*CONN
*P data_in[2] I
*I *3912:A I *D sky130_fd_sc_hd__buf_1
*CAP
1 data_in[2] 0.000479529
2 *3912:A 0.000479529
3 *3912:A *3927:A 0.00012398
*RES
1 data_in[2] *3912:A 12.42 
*END

*D_NET *7 0.00100071
*CONN
*P data_in[3] I
*I *3913:A I *D sky130_fd_sc_hd__clkbuf_4
*CAP
1 data_in[3] 0.00047584
2 *3913:A 0.00047584
3 *3913:A *300:12 4.90291e-05
*RES
1 data_in[3] *3913:A 11.97 
*END

*D_NET *8 0.000980149
*CONN
*P data_in[4] I
*I *3914:A I *D sky130_fd_sc_hd__clkbuf_4
*CAP
1 data_in[4] 0.000473383
2 *3914:A 0.000473383
3 *3914:A *300:12 3.33839e-05
*RES
1 data_in[4] *3914:A 11.97 
*END

*D_NET *9 0.000978025
*CONN
*P data_in[5] I
*I *3915:A I *D sky130_fd_sc_hd__clkbuf_4
*CAP
1 data_in[5] 0.000463541
2 *3915:A 0.000463541
3 *3915:A *266:8 5.09431e-05
*RES
1 data_in[5] *3915:A 11.97 
*END

*D_NET *10 0.00110221
*CONN
*P data_in[6] I
*I *3916:A I *D sky130_fd_sc_hd__buf_4
*CAP
1 data_in[6] 0.000469503
2 *3916:A 0.000469503
3 *3916:A *302:6 0.000163204
*RES
1 data_in[6] *3916:A 12.285 
*END

*D_NET *11 0.000772376
*CONN
*P data_in[7] I
*I *3917:A I *D sky130_fd_sc_hd__buf_2
*CAP
1 data_in[7] 0.000386188
2 *3917:A 0.000386188
*RES
1 data_in[7] *3917:A 10.455 
*END

*D_NET *12 0.000604256
*CONN
*P int4_out[0] O
*I *3919:X O *D sky130_fd_sc_hd__clkbuf_4
*CAP
1 int4_out[0] 0.000290961
2 *3919:X 0.000290961
3 int4_out[0] *277:8 2.23342e-05
*RES
1 *3919:X int4_out[0] 5.35003 
*END

*D_NET *13 0.000533303
*CONN
*P int4_out[1] O
*I *3920:X O *D sky130_fd_sc_hd__buf_2
*CAP
1 int4_out[1] 0.000235408
2 *3920:X 0.000235408
3 int4_out[1] *271:8 6.24871e-05
*RES
1 *3920:X int4_out[1] 5.41503 
*END

*D_NET *14 0.00131044
*CONN
*P int4_out[2] O
*I *3921:X O *D sky130_fd_sc_hd__clkbuf_4
*CAP
1 int4_out[2] 0.000620894
2 *3921:X 0.000620894
3 int4_out[2] *3921:A 4.9177e-05
4 int4_out[2] *266:8 1.58529e-05
5 int4_out[2] *266:18 3.62258e-06
*RES
1 *3921:X int4_out[2] 13.275 
*END

*D_NET *15 0.000665699
*CONN
*P int4_out[3] O
*I *3922:X O *D sky130_fd_sc_hd__clkbuf_4
*CAP
1 int4_out[3] 0.0003232
2 *3922:X 0.0003232
3 int4_out[3] *277:8 1.92979e-05
*RES
1 *3922:X int4_out[3] 5.23943 
*END

*D_NET *16 0.000632973
*CONN
*P is_outlier O
*I *3923:X O *D sky130_fd_sc_hd__clkbuf_4
*CAP
1 is_outlier 0.000316486
2 *3923:X 0.000316486
3 is_outlier *277:8 0
*RES
1 *3923:X is_outlier 7.24043 
*END

*D_NET *18 0.000466172
*CONN
*P rst_n I
*I *3918:A I *D sky130_fd_sc_hd__buf_2
*CAP
1 rst_n 0.000233086
2 *3918:A 0.000233086
*RES
1 rst_n *3918:A 6.3537 
*END

*D_NET *19 0.000608638
*CONN
*P scale[0] I
*I *3898:A I *D sky130_fd_sc_hd__buf_2
*CAP
1 scale[0] 0.000304319
2 *3898:A 0.000304319
3 *3898:A *271:8 0
*RES
1 scale[0] *3898:A 7.6287 
*END

*D_NET *20 0.00134172
*CONN
*P scale[1] I
*I *3899:A I *D sky130_fd_sc_hd__buf_2
*CAP
1 scale[1] 0.00067086
2 *3899:A 0.00067086
*RES
1 scale[1] *3899:A 15.18 
*END

*D_NET *21 0.000921306
*CONN
*P scale[2] I
*I *3900:A I *D sky130_fd_sc_hd__buf_2
*CAP
1 scale[2] 0.000460653
2 *3900:A 0.000460653
*RES
1 scale[2] *3900:A 11.625 
*END

*D_NET *22 0.000620816
*CONN
*P scale[3] I
*I *3901:A I *D sky130_fd_sc_hd__buf_2
*CAP
1 scale[3] 0.000310408
2 *3901:A 0.000310408
*RES
1 scale[3] *3901:A 7.91543 
*END

*D_NET *23 0.000656106
*CONN
*P sideband_out[0] O
*I *3924:X O *D sky130_fd_sc_hd__clkbuf_4
*CAP
1 sideband_out[0] 0.000328053
2 *3924:X 0.000328053
*RES
1 *3924:X sideband_out[0] 9.39 
*END

*D_NET *24 0.000548108
*CONN
*P sideband_out[1] O
*I *3925:X O *D sky130_fd_sc_hd__clkbuf_4
*CAP
1 sideband_out[1] 0.000274054
2 *3925:X 0.000274054
3 sideband_out[1] *288:27 0
*RES
1 *3925:X sideband_out[1] 5.80677 
*END

*D_NET *25 0.000949645
*CONN
*P sideband_out[2] O
*I *3926:X O *D sky130_fd_sc_hd__clkbuf_4
*CAP
1 sideband_out[2] 0.000412372
2 *3926:X 0.000412372
3 sideband_out[2] *302:6 0.0001249
*RES
1 *3926:X sideband_out[2] 10.53 
*END

*D_NET *26 0.00113593
*CONN
*P sideband_out[3] O
*I *3927:X O *D sky130_fd_sc_hd__clkbuf_4
*CAP
1 sideband_out[3] 0.000554429
2 *3927:X 0.000554429
3 sideband_out[3] *3927:A 2.70721e-05
*RES
1 *3927:X sideband_out[3] 12.24 
*END

*D_NET *27 0.000530445
*CONN
*P sideband_out[4] O
*I *3928:X O *D sky130_fd_sc_hd__clkbuf_4
*CAP
1 sideband_out[4] 0.000265222
2 *3928:X 0.000265222
*RES
1 *3928:X sideband_out[4] 5.29677 
*END

*D_NET *28 0.000656106
*CONN
*P sideband_out[5] O
*I *3929:X O *D sky130_fd_sc_hd__clkbuf_4
*CAP
1 sideband_out[5] 0.000328053
2 *3929:X 0.000328053
*RES
1 *3929:X sideband_out[5] 9.39 
*END

*D_NET *29 0.000656106
*CONN
*P sideband_out[6] O
*I *3930:X O *D sky130_fd_sc_hd__clkbuf_4
*CAP
1 sideband_out[6] 0.000328053
2 *3930:X 0.000328053
*RES
1 *3930:X sideband_out[6] 9.39 
*END

*D_NET *30 0.000494787
*CONN
*P sideband_out[7] O
*I *3931:X O *D sky130_fd_sc_hd__clkbuf_4
*CAP
1 sideband_out[7] 0.000247393
2 *3931:X 0.000247393
*RES
1 *3931:X sideband_out[7] 5.16003 
*END

*D_NET *31 0.000630845
*CONN
*P threshold[0] I
*I *3902:A I *D sky130_fd_sc_hd__buf_1
*CAP
1 threshold[0] 0.000315422
2 *3902:A 0.000315422
*RES
1 threshold[0] *3902:A 8.30717 
*END

*D_NET *32 0.000763257
*CONN
*P threshold[1] I
*I *3903:A I *D sky130_fd_sc_hd__buf_1
*CAP
1 threshold[1] 0.000381629
2 *3903:A 0.000381629
*RES
1 threshold[1] *3903:A 10.455 
*END

*D_NET *33 0.000513117
*CONN
*P threshold[2] I
*I *3904:A I *D sky130_fd_sc_hd__dlymetal6s2s_1
*CAP
1 threshold[2] 0.000238051
2 *3904:A 0.000238051
3 *3904:A *271:8 3.70147e-05
*RES
1 threshold[2] *3904:A 5.35677 
*END

*D_NET *34 0.00128167
*CONN
*P threshold[3] I
*I *3905:A I *D sky130_fd_sc_hd__clkbuf_2
*CAP
1 threshold[3] 0.000640833
2 *3905:A 0.000640833
*RES
1 threshold[3] *3905:A 14.73 
*END

*D_NET *35 0.000945575
*CONN
*P threshold[4] I
*I *3906:A I *D sky130_fd_sc_hd__buf_1
*CAP
1 threshold[4] 0.000448317
2 *3906:A 0.000448317
3 *3906:A *266:18 4.89395e-05
*RES
1 threshold[4] *3906:A 11.625 
*END

*D_NET *36 0.000969253
*CONN
*P threshold[5] I
*I *3907:A I *D sky130_fd_sc_hd__buf_1
*CAP
1 threshold[5] 0.000438372
2 *3907:A 0.000438372
3 *3907:A *296:12 9.25087e-05
*RES
1 threshold[5] *3907:A 11.625 
*END

*D_NET *37 0.00101495
*CONN
*P threshold[6] I
*I *3909:A I *D sky130_fd_sc_hd__buf_1
*CAP
1 threshold[6] 0.000382573
2 *3909:A 0.000382573
3 *3909:A *302:6 0.0001249
4 *3909:A *303:12 0.0001249
*RES
1 threshold[6] *3909:A 11.04 
*END

*D_NET *38 0.000511252
*CONN
*P threshold[7] I
*I *3910:A I *D sky130_fd_sc_hd__clkbuf_2
*CAP
1 threshold[7] 0.000255626
2 *3910:A 0.000255626
*RES
1 threshold[7] *3910:A 6.98543 
*END

*D_NET *39 0.00115286
*CONN
*P valid_in I
*I *3911:A I *D sky130_fd_sc_hd__clkbuf_2
*CAP
1 valid_in 0.000576429
2 *3911:A 0.000576429
*RES
1 valid_in *3911:A 9.57443 
*END

*D_NET *40 0.000516925
*CONN
*P valid_out O
*I *3932:X O *D sky130_fd_sc_hd__buf_2
*CAP
1 valid_out 0.000258463
2 *3932:X 0.000258463
3 valid_out *288:27 0
*RES
1 *3932:X valid_out 5.41503 
*END

*D_NET *41 0.00145867
*CONN
*I *3874:D I *D sky130_fd_sc_hd__dfrtp_1
*I *3691:X O *D sky130_fd_sc_hd__o21ba_1
*CAP
1 *3874:D 0.000218697
2 *3691:X 0.000218697
3 *3874:D *3856:A 5.4003e-05
4 *3874:D *3872:A 2.75145e-05
5 *3874:D *3872:B 1.03423e-05
6 *3874:D *210:10 0.000247567
7 *3874:D *210:25 2.75229e-05
8 *3874:D *210:51 0.000185398
9 *3874:D *261:10 0.000108329
10 *3874:D *261:16 0.000183043
11 *3874:D *261:64 0.000177561
*RES
1 *3691:X *3874:D 13.8 
*END

*D_NET *42 0.000999716
*CONN
*I *3876:D I *D sky130_fd_sc_hd__dfrtp_1
*I *3847:X O *D sky130_fd_sc_hd__a22o_1
*CAP
1 *3876:D 0.000282811
2 *3847:X 0.000282811
3 *3876:D *3847:B1 8.65905e-05
4 *3876:D *3855:B2 0.00018476
5 *3876:D *3876:CLK 6.97202e-05
6 *3876:D *3878:CLK 3.90266e-05
7 *3876:D *261:92 5.39961e-05
*RES
1 *3847:X *3876:D 13.065 
*END

*D_NET *43 0.000575535
*CONN
*I *3877:D I *D sky130_fd_sc_hd__dfrtp_2
*I *3851:X O *D sky130_fd_sc_hd__a22o_1
*CAP
1 *3877:D 9.79808e-05
2 *3851:X 9.79808e-05
3 *3877:D *3877:CLK 5.83121e-06
4 *3877:D *3877:RESET_B 0.000124895
5 *3877:D *244:39 7.6325e-05
6 *3877:D *261:79 5.39961e-05
7 *3877:D *261:92 0.000118527
*RES
1 *3851:X *3877:D 10.23 
*END

*D_NET *44 0.000795844
*CONN
*I *3878:D I *D sky130_fd_sc_hd__dfrtp_1
*I *3855:X O *D sky130_fd_sc_hd__a22o_1
*CAP
1 *3878:D 0.000303604
2 *3855:X 0.000303604
3 *3878:D *278:10 0.000116158
4 *3878:D *301:10 7.24779e-05
*RES
1 *3855:X *3878:D 12.105 
*END

*D_NET *45 0.000283255
*CONN
*I *3879:D I *D sky130_fd_sc_hd__dfrtp_1
*I *3857:X O *D sky130_fd_sc_hd__a21bo_1
*CAP
1 *3879:D 0.000100724
2 *3857:X 0.000100724
3 *3879:D *3691:B1_N 1.4399e-05
4 *3879:D *211:100 6.74079e-05
5 *3879:D *261:64 0
*RES
1 *3857:X *3879:D 9.03 
*END

*D_NET *46 0.000409147
*CONN
*I *3880:D I *D sky130_fd_sc_hd__dfrtp_1
*I *3859:X O *D sky130_fd_sc_hd__a31o_1
*CAP
1 *3880:D 0.00015501
2 *3859:X 0.00015501
3 *3880:D *211:14 0
4 *3880:D *214:25 0
5 *3880:D *293:22 9.91257e-05
*RES
1 *3859:X *3880:D 10.065 
*END

*D_NET *47 0.000426428
*CONN
*I *3881:D I *D sky130_fd_sc_hd__dfrtp_1
*I *3861:X O *D sky130_fd_sc_hd__a31o_1
*CAP
1 *3881:D 0.000169963
2 *3861:X 0.000169963
3 *3881:D *3861:A3 0
4 *3881:D *3881:CLK 2.30292e-05
5 *3881:D *3891:A 1.5186e-05
6 *3881:D *243:104 0
7 *3881:D *243:117 4.82863e-05
*RES
1 *3861:X *3881:D 5.39 
*END

*D_NET *48 0.000209515
*CONN
*I *3882:D I *D sky130_fd_sc_hd__dfrtp_1
*I *3863:X O *D sky130_fd_sc_hd__a31o_1
*CAP
1 *3882:D 7.61527e-05
2 *3863:X 7.61527e-05
3 *3882:D *3864:A 0
4 *3882:D *209:121 5.72091e-05
*RES
1 *3863:X *3882:D 8.835 
*END

*D_NET *49 0.000251308
*CONN
*I *3883:D I *D sky130_fd_sc_hd__dfrtp_1
*I *3865:X O *D sky130_fd_sc_hd__a31o_1
*CAP
1 *3883:D 8.47957e-05
2 *3865:X 8.47957e-05
3 *3883:D *3865:A1 2.46089e-05
4 *3883:D *3865:A3 2.11084e-05
5 *3883:D *3883:CLK 3.59997e-05
*RES
1 *3865:X *3883:D 8.775 
*END

*D_NET *50 0.000475234
*CONN
*I *3884:D I *D sky130_fd_sc_hd__dfrtp_2
*I *3867:X O *D sky130_fd_sc_hd__a31o_1
*CAP
1 *3884:D 0.000152692
2 *3867:X 0.000152692
3 *3884:D *3867:A1 0.0001249
4 *3884:D *209:121 4.49498e-05
5 *3884:D *211:51 0
*RES
1 *3867:X *3884:D 9.72 
*END

*D_NET *51 0.000553596
*CONN
*I *3885:D I *D sky130_fd_sc_hd__dfrtp_1
*I *3869:X O *D sky130_fd_sc_hd__a31o_1
*CAP
1 *3885:D 0.000192559
2 *3869:X 0.000192559
3 *3885:D *3870:B 4.82919e-05
4 *3885:D *3885:CLK 0
5 *3885:D *3885:RESET_B 0
6 *3885:D *3886:D 0.000120186
7 *3885:D *293:38 0
*RES
1 *3869:X *3885:D 10.815 
*END

*D_NET *52 0.000619603
*CONN
*I *3886:D I *D sky130_fd_sc_hd__dfrtp_1
*I *3871:X O *D sky130_fd_sc_hd__a31o_1
*CAP
1 *3886:D 0.000133292
2 *3871:X 0.000133292
3 *3886:D *3885:CLK 2.24423e-05
4 *3886:D *3886:RESET_B 2.65337e-05
5 *3886:D *261:16 2.46007e-05
6 *3886:D *261:33 4.92062e-05
7 *3886:D *293:22 9.14035e-05
8 *3886:D *293:32 1.86458e-05
9 *3885:D *3886:D 0.000120186
*RES
1 *3871:X *3886:D 10.755 
*END

*D_NET *53 0.000278392
*CONN
*I *3887:D I *D sky130_fd_sc_hd__dfrtp_1
*I *3873:X O *D sky130_fd_sc_hd__a31o_1
*CAP
1 *3887:D 8.1284e-05
2 *3873:X 8.1284e-05
3 *3887:D *3887:CLK 2.49909e-05
4 *3887:D *243:47 2.75229e-05
5 *3887:D *243:55 6.33103e-05
*RES
1 *3873:X *3887:D 4.685 
*END

*D_NET *54 0.00189865
*CONN
*I *3719:A2 I *D sky130_fd_sc_hd__o21ai_1
*I *3732:A I *D sky130_fd_sc_hd__nor2_1
*I *3720:C I *D sky130_fd_sc_hd__or3_1
*I *3707:X O *D sky130_fd_sc_hd__and3_1
*CAP
1 *3719:A2 0.000136236
2 *3732:A 0.0001625
3 *3720:C 0.000220392
4 *3707:X 0
5 *54:6 0.000382891
6 *54:4 0.000136236
7 *3719:A2 *3707:A 2.75229e-05
8 *3719:A2 *3707:C 1.95128e-05
9 *3719:A2 *217:43 0.000162311
10 *3719:A2 *217:47 4.35432e-05
11 *3720:C *3707:C 4.75134e-05
12 *3720:C *3720:B 0
13 *3720:C *214:25 0.000167031
14 *3732:A *3707:A 0.000132877
15 *3732:A *3707:C 3.12319e-05
16 *3732:A *3889:A 1.92979e-05
17 *3732:A *79:8 8.65905e-05
18 *3732:A *179:39 3.9442e-05
19 *3732:A *214:25 8.35263e-05
*RES
1 *3707:X *54:4 1.6 
2 *54:4 *54:6 2 
3 *54:6 *3720:C 7.83 
4 *54:6 *3732:A 7.305 
5 *54:4 *3719:A2 4.645 
*END

*D_NET *55 0.00424744
*CONN
*I *3745:B1_N I *D sky130_fd_sc_hd__a21bo_1
*I *3729:A_N I *D sky130_fd_sc_hd__nand3b_1
*I *3820:A1 I *D sky130_fd_sc_hd__mux2_1
*I *3832:A I *D sky130_fd_sc_hd__and2_1
*I *3822:A1 I *D sky130_fd_sc_hd__o21ai_1
*I *3718:A I *D sky130_fd_sc_hd__xnor2_1
*I *3708:Y O *D sky130_fd_sc_hd__nand2_2
*CAP
1 *3745:B1_N 7.12642e-05
2 *3729:A_N 7.2292e-05
3 *3820:A1 0
4 *3832:A 1.30736e-05
5 *3822:A1 0
6 *3718:A 0.000219494
7 *3708:Y 1.15106e-05
8 *55:66 0.00043165
9 *55:26 0.000542192
10 *55:18 0.000505317
11 *55:10 0.000297954
12 *55:6 0.000428013
13 *3718:A *3717:A 0
14 *3718:A *3717:B 1.16578e-05
15 *3718:A *3718:B 9.5799e-06
16 *3718:A *3719:B1 0
17 *3718:A *3721:B 0
18 *3718:A *3822:A2 4.99619e-05
19 *3718:A *3823:S 1.22676e-05
20 *3718:A *168:16 0.00016712
21 *3718:A *252:20 4.60584e-05
22 *3718:A *257:16 9.80943e-06
23 *3729:A_N *3818:A2 8.57024e-05
24 *3729:A_N *260:10 0.000116853
25 *3729:A_N *263:23 0.000118513
26 *3745:B1_N *3729:C 2.96383e-05
27 *3745:B1_N *3745:A2 1.52776e-05
28 *3745:B1_N *247:14 6.02202e-05
29 *3745:B1_N *260:10 8.53113e-06
30 *3745:B1_N *263:23 0.00021831
31 *3832:A *3819:A3 1.83847e-05
32 *3832:A *3832:B 4.82919e-05
33 *55:6 *3817:B 5.4155e-06
34 *55:10 *3817:B 4.76128e-05
35 *55:10 *3820:S 2.8185e-05
36 *55:18 *3713:A 3.18137e-05
37 *55:18 *3817:A 0
38 *55:18 *3817:B 0.000122325
39 *55:18 *3819:A3 0
40 *55:18 *3820:A0 5.53249e-06
41 *55:18 *59:14 0
42 *55:18 *167:8 1.85674e-05
43 *55:26 *3714:B 0
44 *55:26 *3717:B 3.25635e-05
45 *55:26 *3817:A 0
46 *55:26 *3823:A0 2.61183e-06
47 *55:26 *59:14 0
48 *55:26 *252:20 0.000201503
49 *55:26 *257:16 4.71433e-05
50 *55:26 *302:71 0
51 *55:66 *3713:A 2.97473e-05
52 *55:66 *3820:S 3.64998e-06
53 *55:66 *247:18 9.46859e-06
54 *55:66 *303:78 4.23612e-05
*RES
1 *3708:Y *55:6 1.96 
2 *55:6 *55:10 1.845 
3 *55:10 *55:18 5.135 
4 *55:18 *55:26 7.865 
5 *55:26 *3718:A 9.695 
6 *55:26 *3822:A1 1.6 
7 *55:18 *3832:A 4.05 
8 *55:10 *3820:A1 1.6 
9 *55:6 *55:66 5.21 
10 *55:66 *3729:A_N 5.775 
11 *55:66 *3745:B1_N 6.255 
*END

*D_NET *56 0.00280812
*CONN
*I *3715:A I *D sky130_fd_sc_hd__and2_1
*I *3821:A I *D sky130_fd_sc_hd__nand2_1
*I *3716:A I *D sky130_fd_sc_hd__nor2_1
*I *3709:X O *D sky130_fd_sc_hd__a31o_1
*CAP
1 *3715:A 0.000150889
2 *3821:A 0
3 *3716:A 0.000155203
4 *3709:X 0.000522625
5 *56:23 0.000196954
6 *56:8 0.000723893
7 *3715:A *3715:B 2.04793e-05
8 *3715:A *3717:A 0.000107028
9 *3715:A *61:20 4.66108e-05
10 *3715:A *209:16 0.00021806
11 *3715:A *214:6 9.91257e-05
12 *3715:A *267:23 5.69248e-06
13 *3716:A *3716:B 1.62263e-05
14 *3716:A *61:20 8.73389e-06
15 *3716:A *63:12 7.0862e-05
16 *3716:A *168:16 8.20055e-05
17 *56:8 *61:16 2.11084e-05
18 *56:8 *61:20 7.68414e-06
19 *56:8 *209:16 2.8585e-06
20 *56:8 *249:10 3.21081e-06
21 *56:8 *249:16 2.30292e-05
22 *56:8 *267:44 3.95409e-05
23 *56:8 *301:69 0.000268749
24 *56:23 *3716:B 4.87465e-06
25 *56:23 *61:16 7.79767e-06
26 *56:23 *61:20 4.87465e-06
*RES
1 *3709:X *56:8 8.275 
2 *56:8 *3716:A 7.955 
3 *56:8 *56:23 0.87 
4 *56:23 *3821:A 1.6 
5 *56:23 *3715:A 9.785 
*END

*D_NET *57 0.000674959
*CONN
*I *3714:A I *D sky130_fd_sc_hd__xnor2_1
*I *3710:Y O *D sky130_fd_sc_hd__nand2_1
*CAP
1 *3714:A 0.00012493
2 *3710:Y 0.00012493
3 *3714:A *3710:A 2.62107e-05
4 *3714:A *3712:A 5.02892e-05
5 *3714:A *3714:B 5.36442e-05
6 *3714:A *217:43 0.000120655
7 *3714:A *267:44 5.36442e-05
8 *3714:A *302:54 0.000120655
*RES
1 *3710:Y *3714:A 10.74 
*END

*D_NET *58 0.00146657
*CONN
*I *3817:B I *D sky130_fd_sc_hd__nand2_1
*I *3713:B I *D sky130_fd_sc_hd__and3_1
*I *3711:Y O *D sky130_fd_sc_hd__nand2_1
*CAP
1 *3817:B 0.000159351
2 *3713:B 0.000123136
3 *3711:Y 7.64754e-05
4 *58:8 0.000358963
5 *3713:B *3712:A 3.69338e-05
6 *3713:B *3713:A 5.46798e-05
7 *3713:B *3714:B 8.53113e-06
8 *3713:B *3820:S 5.13155e-05
9 *3713:B *3832:B 4.66108e-05
10 *3713:B *59:14 9.37731e-05
11 *3817:B *3708:B 0
12 *3817:B *3713:A 4.21973e-05
13 *3817:B *3820:S 1.08758e-05
14 *3817:B *167:8 8.8266e-05
15 *58:8 *3712:A 1.65192e-05
16 *58:8 *3713:A 3.50033e-05
17 *58:8 *3820:A0 3.47668e-05
18 *58:8 *3820:S 2.78732e-05
19 *58:8 *247:33 2.04147e-05
20 *58:8 *272:14 5.53249e-06
21 *55:6 *3817:B 5.4155e-06
22 *55:10 *3817:B 4.76128e-05
23 *55:18 *3817:B 0.000122325
*RES
1 *3711:Y *58:8 5.49 
2 *58:8 *3713:B 6.45 
3 *58:8 *3817:B 7.17 
*END

*D_NET *59 0.00240948
*CONN
*I *3818:A2 I *D sky130_fd_sc_hd__o21ai_1
*I *3819:A2 I *D sky130_fd_sc_hd__a31o_1
*I *3713:C I *D sky130_fd_sc_hd__and3_1
*I *3712:X O *D sky130_fd_sc_hd__or2_1
*CAP
1 *3818:A2 0.000331996
2 *3819:A2 0
3 *3713:C 0
4 *3712:X 0.000178128
5 *59:23 0.000464509
6 *59:14 0.000310641
7 *3818:A2 *3729:C 5.4155e-06
8 *3818:A2 *3819:B1 9.53428e-06
9 *3818:A2 *3832:B 4.66742e-05
10 *3818:A2 *165:6 0.000404758
11 *3818:A2 *217:27 8.65905e-05
12 *3818:A2 *217:43 4.82919e-05
13 *3818:A2 *300:57 1.08758e-05
14 *59:14 *3713:A 9.50342e-06
15 *59:14 *3714:B 2.88589e-05
16 *59:14 *3819:A3 2.33054e-05
17 *59:14 *217:43 8.65905e-05
18 *59:23 *3819:A3 0.00017307
19 *59:23 *3832:B 1.12578e-05
20 *3713:B *59:14 9.37731e-05
21 *3729:A_N *3818:A2 8.57024e-05
22 *55:18 *59:14 0
23 *55:26 *59:14 0
*RES
1 *3712:X *59:14 8.51 
2 *59:14 *3713:C 1.6 
3 *59:14 *59:23 2.415 
4 *59:23 *3819:A2 1.6 
5 *59:23 *3818:A2 8.845 
*END

*D_NET *60 0.000782503
*CONN
*I *3714:B I *D sky130_fd_sc_hd__xnor2_1
*I *3713:X O *D sky130_fd_sc_hd__and3_1
*CAP
1 *3714:B 0.000167932
2 *3713:X 0.000167932
3 *3714:B *3712:A 6.71376e-05
4 *3714:B *252:20 3.45679e-05
5 *3714:B *257:16 5.30673e-05
6 *3714:B *267:44 0
7 *3714:B *302:71 0.000200832
8 *3713:B *3714:B 8.53113e-06
9 *3714:A *3714:B 5.36442e-05
10 *55:26 *3714:B 0
11 *59:14 *3714:B 2.88589e-05
*RES
1 *3713:X *3714:B 11.67 
*END

*D_NET *61 0.00133763
*CONN
*I *3821:B I *D sky130_fd_sc_hd__nand2_1
*I *3715:B I *D sky130_fd_sc_hd__and2_1
*I *3716:B I *D sky130_fd_sc_hd__nor2_1
*I *3714:Y O *D sky130_fd_sc_hd__xnor2_1
*CAP
1 *3821:B 0
2 *3715:B 9.03604e-05
3 *3716:B 3.1551e-05
4 *3714:Y 0.000149382
5 *61:20 0.000193454
6 *61:16 0.000220925
7 *3715:B *3717:A 8.93531e-05
8 *3715:B *63:12 4.55864e-06
9 *3716:B *168:16 5.07844e-05
10 *61:16 *3717:A 4.84537e-05
11 *61:16 *209:16 2.16917e-05
12 *61:16 *252:20 4.67945e-05
13 *61:16 *257:16 0.00015896
14 *61:16 *266:45 4.63605e-05
15 *61:20 *168:16 3.57349e-05
16 *61:20 *209:16 1.08758e-05
17 *3715:A *3715:B 2.04793e-05
18 *3715:A *61:20 4.66108e-05
19 *3716:A *3716:B 1.62263e-05
20 *3716:A *61:20 8.73389e-06
21 *56:8 *61:16 2.11084e-05
22 *56:8 *61:20 7.68414e-06
23 *56:23 *3716:B 4.87465e-06
24 *56:23 *61:16 7.79767e-06
25 *56:23 *61:20 4.87465e-06
*RES
1 *3714:Y *61:16 9.53 
2 *61:16 *61:20 1.5 
3 *61:20 *3716:B 2.665 
4 *61:20 *3715:B 7.235 
5 *61:16 *3821:B 1.6 
*END

*D_NET *62 0.000851968
*CONN
*I *3717:A I *D sky130_fd_sc_hd__nor2_1
*I *3715:X O *D sky130_fd_sc_hd__and2_1
*CAP
1 *3717:A 0.000244645
2 *3715:X 0.000244645
3 *3717:A *3718:B 4.15945e-05
4 *3717:A *63:12 2.79613e-05
5 *3717:A *209:16 4.82863e-05
6 *3717:A *266:45 0
7 *3715:A *3717:A 0.000107028
8 *3715:B *3717:A 8.93531e-05
9 *3718:A *3717:A 0
10 *61:16 *3717:A 4.84537e-05
*RES
1 *3715:X *3717:A 11.325 
*END

*D_NET *63 0.00068271
*CONN
*I *3717:B I *D sky130_fd_sc_hd__nor2_1
*I *3822:A2 I *D sky130_fd_sc_hd__o21ai_1
*I *3716:Y O *D sky130_fd_sc_hd__nor2_1
*CAP
1 *3717:B 2.70843e-05
2 *3822:A2 9.79255e-06
3 *3716:Y 0.000105494
4 *63:12 0.000142371
5 *3717:B *3823:A0 0
6 *3717:B *257:16 1.91597e-05
7 *3822:A2 *257:16 2.75145e-05
8 *63:12 *3718:B 8.10701e-05
9 *63:12 *168:16 7.26588e-05
10 *3715:B *63:12 4.55864e-06
11 *3716:A *63:12 7.0862e-05
12 *3717:A *63:12 2.79613e-05
13 *3718:A *3717:B 1.16578e-05
14 *3718:A *3822:A2 4.99619e-05
15 *55:26 *3717:B 3.25635e-05
*RES
1 *3716:Y *63:12 8.105 
2 *63:12 *3822:A2 2.05 
3 *63:12 *3717:B 2.41 
*END

*D_NET *64 0.000901153
*CONN
*I *3718:B I *D sky130_fd_sc_hd__xnor2_1
*I *3717:Y O *D sky130_fd_sc_hd__nor2_1
*CAP
1 *3718:B 0.000246748
2 *3717:Y 0.000246748
3 *3718:B *3721:B 6.57653e-06
4 *3718:B *3889:A 0
5 *3718:B *65:8 1.76441e-05
6 *3718:B *277:22 0.000251192
7 *3717:A *3718:B 4.15945e-05
8 *3718:A *3718:B 9.5799e-06
9 *63:12 *3718:B 8.10701e-05
*RES
1 *3717:Y *3718:B 10.4326 
*END

*D_NET *65 0.00149076
*CONN
*I *3719:B1 I *D sky130_fd_sc_hd__o21ai_1
*I *3720:A I *D sky130_fd_sc_hd__or3_1
*I *3718:Y O *D sky130_fd_sc_hd__xnor2_1
*CAP
1 *3719:B1 0.000129314
2 *3720:A 0.000141484
3 *3718:Y 5.26901e-05
4 *65:8 0.000323488
5 *3719:B1 *3720:B 3.45628e-05
6 *3719:B1 *3721:B 0.00028858
7 *3719:B1 *3817:A 0
8 *3719:B1 *170:14 0.000227748
9 *3720:A *3720:B 0.000164874
10 *3720:A *3721:B 6.20787e-05
11 *65:8 *3721:B 4.82919e-05
12 *3718:A *3719:B1 0
13 *3718:B *65:8 1.76441e-05
*RES
1 *3718:Y *65:8 2.755 
2 *65:8 *3720:A 4.825 
3 *65:8 *3719:B1 9.53 
*END

*D_NET *66 0.000598939
*CONN
*I *3721:A I *D sky130_fd_sc_hd__nand2_1
*I *3823:S I *D sky130_fd_sc_hd__mux2_1
*I *3719:Y O *D sky130_fd_sc_hd__o21ai_1
*CAP
1 *3721:A 0
2 *3823:S 0.000123233
3 *3719:Y 9.69453e-05
4 *66:10 0.000220179
5 *3823:S *3721:B 9.33473e-05
6 *66:10 *217:43 5.29667e-05
7 *3718:A *3823:S 1.22676e-05
*RES
1 *3719:Y *66:10 3.205 
2 *66:10 *3823:S 7.745 
3 *66:10 *3721:A 1.6 
*END

*D_NET *67 0.0011911
*CONN
*I *3721:B I *D sky130_fd_sc_hd__nand2_1
*I *3720:X O *D sky130_fd_sc_hd__or3_1
*CAP
1 *3721:B 0.000302819
2 *3720:X 0.000302819
3 *3721:B *3720:B 8.65905e-05
4 *3718:A *3721:B 0
5 *3718:B *3721:B 6.57653e-06
6 *3719:B1 *3721:B 0.00028858
7 *3720:A *3721:B 6.20787e-05
8 *3823:S *3721:B 9.33473e-05
9 *65:8 *3721:B 4.82919e-05
*RES
1 *3720:X *3721:B 12.795 
*END

*D_NET *68 0.00270919
*CONN
*I *3816:A0 I *D sky130_fd_sc_hd__mux2_1
*I *3826:A1 I *D sky130_fd_sc_hd__o211ai_1
*I *3734:A I *D sky130_fd_sc_hd__xor2_1
*I *3825:A1 I *D sky130_fd_sc_hd__o22a_1
*I *3721:Y O *D sky130_fd_sc_hd__nand2_1
*CAP
1 *3816:A0 4.18255e-05
2 *3826:A1 0
3 *3734:A 3.59575e-05
4 *3825:A1 0
5 *3721:Y 0.000179885
6 *68:42 0.000181692
7 *68:23 0.000362538
8 *68:14 0.000366599
9 *3734:A *3824:A 1.8731e-05
10 *3734:A *3825:A2 6.31078e-05
11 *3816:A0 *3816:S 8.65961e-05
12 *3816:A0 *3826:C1 6.1357e-05
13 *3816:A0 *162:16 0.000198945
14 *68:14 *3733:A 4.2857e-05
15 *68:14 *3747:A 6.28765e-05
16 *68:14 *3817:A 0
17 *68:14 *3825:A2 4.82919e-05
18 *68:14 *3825:B2 5.16418e-05
19 *68:14 *167:8 8.49205e-05
20 *68:14 *170:14 0.000196946
21 *68:14 *217:43 4.99619e-05
22 *68:23 *3816:A1 4.99619e-05
23 *68:23 *3825:A2 0.000323412
24 *68:23 *3825:B1 0
25 *68:42 *3824:A 1.33293e-05
26 *68:42 *179:39 4.92096e-05
27 *68:42 *245:37 0.000138551
*RES
1 *3721:Y *68:14 10.265 
2 *68:14 *3825:A1 1.6 
3 *68:14 *68:23 3.9975 
4 *68:23 *3734:A 2.8375 
5 *68:23 *68:42 6.9625 
6 *68:42 *3826:A1 1.6 
7 *68:42 *3816:A0 3.43 
*END

*D_NET *69 0.00185146
*CONN
*I *3736:A I *D sky130_fd_sc_hd__nand3_1
*I *3737:B1 I *D sky130_fd_sc_hd__a21o_1
*I *3725:A1 I *D sky130_fd_sc_hd__a21bo_1
*I *3722:X O *D sky130_fd_sc_hd__and2_1
*CAP
1 *3736:A 8.64005e-05
2 *3737:B1 0.000191882
3 *3725:A1 6.64504e-06
4 *3722:X 0.00011399
5 *69:21 0.000339463
6 *69:6 0.000181815
7 *3725:A1 *72:20 4.82863e-05
8 *3736:A *3724:A 6.53536e-05
9 *3736:A *3724:B 1.47347e-05
10 *3736:A *3724:C 5.59676e-05
11 *3736:A *3725:A2 0.000278587
12 *3736:A *3736:C 9.72742e-06
13 *3737:B1 *3724:D 3.42142e-05
14 *3737:B1 *3725:B1_N 3.96088e-05
15 *3737:B1 *3743:B 9.50342e-06
16 *3737:B1 *71:33 0.000125984
17 *3737:B1 *83:10 0.000134516
18 *3737:B1 *246:85 0
19 *69:6 *72:20 1.08758e-05
20 *69:21 *3724:A 4.98252e-05
21 *69:21 *3725:A2 3.98394e-05
22 *69:21 *72:20 1.42368e-05
*RES
1 *3722:X *69:6 3.085 
2 *69:6 *3725:A1 2.05 
3 *69:6 *69:21 1.755 
4 *69:21 *3737:B1 9.14 
5 *69:21 *3736:A 5.05 
*END

*D_NET *70 0.00258594
*CONN
*I *3737:A2 I *D sky130_fd_sc_hd__a21o_1
*I *3725:A2 I *D sky130_fd_sc_hd__a21bo_1
*I *3736:C I *D sky130_fd_sc_hd__nand3_1
*I *3723:X O *D sky130_fd_sc_hd__a22o_1
*CAP
1 *3737:A2 0.000134025
2 *3725:A2 0.00015591
3 *3736:C 3.50063e-05
4 *3723:X 0.00030582
5 *70:12 0.000190916
6 *70:10 0.000439846
7 *3725:A2 *3724:C 2.45351e-05
8 *3725:A2 *71:8 4.66108e-05
9 *3725:A2 *72:20 8.45472e-05
10 *3725:A2 *83:10 0.000122337
11 *3736:C *3724:C 2.75145e-05
12 *3736:C *3779:B1 0
13 *3737:A2 *3736:B 0.000241629
14 *3737:A2 *3742:A1 0
15 *3737:A2 *3749:A 9.53428e-06
16 *3737:A2 *82:10 5.93588e-05
17 *3737:A2 *89:8 6.58423e-05
18 *70:10 *3724:C 4.94326e-05
19 *70:10 *3736:B 3.09164e-05
20 *70:10 *82:10 2.03321e-05
21 *70:10 *246:62 2.26018e-05
22 *70:10 *247:99 8.5841e-05
23 *70:10 *264:51 0.000105231
24 *3736:A *3725:A2 0.000278587
25 *3736:A *3736:C 9.72742e-06
26 *69:21 *3725:A2 3.98394e-05
*RES
1 *3723:X *70:10 8.445 
2 *70:10 *70:12 2 
3 *70:12 *3736:C 2.41 
4 *70:12 *3725:A2 5.98 
5 *70:10 *3737:A2 6.99 
*END

*D_NET *71 0.00256102
*CONN
*I *3737:A1 I *D sky130_fd_sc_hd__a21o_1
*I *3736:B I *D sky130_fd_sc_hd__nand3_1
*I *3725:B1_N I *D sky130_fd_sc_hd__a21bo_1
*I *3724:Y O *D sky130_fd_sc_hd__nand4_1
*CAP
1 *3737:A1 0
2 *3736:B 0.000146519
3 *3725:B1_N 0.000404516
4 *3724:Y 3.69588e-05
5 *71:33 0.000254296
6 *71:8 0.000549252
7 *3725:B1_N *214:88 6.30136e-05
8 *3725:B1_N *214:100 0
9 *3725:B1_N *246:85 1.12129e-05
10 *3725:B1_N *247:112 6.30136e-05
11 *3736:B *3743:C 4.82863e-05
12 *3736:B *82:10 0
13 *3736:B *82:19 0
14 *3736:B *89:8 1.34503e-05
15 *3736:B *264:51 0.00022448
16 *71:33 *3742:A1 4.95661e-05
17 *71:33 *3742:A2 3.26889e-05
18 *71:33 *3743:C 0.000122331
19 *71:33 *89:8 8.34281e-06
20 *71:33 *246:85 4.83411e-05
21 *3725:A2 *71:8 4.66108e-05
22 *3737:A2 *3736:B 0.000241629
23 *3737:B1 *3725:B1_N 3.96088e-05
24 *3737:B1 *71:33 0.000125984
25 *70:10 *3736:B 3.09164e-05
*RES
1 *3724:Y *71:8 4.05 
2 *71:8 *3725:B1_N 6.33413 
3 *71:8 *71:33 5.135 
4 *71:33 *3736:B 9.395 
5 *71:33 *3737:A1 1.6 
*END

*D_NET *72 0.00204103
*CONN
*I *3727:B I *D sky130_fd_sc_hd__nand3_1
*I *3728:B1 I *D sky130_fd_sc_hd__a21o_1
*I *3725:X O *D sky130_fd_sc_hd__a21bo_1
*CAP
1 *3727:B 9.58138e-06
2 *3728:B1 7.19277e-05
3 *3725:X 0.000441981
4 *72:20 0.00052349
5 *3727:B *3727:C 5.4155e-06
6 *3727:B *3728:A2 5.4155e-06
7 *3728:B1 *3728:A1 1.47256e-05
8 *3728:B1 *3728:A2 5.32116e-05
9 *3728:B1 *74:12 0.000197563
10 *72:20 *3661:A 0
11 *72:20 *3727:A 0
12 *72:20 *3727:C 5.4155e-06
13 *72:20 *3728:A2 4.60584e-05
14 *72:20 *213:89 0.000372591
15 *72:20 *214:88 0
16 *72:20 *246:66 8.97564e-05
17 *72:20 *246:85 4.59464e-05
18 *3725:A1 *72:20 4.82863e-05
19 *3725:A2 *72:20 8.45472e-05
20 *69:6 *72:20 1.08758e-05
21 *69:21 *72:20 1.42368e-05
*RES
1 *3725:X *72:20 14.09 
2 *72:20 *3728:B1 3.79 
3 *72:20 *3727:B 1.96 
*END

*D_NET *73 0.000815879
*CONN
*I *3727:C I *D sky130_fd_sc_hd__nand3_1
*I *3728:A2 I *D sky130_fd_sc_hd__a21o_1
*I *3726:X O *D sky130_fd_sc_hd__a22o_1
*CAP
1 *3727:C 9.58138e-06
2 *3728:A2 9.75161e-05
3 *3726:X 0.000213512
4 *73:12 0.00032061
5 *3728:A2 *3728:A1 1.08758e-05
6 *73:12 *3664:C_N 4.18603e-06
7 *73:12 *3727:A 4.18603e-06
8 *73:12 *214:77 0
9 *73:12 *217:21 3.98952e-05
10 *73:12 *251:21 0
11 *3727:B *3727:C 5.4155e-06
12 *3727:B *3728:A2 5.4155e-06
13 *3728:B1 *3728:A2 5.32116e-05
14 *72:20 *3727:C 5.4155e-06
15 *72:20 *3728:A2 4.60584e-05
*RES
1 *3726:X *73:12 9.125 
2 *73:12 *3728:A2 3.445 
3 *73:12 *3727:C 1.96 
*END

*D_NET *74 0.00268692
*CONN
*I *3745:A1 I *D sky130_fd_sc_hd__a21bo_1
*I *3730:A I *D sky130_fd_sc_hd__and2_1
*I *3729:B I *D sky130_fd_sc_hd__nand3b_1
*I *3727:Y O *D sky130_fd_sc_hd__nand3_1
*CAP
1 *3745:A1 0
2 *3730:A 7.75153e-05
3 *3729:B 5.61043e-05
4 *3727:Y 0.000358754
5 *74:25 0.000144479
6 *74:12 0.000481822
7 *3729:B *3729:C 0.000120186
8 *3729:B *260:10 1.82563e-05
9 *3729:B *266:35 0.000164679
10 *3730:A *3730:B 0.000162005
11 *3730:A *3735:B 0
12 *3730:A *272:20 0.00014673
13 *74:12 *75:8 0.000454233
14 *74:25 *3729:C 2.14129e-05
15 *74:25 *3745:A2 4.9968e-05
16 *74:25 *247:14 5.65627e-05
17 *74:25 *266:35 0.000176647
18 *3728:B1 *74:12 0.000197563
*RES
1 *3727:Y *74:12 10.635 
2 *74:12 *3729:B 5.49 
3 *74:12 *74:25 4.145 
4 *74:25 *3730:A 4.255 
5 *74:25 *3745:A1 1.6 
*END

*D_NET *75 0.00250756
*CONN
*I *3745:A2 I *D sky130_fd_sc_hd__a21bo_1
*I *3729:C I *D sky130_fd_sc_hd__nand3b_1
*I *3728:X O *D sky130_fd_sc_hd__a21o_1
*CAP
1 *3745:A2 0.000226357
2 *3729:C 7.78049e-05
3 *3728:X 0.000133401
4 *75:8 0.000437563
5 *3729:C *260:10 4.05358e-05
6 *3745:A2 *3695:B 0.000155497
7 *3745:A2 *3724:C 0
8 *3745:A2 *3730:B 4.66108e-05
9 *3745:A2 *3735:B 9.30787e-05
10 *3745:A2 *76:8 0.000114492
11 *3745:A2 *247:14 8.53113e-06
12 *3745:A2 *264:62 1.91597e-05
13 *3745:A2 *272:20 4.41506e-05
14 *75:8 *3695:B 0.000414248
15 *3729:B *3729:C 0.000120186
16 *3745:B1_N *3729:C 2.96383e-05
17 *3745:B1_N *3745:A2 1.52776e-05
18 *3818:A2 *3729:C 5.4155e-06
19 *74:12 *75:8 0.000454233
20 *74:25 *3729:C 2.14129e-05
21 *74:25 *3745:A2 4.9968e-05
*RES
1 *3728:X *75:8 8.19 
2 *75:8 *3729:C 5.85 
3 *75:8 *3745:A2 11.875 
*END

*D_NET *76 0.00270321
*CONN
*I *3746:B I *D sky130_fd_sc_hd__and3_1
*I *3779:A1 I *D sky130_fd_sc_hd__a21oi_1
*I *3730:B I *D sky130_fd_sc_hd__and2_1
*I *3729:Y O *D sky130_fd_sc_hd__nand3b_1
*CAP
1 *3746:B 0.000182081
2 *3779:A1 6.21999e-05
3 *3730:B 8.76515e-05
4 *3729:Y 0.000112772
5 *76:19 0.000291401
6 *76:8 0.000247544
7 *3730:B *264:62 0.000344454
8 *3730:B *272:20 3.50612e-05
9 *3746:B *3746:A 0.000158965
10 *3746:B *3746:C 2.50602e-05
11 *3746:B *3780:B 4.82863e-05
12 *3746:B *91:12 8.53113e-06
13 *3746:B *92:10 4.9968e-05
14 *3746:B *266:22 2.15594e-05
15 *3746:B *266:35 4.14369e-05
16 *3779:A1 *247:89 8.40269e-05
17 *76:8 *3735:B 9.34333e-05
18 *76:8 *266:35 0.000307354
19 *76:19 *3724:C 0
20 *76:19 *92:10 7.23533e-05
21 *76:19 *266:35 0.00010596
22 *3730:A *3730:B 0.000162005
23 *3745:A2 *3730:B 4.66108e-05
24 *3745:A2 *76:8 0.000114492
*RES
1 *3729:Y *76:8 7.275 
2 *76:8 *3730:B 6.81 
3 *76:8 *76:19 1.38 
4 *76:19 *3779:A1 4.395 
5 *76:19 *3746:B 7.26 
*END

*D_NET *77 0.00279311
*CONN
*I *3747:B I *D sky130_fd_sc_hd__xnor2_1
*I *3733:A I *D sky130_fd_sc_hd__or2b_1
*I *3730:X O *D sky130_fd_sc_hd__and2_1
*CAP
1 *3747:B 0
2 *3733:A 0.000430807
3 *3730:X 0.000359215
4 *77:6 0.000790021
5 *3733:A *3747:A 0.000293039
6 *3733:A *3817:A 0
7 *3733:A *179:10 0.000311288
8 *77:6 *3820:A0 0.000235568
9 *77:6 *94:16 5.34747e-05
10 *77:6 *245:23 4.66108e-05
11 *77:6 *247:33 8.40213e-05
12 *77:6 *249:48 8.15554e-05
13 *77:6 *264:62 2.49909e-05
14 *77:6 *272:20 3.96653e-05
15 *68:14 *3733:A 4.2857e-05
*RES
1 *3730:X *77:6 8.95 
2 *77:6 *3733:A 13.16 
3 *77:6 *3747:B 1.6 
*END

*D_NET *78 0.000162466
*CONN
*I *3732:B I *D sky130_fd_sc_hd__nor2_1
*I *3731:Y O *D sky130_fd_sc_hd__a21oi_1
*CAP
1 *3732:B 3.3322e-05
2 *3731:Y 3.3322e-05
3 *3732:B *3731:A1 1.61831e-05
4 *3732:B *3731:B1 4.0066e-05
5 *3732:B *3856:C 3.95724e-05
*RES
1 *3731:Y *3732:B 4.37 
*END

*D_NET *79 0.00172575
*CONN
*I *3747:A I *D sky130_fd_sc_hd__xnor2_1
*I *3733:B_N I *D sky130_fd_sc_hd__or2b_1
*I *3732:Y O *D sky130_fd_sc_hd__nor2_1
*CAP
1 *3747:A 0.000314447
2 *3733:B_N 0
3 *3732:Y 0.000114045
4 *79:8 0.000428491
5 *3747:A *3816:A1 0
6 *3747:A *3826:C1 0
7 *3747:A *179:10 0.000130453
8 *3747:A *179:39 0
9 *79:8 *3707:A 6.1357e-05
10 *79:8 *3731:A1 1.34594e-05
11 *79:8 *3856:C 0.000113255
12 *79:8 *179:10 0.000107738
13 *3732:A *79:8 8.65905e-05
14 *3733:A *3747:A 0.000293039
15 *68:14 *3747:A 6.28765e-05
*RES
1 *3732:Y *79:8 4.825 
2 *79:8 *3733:B_N 1.6 
3 *79:8 *3747:A 12.065 
*END

*D_NET *80 0.00139106
*CONN
*I *3825:A2 I *D sky130_fd_sc_hd__o22a_1
*I *3734:B I *D sky130_fd_sc_hd__xor2_1
*I *3733:X O *D sky130_fd_sc_hd__or2b_1
*CAP
1 *3825:A2 8.66668e-05
2 *3734:B 9.32585e-05
3 *3733:X 7.88538e-05
4 *80:10 0.000258779
5 *3734:B *179:39 1.01661e-05
6 *3734:B *245:37 4.36438e-05
7 *3825:A2 *3824:A 0.000138799
8 *3825:A2 *3825:B1 0
9 *3825:A2 *167:8 4.0843e-05
10 *3825:A2 *179:39 2.05641e-05
11 *80:10 *3707:A 4.99619e-05
12 *80:10 *179:39 0.000102257
13 *80:10 *245:37 3.24583e-05
14 *3734:A *3825:A2 6.31078e-05
15 *68:14 *3825:A2 4.82919e-05
16 *68:23 *3825:A2 0.000323412
*RES
1 *3733:X *80:10 5.3025 
2 *80:10 *3734:B 4.8825 
3 *80:10 *3825:A2 7.4025 
*END

*D_NET *81 0.000371103
*CONN
*I *3816:A1 I *D sky130_fd_sc_hd__mux2_1
*I *3734:X O *D sky130_fd_sc_hd__xor2_1
*CAP
1 *3816:A1 7.73768e-05
2 *3734:X 7.73768e-05
3 *3816:A1 *3826:C1 5.02217e-05
4 *3816:A1 *179:39 0.000116165
5 *3747:A *3816:A1 0
6 *68:23 *3816:A1 4.99619e-05
*RES
1 *3734:X *3816:A1 9.03 
*END

*D_NET *82 0.00176847
*CONN
*I *3760:B1 I *D sky130_fd_sc_hd__a21o_1
*I *3744:A1 I *D sky130_fd_sc_hd__a21bo_1
*I *3749:B I *D sky130_fd_sc_hd__nand3_1
*I *3735:X O *D sky130_fd_sc_hd__and2_1
*CAP
1 *3760:B1 5.51425e-05
2 *3744:A1 4.32429e-05
3 *3749:B 0
4 *3735:X 0.000270104
5 *82:19 0.000153982
6 *82:10 0.0003257
7 *3744:A1 *3744:A2 1.08758e-05
8 *3744:A1 *213:70 8.23457e-05
9 *3760:B1 *3749:A 1.07797e-05
10 *3760:B1 *3760:A1 3.76596e-05
11 *3760:B1 *96:8 0.000197599
12 *3760:B1 *213:70 0.000118527
13 *82:10 *3724:C 9.30787e-05
14 *82:10 *89:12 1.89685e-05
15 *82:10 *91:12 0
16 *82:10 *92:10 0
17 *82:10 *264:62 8.65905e-05
18 *82:19 *3749:A 6.11008e-05
19 *82:19 *89:12 7.90356e-06
20 *82:19 *96:8 0.000115177
21 *82:19 *264:51 0
22 *3736:B *82:10 0
23 *3736:B *82:19 0
24 *3737:A2 *82:10 5.93588e-05
25 *70:10 *82:10 2.03321e-05
*RES
1 *3735:X *82:10 8.325 
2 *82:10 *3749:B 3.6 
3 *82:10 *82:19 1.635 
4 *82:19 *3744:A1 4.395 
5 *82:19 *3760:B1 6 
*END

*D_NET *83 0.00146837
*CONN
*I *3743:B I *D sky130_fd_sc_hd__nand3_1
*I *3742:A1 I *D sky130_fd_sc_hd__a21o_1
*I *3736:Y O *D sky130_fd_sc_hd__nand3_1
*CAP
1 *3743:B 8.84374e-05
2 *3742:A1 8.24415e-05
3 *3736:Y 0.000139365
4 *83:10 0.000310244
5 *3742:A1 *3742:A2 5.53774e-05
6 *3742:A1 *3743:C 9.80943e-06
7 *3742:A1 *89:8 0.000194694
8 *3742:A1 *214:100 2.05056e-05
9 *3742:A1 *279:35 0
10 *3743:B *3724:D 0.000101945
11 *3743:B *3743:C 1.27474e-05
12 *3743:B *214:100 0
13 *3743:B *246:85 0
14 *83:10 *3724:D 0.000136877
15 *3725:A2 *83:10 0.000122337
16 *3737:A2 *3742:A1 0
17 *3737:B1 *3743:B 9.50342e-06
18 *3737:B1 *83:10 0.000134516
19 *71:33 *3742:A1 4.95661e-05
*RES
1 *3736:Y *83:10 6.375 
2 *83:10 *3742:A1 6.15 
3 *83:10 *3743:B 5.235 
*END

*D_NET *84 0.000894973
*CONN
*I *3742:A2 I *D sky130_fd_sc_hd__a21o_1
*I *3743:C I *D sky130_fd_sc_hd__nand3_1
*I *3737:X O *D sky130_fd_sc_hd__a21o_1
*CAP
1 *3742:A2 3.10775e-05
2 *3743:C 0.000171945
3 *3737:X 0
4 *84:4 0.000203023
5 *3742:A2 *214:100 4.43467e-05
6 *3743:C *3724:D 6.95753e-05
7 *3743:C *264:51 9.37644e-05
8 *3736:B *3743:C 4.82863e-05
9 *3742:A1 *3742:A2 5.53774e-05
10 *3742:A1 *3743:C 9.80943e-06
11 *3743:B *3743:C 1.27474e-05
12 *71:33 *3742:A2 3.26889e-05
13 *71:33 *3743:C 0.000122331
*RES
1 *3737:X *84:4 1.6 
2 *84:4 *3743:C 8.555 
3 *84:4 *3742:A2 2.665 
*END

*D_NET *85 0.00143997
*CONN
*I *3752:B1 I *D sky130_fd_sc_hd__a21o_1
*I *3751:B I *D sky130_fd_sc_hd__nand3_1
*I *3741:A1 I *D sky130_fd_sc_hd__a21bo_1
*I *3738:X O *D sky130_fd_sc_hd__and2_1
*CAP
1 *3752:B1 0.000131454
2 *3751:B 2.08101e-05
3 *3741:A1 4.03401e-05
4 *3738:X 0.00016315
5 *85:21 0.000224722
6 *85:6 0.000275948
7 *3741:A1 *3741:A2 8.57024e-05
8 *3751:B *3757:A2 0
9 *3752:B1 *3751:C 4.66108e-05
10 *3752:B1 *3757:A2 8.30487e-05
11 *3752:B1 *99:6 2.30292e-05
12 *85:6 *3741:A2 0.000108098
13 *85:21 *3751:A 0.000118527
14 *85:21 *296:34 0.000118527
*RES
1 *3738:X *85:6 4.12 
2 *85:6 *3741:A1 2.395 
3 *85:6 *85:21 5.995 
4 *85:21 *3751:B 1.96 
5 *85:21 *3752:B1 4.135 
*END

*D_NET *86 0.00138748
*CONN
*I *3752:A2 I *D sky130_fd_sc_hd__a21o_1
*I *3751:C I *D sky130_fd_sc_hd__nand3_1
*I *3741:A2 I *D sky130_fd_sc_hd__a21bo_1
*I *3739:X O *D sky130_fd_sc_hd__a22o_1
*CAP
1 *3752:A2 0
2 *3751:C 1.36534e-05
3 *3741:A2 9.26031e-05
4 *3739:X 3.42214e-05
5 *86:21 6.80135e-05
6 *86:8 0.000181185
7 *3741:A2 *3751:A 6.71882e-05
8 *3751:C *3757:A2 4.66108e-05
9 *86:8 *3750:B 0.00011852
10 *86:8 *3752:A1 5.23362e-05
11 *86:8 *87:10 7.23533e-05
12 *86:21 *3750:B 0.000204456
13 *86:21 *3752:A1 0.000195925
14 *3741:A1 *3741:A2 8.57024e-05
15 *3752:B1 *3751:C 4.66108e-05
16 *85:6 *3741:A2 0.000108098
*RES
1 *3739:X *86:8 4.98 
2 *86:8 *3741:A2 5.775 
3 *86:8 *86:21 4.4 
4 *86:21 *3751:C 2.05 
5 *86:21 *3752:A2 1.6 
*END

*D_NET *87 0.00292346
*CONN
*I *3752:A1 I *D sky130_fd_sc_hd__a21o_1
*I *3741:B1_N I *D sky130_fd_sc_hd__a21bo_1
*I *3751:A I *D sky130_fd_sc_hd__nand3_1
*I *3740:Y O *D sky130_fd_sc_hd__nand4_1
*CAP
1 *3752:A1 0.000145821
2 *3741:B1_N 0
3 *3751:A 0.000212217
4 *3740:Y 0.000342794
5 *87:12 0.000212217
6 *87:10 0.000488616
7 *3751:A *88:8 0
8 *3751:A *102:8 0
9 *3751:A *296:34 9.37479e-05
10 *3752:A1 *3750:B 2.15594e-05
11 *3752:A1 *3757:A2 8.49205e-05
12 *3752:A1 *3758:A 8.53113e-06
13 *3752:A1 *296:34 0.000244607
14 *87:10 *3743:A 5.05437e-05
15 *87:10 *3750:B 9.766e-05
16 *87:10 *246:85 1.19928e-05
17 *87:10 *279:37 0.000122337
18 *87:10 *296:34 0.000114492
19 *87:10 *296:36 0.000139933
20 *87:10 *296:98 2.51419e-05
21 *3741:A2 *3751:A 6.71882e-05
22 *85:21 *3751:A 0.000118527
23 *86:8 *3752:A1 5.23362e-05
24 *86:8 *87:10 7.23533e-05
25 *86:21 *3752:A1 0.000195925
*RES
1 *3740:Y *87:10 9.72 
2 *87:10 *87:12 2 
3 *87:12 *3751:A 9.65 
4 *87:12 *3741:B1_N 1.6 
5 *87:10 *3752:A1 7.815 
*END

*D_NET *88 0.00154674
*CONN
*I *3743:A I *D sky130_fd_sc_hd__nand3_1
*I *3742:B1 I *D sky130_fd_sc_hd__a21o_1
*I *3741:X O *D sky130_fd_sc_hd__a21bo_1
*CAP
1 *3743:A 0.000109995
2 *3742:B1 0.000106065
3 *3741:X 0.00013863
4 *88:8 0.00035469
5 *3742:B1 *3740:D 0
6 *3742:B1 *89:8 3.00381e-05
7 *3742:B1 *213:83 7.36834e-05
8 *3742:B1 *213:89 4.43871e-06
9 *3742:B1 *214:100 4.82919e-05
10 *3742:B1 *246:85 0.000157595
11 *3742:B1 *246:91 5.16418e-05
12 *3743:A *3724:D 2.7441e-05
13 *3743:A *3740:D 4.82919e-05
14 *3743:A *3744:B1_N 0
15 *3743:A *246:85 4.66108e-05
16 *3743:A *296:98 2.16833e-05
17 *88:8 *3740:D 0
18 *88:8 *102:8 0.000117832
19 *88:8 *246:91 0.000159269
20 *88:8 *296:34 0
21 *3751:A *88:8 0
22 *87:10 *3743:A 5.05437e-05
*RES
1 *3741:X *88:8 6.765 
2 *88:8 *3742:B1 6.45 
3 *88:8 *3743:A 6.15 
*END

*D_NET *89 0.00285311
*CONN
*I *3749:C I *D sky130_fd_sc_hd__nand3_1
*I *3760:A2 I *D sky130_fd_sc_hd__a21o_1
*I *3744:A2 I *D sky130_fd_sc_hd__a21bo_1
*I *3742:X O *D sky130_fd_sc_hd__a21o_1
*CAP
1 *3749:C 0
2 *3760:A2 0.000234862
3 *3744:A2 6.38541e-05
4 *3742:X 0.000236155
5 *89:12 0.000350693
6 *89:8 0.000288132
7 *3744:A2 *213:70 2.16833e-05
8 *3760:A2 *3755:D 1.37328e-05
9 *3760:A2 *96:8 0.000181003
10 *3760:A2 *212:86 0.000110563
11 *3760:A2 *213:70 9.94353e-05
12 *3760:A2 *266:22 0
13 *89:8 *3749:A 3.00381e-05
14 *89:8 *213:138 2.49909e-05
15 *89:8 *214:100 1.96098e-05
16 *89:8 *279:35 0.000712091
17 *89:12 *91:12 4.49134e-05
18 *89:12 *96:8 7.1242e-05
19 *3736:B *89:8 1.34503e-05
20 *3737:A2 *89:8 6.58423e-05
21 *3742:A1 *89:8 0.000194694
22 *3742:B1 *89:8 3.00381e-05
23 *3744:A1 *3744:A2 1.08758e-05
24 *71:33 *89:8 8.34281e-06
25 *82:10 *89:12 1.89685e-05
26 *82:19 *89:12 7.90356e-06
*RES
1 *3742:X *89:8 8.875 
2 *89:8 *89:12 3.38 
3 *89:12 *3744:A2 4.77 
4 *89:12 *3760:A2 8.55 
5 *89:8 *3749:C 1.6 
*END

*D_NET *90 0.0012285
*CONN
*I *3760:A1 I *D sky130_fd_sc_hd__a21o_1
*I *3749:A I *D sky130_fd_sc_hd__nand3_1
*I *3744:B1_N I *D sky130_fd_sc_hd__a21bo_1
*I *3743:Y O *D sky130_fd_sc_hd__nand3_1
*CAP
1 *3760:A1 6.75631e-05
2 *3749:A 0.000161509
3 *3744:B1_N 2.08101e-05
4 *3743:Y 0.000145903
5 *90:17 0.000249882
6 *90:6 0.000187523
7 *3749:A *213:70 5.4003e-05
8 *3749:A *264:51 7.16251e-05
9 *3760:A1 *213:70 6.45236e-05
10 *3760:A1 *264:51 5.33874e-05
11 *90:6 *3724:D 2.65814e-06
12 *3737:A2 *3749:A 9.53428e-06
13 *3743:A *3744:B1_N 0
14 *3760:B1 *3749:A 1.07797e-05
15 *3760:B1 *3760:A1 3.76596e-05
16 *82:19 *3749:A 6.11008e-05
17 *89:8 *3749:A 3.00381e-05
*RES
1 *3743:Y *90:6 3.43 
2 *90:6 *3744:B1_N 1.96 
3 *90:6 *90:17 2.36 
4 *90:17 *3749:A 6.81 
5 *90:17 *3760:A1 5.235 
*END

*D_NET *91 0.00122966
*CONN
*I *3779:B1 I *D sky130_fd_sc_hd__a21oi_1
*I *3746:A I *D sky130_fd_sc_hd__and3_1
*I *3744:X O *D sky130_fd_sc_hd__a21bo_1
*CAP
1 *3779:B1 4.015e-05
2 *3746:A 7.72366e-05
3 *3744:X 0.000160127
4 *91:12 0.000277514
5 *3746:A *3746:C 0.000177255
6 *3746:A *3780:B 2.16917e-05
7 *3779:B1 *3780:B 7.60965e-05
8 *3779:B1 *247:89 6.77501e-05
9 *91:12 *3780:B 7.44375e-05
10 *91:12 *266:22 4.49876e-05
11 *3736:C *3779:B1 0
12 *3746:B *3746:A 0.000158965
13 *3746:B *91:12 8.53113e-06
14 *82:10 *91:12 0
15 *89:12 *91:12 4.49134e-05
*RES
1 *3744:X *91:12 9.125 
2 *91:12 *3746:A 4.045 
3 *91:12 *3779:B1 3.1 
*END

*D_NET *92 0.000937896
*CONN
*I *3779:A2 I *D sky130_fd_sc_hd__a21oi_1
*I *3746:C I *D sky130_fd_sc_hd__and3_1
*I *3745:X O *D sky130_fd_sc_hd__a21bo_1
*CAP
1 *3779:A2 0
2 *3746:C 0.00017209
3 *3745:X 7.0031e-05
4 *92:10 0.000242121
5 *3746:C *247:10 2.63322e-05
6 *3746:C *247:89 0.000102685
7 *3746:A *3746:C 0.000177255
8 *3746:B *3746:C 2.50602e-05
9 *3746:B *92:10 4.9968e-05
10 *76:19 *92:10 7.23533e-05
11 *82:10 *92:10 0
*RES
1 *3745:X *92:10 6.98 
2 *92:10 *3746:C 5.11 
3 *92:10 *3779:A2 1.6 
*END

*D_NET *93 0.00153018
*CONN
*I *3780:A I *D sky130_fd_sc_hd__nor2_1
*I *3748:A I *D sky130_fd_sc_hd__or2_1
*I *3814:A I *D sky130_fd_sc_hd__and2_1
*I *3746:X O *D sky130_fd_sc_hd__and3_1
*CAP
1 *3780:A 2.66475e-05
2 *3748:A 0
3 *3814:A 5.32381e-05
4 *3746:X 7.18386e-05
5 *93:14 0.000306522
6 *93:10 0.00035177
7 *3780:A *279:35 1.7824e-05
8 *3814:A *3748:B 4.99619e-05
9 *3814:A *94:16 0
10 *3814:A *95:16 2.7441e-05
11 *3814:A *279:35 0.00012657
12 *93:10 *263:23 0.000136877
13 *93:10 *267:44 7.36562e-05
14 *93:10 *267:59 4.43871e-06
15 *93:14 *3693:A 4.82863e-05
16 *93:14 *95:16 8.65905e-05
17 *93:14 *279:35 0.000148524
*RES
1 *3746:X *93:10 7.235 
2 *93:10 *93:14 4.605 
3 *93:14 *3814:A 3.355 
4 *93:14 *3748:A 1.6 
5 *93:10 *3780:A 2.05 
*END

*D_NET *94 0.000988254
*CONN
*I *3748:B I *D sky130_fd_sc_hd__or2_1
*I *3814:B I *D sky130_fd_sc_hd__and2_1
*I *3747:Y O *D sky130_fd_sc_hd__xnor2_1
*CAP
1 *3748:B 1.86144e-05
2 *3814:B 0
3 *3747:Y 0.00032176
4 *94:16 0.000340374
5 *3748:B *95:16 7.60965e-05
6 *3748:B *279:35 3.90495e-05
7 *94:16 *3827:A 2.15738e-05
8 *94:16 *95:16 3.98259e-05
9 *94:16 *162:16 0
10 *94:16 *249:54 0
11 *94:16 *279:35 2.75229e-05
12 *3814:A *3748:B 4.99619e-05
13 *3814:A *94:16 0
14 *77:6 *94:16 5.34747e-05
*RES
1 *3747:Y *94:16 10.97 
2 *94:16 *3814:B 1.6 
3 *94:16 *3748:B 2.74 
*END

*D_NET *95 0.00140052
*CONN
*I *3815:A1 I *D sky130_fd_sc_hd__a21oi_1
*I *3827:B_N I *D sky130_fd_sc_hd__or2b_1
*I *3748:X O *D sky130_fd_sc_hd__or2_1
*CAP
1 *3815:A1 0.000191076
2 *3827:B_N 0
3 *3748:X 0.000268512
4 *95:16 0.000459587
5 *3815:A1 *3815:A2 7.00889e-06
6 *3815:A1 *3815:B1 6.83447e-05
7 *3815:A1 *3827:A 5.39961e-05
8 *3815:A1 *249:54 0
9 *3815:A1 *249:66 4.16262e-05
10 *95:16 *161:8 4.66486e-05
11 *95:16 *279:35 3.37693e-05
12 *3748:B *95:16 7.60965e-05
13 *3814:A *95:16 2.7441e-05
14 *93:14 *95:16 8.65905e-05
15 *94:16 *95:16 3.98259e-05
*RES
1 *3748:X *95:16 6.205 
2 *95:16 *3827:B_N 1.6 
3 *95:16 *3815:A1 8.12 
*END

*D_NET *96 0.00152877
*CONN
*I *3762:A1 I *D sky130_fd_sc_hd__a21oi_1
*I *3761:A I *D sky130_fd_sc_hd__and3_2
*I *3749:Y O *D sky130_fd_sc_hd__nand3_1
*CAP
1 *3762:A1 7.98884e-05
2 *3761:A 0
3 *3749:Y 0.000200077
4 *96:8 0.000279966
5 *3762:A1 *3761:B 7.81954e-05
6 *3762:A1 *3762:A2 0.000221373
7 *3762:A1 *264:51 0
8 *96:8 *3762:A2 9.50342e-06
9 *96:8 *107:8 9.47454e-05
10 *96:8 *264:51 0
11 *96:8 *266:22 0
12 *3760:A2 *96:8 0.000181003
13 *3760:B1 *96:8 0.000197599
14 *82:19 *96:8 0.000115177
15 *89:12 *96:8 7.1242e-05
*RES
1 *3749:Y *96:8 8.805 
2 *96:8 *3761:A 3.6 
3 *96:8 *3762:A1 6.255 
*END

*D_NET *97 0.0011779
*CONN
*I *3774:B1 I *D sky130_fd_sc_hd__a21o_1
*I *3759:A1 I *D sky130_fd_sc_hd__a21bo_1
*I *3763:B I *D sky130_fd_sc_hd__nand3_1
*I *3750:X O *D sky130_fd_sc_hd__and2_1
*CAP
1 *3774:B1 5.58445e-05
2 *3759:A1 0
3 *3763:B 0.000107999
4 *3750:X 8.32038e-05
5 *97:10 0.000247047
6 *3763:B *3763:A 0.000168947
7 *3763:B *3763:C 0
8 *3763:B *121:14 3.65279e-05
9 *3774:B1 *3757:B1 0.000160635
10 *3774:B1 *3763:A 6.07328e-05
11 *3774:B1 *3774:A2 3.23663e-05
12 *3774:B1 *121:14 0.000115779
13 *97:10 *3774:A2 7.47145e-05
14 *97:10 *102:8 0
15 *97:10 *104:25 9.50342e-06
16 *97:10 *264:51 2.46007e-05
*RES
1 *3750:X *97:10 7.235 
2 *97:10 *3763:B 3.79 
3 *97:10 *3759:A1 1.6 
4 *97:10 *3774:B1 4.12 
*END

*D_NET *98 0.000949171
*CONN
*I *3758:A I *D sky130_fd_sc_hd__nand3_1
*I *3757:A1 I *D sky130_fd_sc_hd__a21o_1
*I *3751:Y O *D sky130_fd_sc_hd__nand3_1
*CAP
1 *3758:A 5.91214e-05
2 *3757:A1 0.000216612
3 *3751:Y 0
4 *98:4 0.000275734
5 *3757:A1 *3757:A2 0.000275553
6 *3757:A1 *3757:B1 5.83121e-06
7 *3758:A *3750:B 3.3972e-05
8 *3758:A *103:10 9.50342e-06
9 *3758:A *296:34 6.43126e-05
10 *3752:A1 *3758:A 8.53113e-06
*RES
1 *3751:Y *98:4 1.6 
2 *98:4 *3757:A1 4.465 
3 *98:4 *3758:A 6.98 
*END

*D_NET *99 0.00135084
*CONN
*I *3758:C I *D sky130_fd_sc_hd__nand3_1
*I *3757:A2 I *D sky130_fd_sc_hd__a21o_1
*I *3752:X O *D sky130_fd_sc_hd__a21o_1
*CAP
1 *3758:C 8.52654e-05
2 *3757:A2 0.000176584
3 *3752:X 7.72665e-05
4 *99:6 0.000339116
5 *3758:C *3750:B 0.000114492
6 *3758:C *265:57 4.49585e-05
7 *3751:B *3757:A2 0
8 *3751:C *3757:A2 4.66108e-05
9 *3752:A1 *3757:A2 8.49205e-05
10 *3752:B1 *3757:A2 8.30487e-05
11 *3752:B1 *99:6 2.30292e-05
12 *3757:A1 *3757:A2 0.000275553
*RES
1 *3752:X *99:6 2.74 
2 *99:6 *3757:A2 5.86 
3 *99:6 *3758:C 7.43 
*END

*D_NET *100 0.0014512
*CONN
*I *3765:B I *D sky130_fd_sc_hd__nand3_1
*I *3766:B1 I *D sky130_fd_sc_hd__a21o_1
*I *3756:A1 I *D sky130_fd_sc_hd__a21bo_1
*I *3753:X O *D sky130_fd_sc_hd__and2_1
*CAP
1 *3765:B 9.58786e-05
2 *3766:B1 0
3 *3756:A1 8.49782e-05
4 *3753:X 0.000122436
5 *100:23 0.000131208
6 *100:6 0.000242743
7 *3756:A1 *3756:A2 4.66108e-05
8 *3756:A1 *264:35 5.04256e-05
9 *3756:A1 *296:34 0.000132842
10 *3765:B *3766:A1 8.49205e-05
11 *3765:B *3766:A2 5.0688e-05
12 *3765:B *113:10 3.13457e-05
13 *3765:B *296:141 2.48097e-05
14 *100:6 *3767:A 4.99619e-05
15 *100:6 *113:10 4.66108e-05
16 *100:6 *296:22 0.000179225
17 *100:6 *296:141 6.07575e-06
18 *100:23 *3766:A2 0
19 *100:23 *113:10 1.47256e-05
20 *100:23 *296:141 5.57182e-05
*RES
1 *3753:X *100:6 4.12 
2 *100:6 *3756:A1 7.685 
3 *100:6 *100:23 1.065 
4 *100:23 *3766:B1 1.6 
5 *100:23 *3765:B 3.79 
*END

*D_NET *101 0.00238491
*CONN
*I *3756:A2 I *D sky130_fd_sc_hd__a21bo_1
*I *3765:C I *D sky130_fd_sc_hd__nand3_1
*I *3766:A2 I *D sky130_fd_sc_hd__a21o_1
*I *3754:X O *D sky130_fd_sc_hd__a22o_1
*CAP
1 *3756:A2 0.000168582
2 *3765:C 0
3 *3766:A2 8.70708e-05
4 *3754:X 0.000211301
5 *101:14 0.000212028
6 *101:6 0.000504841
7 *3756:A2 *3756:B1_N 1.1392e-05
8 *3756:A2 *114:16 0.000421073
9 *3766:A2 *3789:A1 4.82863e-05
10 *3766:A2 *3789:A2 4.00541e-06
11 *3766:A2 *112:10 1.34503e-05
12 *3766:A2 *113:10 4.66826e-05
13 *101:6 *3754:A2 5.83121e-06
14 *101:6 *114:16 0.000467068
15 *101:14 *3789:A1 4.91763e-05
16 *101:14 *102:23 0
17 *101:14 *112:10 2.75229e-05
18 *101:14 *113:10 9.29751e-06
19 *101:14 *120:10 0
20 *3756:A1 *3756:A2 4.66108e-05
21 *3765:B *3766:A2 5.0688e-05
22 *100:23 *3766:A2 0
*RES
1 *3754:X *101:6 6.535 
2 *101:6 *101:14 6.34 
3 *101:14 *3766:A2 3.805 
4 *101:14 *3765:C 1.6 
5 *101:6 *3756:A2 5.86 
*END

*D_NET *102 0.00242403
*CONN
*I *3766:A1 I *D sky130_fd_sc_hd__a21o_1
*I *3765:A I *D sky130_fd_sc_hd__nand3_1
*I *3756:B1_N I *D sky130_fd_sc_hd__a21bo_1
*I *3755:Y O *D sky130_fd_sc_hd__nand4_2
*CAP
1 *3766:A1 7.68231e-05
2 *3765:A 0
3 *3756:B1_N 4.28024e-05
4 *3755:Y 0.000560971
5 *102:23 0.000224537
6 *102:8 0.000751487
7 *3766:A1 *113:10 4.38051e-05
8 *3766:A1 *264:35 2.78732e-05
9 *102:8 *3740:D 2.97004e-06
10 *102:8 *3757:B1 0.00013521
11 *102:8 *104:25 0
12 *102:8 *120:10 0
13 *102:8 *121:14 0
14 *102:8 *264:35 0.000114492
15 *102:8 *264:51 0
16 *102:8 *296:34 0
17 *102:23 *113:10 7.47284e-05
18 *102:23 *120:10 0
19 *102:23 *264:35 0.000154183
20 *3751:A *102:8 0
21 *3756:A2 *3756:B1_N 1.1392e-05
22 *3765:B *3766:A1 8.49205e-05
23 *88:8 *102:8 0.000117832
24 *97:10 *102:8 0
25 *101:14 *102:23 0
*RES
1 *3755:Y *102:8 13.14 
2 *102:8 *3756:B1_N 4.05 
3 *102:8 *102:23 3.465 
4 *102:23 *3765:A 3.6 
5 *102:23 *3766:A1 5.01 
*END

*D_NET *103 0.00177436
*CONN
*I *3758:B I *D sky130_fd_sc_hd__nand3_1
*I *3757:B1 I *D sky130_fd_sc_hd__a21o_1
*I *3756:X O *D sky130_fd_sc_hd__a21bo_1
*CAP
1 *3758:B 0
2 *3757:B1 0.000242395
3 *3756:X 0.000160287
4 *103:10 0.000402682
5 *3757:B1 *3763:A 4.66108e-05
6 *3757:B1 *3774:A2 8.59674e-05
7 *3757:B1 *105:6 8.49205e-05
8 *3757:B1 *105:8 0.000199833
9 *3757:B1 *264:51 0
10 *103:10 *3750:B 0.000115847
11 *103:10 *265:57 0
12 *103:10 *296:34 0.000124632
13 *3757:A1 *3757:B1 5.83121e-06
14 *3758:A *103:10 9.50342e-06
15 *3774:B1 *3757:B1 0.000160635
16 *102:8 *3757:B1 0.00013521
*RES
1 *3756:X *103:10 9.275 
2 *103:10 *3757:B1 11.6 
3 *103:10 *3758:B 1.6 
*END

*D_NET *104 0.002269
*CONN
*I *3774:A2 I *D sky130_fd_sc_hd__a21o_1
*I *3759:A2 I *D sky130_fd_sc_hd__a21bo_1
*I *3763:C I *D sky130_fd_sc_hd__nand3_1
*I *3757:X O *D sky130_fd_sc_hd__a21o_1
*CAP
1 *3774:A2 0.000429818
2 *3759:A2 0
3 *3763:C 0.000264281
4 *3757:X 0
5 *104:25 0.00050534
6 *104:4 0.000339804
7 *3763:C *3754:A2 0
8 *3763:C *106:12 0.000122325
9 *3763:C *264:51 5.02217e-05
10 *3774:A2 *121:14 0.00023468
11 *3774:A2 *264:51 3.68862e-05
12 *104:25 *3763:A 4.9968e-05
13 *104:25 *106:12 3.31282e-05
14 *3757:B1 *3774:A2 8.59674e-05
15 *3763:B *3763:C 0
16 *3774:B1 *3774:A2 3.23663e-05
17 *97:10 *3774:A2 7.47145e-05
18 *97:10 *104:25 9.50342e-06
19 *102:8 *104:25 0
*RES
1 *3757:X *104:4 1.6 
2 *104:4 *3763:C 9.365 
3 *104:4 *104:25 3.38 
4 *104:25 *3759:A2 3.6 
5 *104:25 *3774:A2 10.83 
*END

*D_NET *105 0.00147377
*CONN
*I *3774:A1 I *D sky130_fd_sc_hd__a21o_1
*I *3759:B1_N I *D sky130_fd_sc_hd__a21bo_1
*I *3763:A I *D sky130_fd_sc_hd__nand3_1
*I *3758:Y O *D sky130_fd_sc_hd__nand3_1
*CAP
1 *3774:A1 0
2 *3759:B1_N 0
3 *3763:A 0.00021098
4 *3758:Y 5.35244e-05
5 *105:8 0.000335324
6 *105:6 0.000177869
7 *3763:A *106:12 9.50342e-06
8 *3763:A *121:14 4.41506e-05
9 *3763:A *264:51 3.14025e-05
10 *3757:B1 *3763:A 4.66108e-05
11 *3757:B1 *105:6 8.49205e-05
12 *3757:B1 *105:8 0.000199833
13 *3763:B *3763:A 0.000168947
14 *3774:B1 *3763:A 6.07328e-05
15 *104:25 *3763:A 4.9968e-05
*RES
1 *3758:Y *105:6 2.395 
2 *105:6 *105:8 1.83 
3 *105:8 *3763:A 9.185 
4 *105:8 *3759:B1_N 1.6 
5 *105:6 *3774:A1 1.6 
*END

*D_NET *106 0.000838213
*CONN
*I *3762:B1 I *D sky130_fd_sc_hd__a21oi_1
*I *3761:B I *D sky130_fd_sc_hd__and3_2
*I *3759:X O *D sky130_fd_sc_hd__a21bo_1
*CAP
1 *3762:B1 0
2 *3761:B 0.000106295
3 *3759:X 0.00014178
4 *106:12 0.000248075
5 *3761:B *3754:A2 0
6 *3761:B *264:51 0
7 *106:12 *109:12 5.83121e-06
8 *106:12 *264:51 9.30787e-05
9 *3762:A1 *3761:B 7.81954e-05
10 *3763:A *106:12 9.50342e-06
11 *3763:C *106:12 0.000122325
12 *104:25 *106:12 3.31282e-05
*RES
1 *3759:X *106:12 8.555 
2 *106:12 *3761:B 7.49 
3 *106:12 *3762:B1 1.6 
*END

*D_NET *107 0.00095896
*CONN
*I *3762:A2 I *D sky130_fd_sc_hd__a21oi_1
*I *3761:C I *D sky130_fd_sc_hd__and3_2
*I *3760:X O *D sky130_fd_sc_hd__a21o_1
*CAP
1 *3762:A2 0.000105886
2 *3761:C 0.000111735
3 *3760:X 6.41921e-05
4 *107:8 0.000281813
5 *3761:C *108:6 6.97118e-05
6 *3761:C *108:14 0
7 *3762:A2 *3754:A2 0
8 *107:8 *3754:A2 0
9 *3762:A1 *3762:A2 0.000221373
10 *96:8 *3762:A2 9.50342e-06
11 *96:8 *107:8 9.47454e-05
*RES
1 *3760:X *107:8 4.725 
2 *107:8 *3761:C 5.1 
3 *107:8 *3762:A2 6.255 
*END

*D_NET *108 0.00238689
*CONN
*I *3781:A I *D sky130_fd_sc_hd__xor2_2
*I *3777:A1 I *D sky130_fd_sc_hd__o21ba_1
*I *3776:A I *D sky130_fd_sc_hd__nor3b_1
*I *3811:A1 I *D sky130_fd_sc_hd__o21a_1
*I *3761:X O *D sky130_fd_sc_hd__and3_2
*CAP
1 *3781:A 0.000254682
2 *3777:A1 0
3 *3776:A 0
4 *3811:A1 5.65689e-05
5 *3761:X 0.000248395
6 *108:32 0.000306824
7 *108:14 0.000173841
8 *108:6 0.000417808
9 *3781:A *3777:B1_N 8.65905e-05
10 *3781:A *109:12 7.53048e-05
11 *3781:A *124:8 3.1835e-05
12 *3811:A1 *3776:B 4.99619e-05
13 *3811:A1 *123:6 1.83756e-05
14 *3811:A1 *127:14 0.000121437
15 *108:14 *3776:B 5.07073e-05
16 *108:14 *3811:B1 0
17 *108:14 *127:14 9.53428e-06
18 *108:32 *3754:A2 0.000208491
19 *108:32 *266:22 0.000206817
20 *3761:C *108:6 6.97118e-05
21 *3761:C *108:14 0
*RES
1 *3761:X *108:6 5.5 
2 *108:6 *108:14 2.31 
3 *108:14 *3811:A1 3.085 
4 *108:14 *3776:A 1.6 
5 *108:6 *108:32 6.4 
6 *108:32 *3777:A1 1.6 
7 *108:32 *3781:A 5.53 
*END

*D_NET *109 0.00132632
*CONN
*I *3777:A2 I *D sky130_fd_sc_hd__o21ba_1
*I *3776:B I *D sky130_fd_sc_hd__nor3b_1
*I *3762:Y O *D sky130_fd_sc_hd__a21oi_1
*CAP
1 *3777:A2 0
2 *3776:B 0.000132799
3 *3762:Y 0.000293595
4 *109:12 0.000426394
5 *3776:B *3776:C_N 0.000141599
6 *3776:B *122:16 8.53113e-06
7 *3776:B *266:22 0.000141599
8 *3781:A *109:12 7.53048e-05
9 *3811:A1 *3776:B 4.99619e-05
10 *106:12 *109:12 5.83121e-06
11 *108:14 *3776:B 5.07073e-05
*RES
1 *3762:Y *109:12 5.98 
2 *109:12 *3776:B 8.99 
3 *109:12 *3777:A2 1.6 
*END

*D_NET *110 0.000844568
*CONN
*I *3775:A I *D sky130_fd_sc_hd__and3_1
*I *3801:A1 I *D sky130_fd_sc_hd__a21oi_1
*I *3763:Y O *D sky130_fd_sc_hd__nand3_1
*CAP
1 *3775:A 5.24396e-05
2 *3801:A1 7.02711e-05
3 *3763:Y 5.0136e-05
4 *110:12 0.000172847
5 *3775:A *3750:B 0
6 *3775:A *3801:A2 1.85674e-05
7 *3775:A *264:51 5.83121e-06
8 *3801:A1 *3775:B 1.91597e-05
9 *3801:A1 *3801:A2 0.000105382
10 *3801:A1 *3801:B1 0.000157584
11 *3801:A1 *121:14 4.37341e-06
12 *3801:A1 *122:10 2.30292e-05
13 *110:12 *3801:B1 1.85674e-05
14 *110:12 *121:14 7.23533e-05
15 *110:12 *264:51 7.4027e-05
*RES
1 *3763:Y *110:12 7.085 
2 *110:12 *3801:A1 3.79 
3 *110:12 *3775:A 2.665 
*END

*D_NET *111 0.0023407
*CONN
*I *3782:B I *D sky130_fd_sc_hd__nand3_1
*I *3773:A1 I *D sky130_fd_sc_hd__a21bo_1
*I *3789:B1 I *D sky130_fd_sc_hd__a21o_1
*I *3764:X O *D sky130_fd_sc_hd__and2_1
*CAP
1 *3782:B 0.000365346
2 *3773:A1 5.02818e-05
3 *3789:B1 0.000137457
4 *3764:X 0
5 *111:10 0.000400982
6 *111:4 0.000578589
7 *3773:A1 *3771:B1 0
8 *3773:A1 *3773:A2 2.74107e-05
9 *3773:A1 *118:6 3.64998e-06
10 *3773:A1 *296:141 8.65961e-05
11 *3782:B *3764:B 0.00010269
12 *3782:B *3771:B1 3.18367e-05
13 *3782:B *3782:A 7.00224e-05
14 *3782:B *3782:C 8.65961e-05
15 *3782:B *118:6 4.82863e-05
16 *3782:B *264:35 0.000112123
17 *3782:B *296:141 4.9292e-05
18 *3789:B1 *3789:A1 0
19 *3789:B1 *3789:A2 4.05358e-05
20 *3789:B1 *112:10 0
21 *3789:B1 *114:16 0
22 *3789:B1 *120:10 0.000118527
23 *111:10 *3764:A 3.82323e-06
24 *111:10 *3764:B 2.66586e-05
25 *111:10 *3772:A 0
26 *111:10 *3783:B 0
*RES
1 *3764:X *111:4 1.6 
2 *111:4 *111:10 4.775 
3 *111:10 *3789:B1 5.94 
4 *111:10 *3773:A1 4.755 
5 *111:4 *3782:B 12.425 
*END

*D_NET *112 0.00121451
*CONN
*I *3772:A I *D sky130_fd_sc_hd__nand3_1
*I *3771:A1 I *D sky130_fd_sc_hd__a21o_1
*I *3765:Y O *D sky130_fd_sc_hd__nand3_1
*CAP
1 *3772:A 0.00010721
2 *3771:A1 5.8794e-05
3 *3765:Y 0.00013911
4 *112:10 0.000305114
5 *3771:A1 *3771:B1 7.7401e-05
6 *3771:A1 *3773:A2 1.10085e-05
7 *3771:A1 *118:6 0.000158072
8 *3771:A1 *296:141 1.34594e-05
9 *3772:A *3771:B1 7.33689e-05
10 *3772:A *3772:B 0.000130714
11 *112:10 *3771:B1 8.7152e-06
12 *112:10 *3789:A1 5.19181e-05
13 *112:10 *3789:A2 3.86529e-05
14 *3766:A2 *112:10 1.34503e-05
15 *3789:B1 *112:10 0
16 *101:14 *112:10 2.75229e-05
17 *111:10 *3772:A 0
*RES
1 *3765:Y *112:10 5.775 
2 *112:10 *3771:A1 5.445 
3 *112:10 *3772:A 6 
*END

*D_NET *113 0.0015218
*CONN
*I *3772:C I *D sky130_fd_sc_hd__nand3_1
*I *3771:A2 I *D sky130_fd_sc_hd__a21o_1
*I *3766:X O *D sky130_fd_sc_hd__a21o_1
*CAP
1 *3772:C 9.21656e-05
2 *3771:A2 0
3 *3766:X 0.000291412
4 *113:10 0.000383578
5 *3772:C *3772:B 3.76596e-05
6 *3772:C *119:8 7.23602e-05
7 *3772:C *119:10 6.22925e-05
8 *3772:C *264:35 7.29847e-05
9 *113:10 *3789:A1 0.000198615
10 *113:10 *119:10 8.7152e-06
11 *113:10 *264:35 3.48211e-05
12 *3765:B *113:10 3.13457e-05
13 *3766:A1 *113:10 4.38051e-05
14 *3766:A2 *113:10 4.66826e-05
15 *100:6 *113:10 4.66108e-05
16 *100:23 *113:10 1.47256e-05
17 *101:14 *113:10 9.29751e-06
18 *102:23 *113:10 7.47284e-05
*RES
1 *3766:X *113:10 8.775 
2 *113:10 *3771:A2 3.6 
3 *113:10 *3772:C 6 
*END

*D_NET *114 0.00397792
*CONN
*I *3783:B I *D sky130_fd_sc_hd__nand3_1
*I *3770:A1 I *D sky130_fd_sc_hd__a21bo_1
*I *3784:B1 I *D sky130_fd_sc_hd__a21o_1
*I *3767:X O *D sky130_fd_sc_hd__and2_1
*CAP
1 *3783:B 0.000251481
2 *3770:A1 0
3 *3784:B1 0.000185319
4 *3767:X 0.000863579
5 *114:18 0.000185319
6 *114:16 0.00111506
7 *3783:B *3783:A 0
8 *3783:B *3783:C 0.000103192
9 *3783:B *266:20 0
10 *3784:B1 *3770:A2 4.35348e-05
11 *3784:B1 *3770:B1_N 8.23457e-05
12 *3784:B1 *3788:A2 1.10085e-05
13 *3784:B1 *115:14 8.23457e-05
14 *3784:B1 *115:23 6.70914e-05
15 *3784:B1 *136:14 1.08758e-05
16 *3784:B1 *296:141 1.79364e-05
17 *114:16 *120:10 0
18 *114:16 *265:57 0
19 *114:16 *266:20 0
20 *114:16 *296:34 7.06865e-05
21 *3756:A2 *114:16 0.000421073
22 *3789:B1 *114:16 0
23 *101:6 *114:16 0.000467068
24 *111:10 *3783:B 0
*RES
1 *3767:X *114:16 19.93 
2 *114:16 *114:18 2 
3 *114:18 *3784:B1 5.185 
4 *114:18 *3770:A1 1.6 
5 *114:16 *3783:B 7.845 
*END

*D_NET *115 0.00190782
*CONN
*I *3770:A2 I *D sky130_fd_sc_hd__a21bo_1
*I *3783:C I *D sky130_fd_sc_hd__nand3_1
*I *3784:A2 I *D sky130_fd_sc_hd__a21o_1
*I *3768:X O *D sky130_fd_sc_hd__a22o_1
*CAP
1 *3770:A2 3.34404e-05
2 *3783:C 6.07648e-05
3 *3784:A2 0
4 *3768:X 0.000218778
5 *115:23 0.000145518
6 *115:14 0.000270091
7 *3770:A2 *296:141 0.000122337
8 *3783:C *266:20 0.000103192
9 *115:14 *3754:B1 1.33293e-05
10 *115:14 *3754:B2 2.11084e-05
11 *115:14 *3783:A 3.97827e-05
12 *115:14 *116:10 0.000242844
13 *115:14 *132:29 0
14 *115:14 *134:8 4.62877e-05
15 *115:14 *136:14 0.00013521
16 *115:14 *296:141 3.83194e-05
17 *115:23 *296:141 0.000120655
18 *3783:B *3783:C 0.000103192
19 *3784:B1 *3770:A2 4.35348e-05
20 *3784:B1 *115:14 8.23457e-05
21 *3784:B1 *115:23 6.70914e-05
*RES
1 *3768:X *115:14 10.61 
2 *115:14 *3784:A2 1.6 
3 *115:14 *115:23 1.5 
4 *115:23 *3783:C 7.745 
5 *115:23 *3770:A2 2.74 
*END

*D_NET *116 0.00199976
*CONN
*I *3783:A I *D sky130_fd_sc_hd__nand3_1
*I *3770:B1_N I *D sky130_fd_sc_hd__a21bo_1
*I *3784:A1 I *D sky130_fd_sc_hd__a21o_1
*I *3769:Y O *D sky130_fd_sc_hd__nand4_1
*CAP
1 *3783:A 0.000158247
2 *3770:B1_N 6.52939e-05
3 *3784:A1 0
4 *3769:Y 0.000302822
5 *116:12 6.52939e-05
6 *116:10 0.00046107
7 *3783:A *3796:A_N 1.46278e-05
8 *3783:A *130:10 0.000177946
9 *3783:A *134:8 4.92192e-05
10 *116:10 *3768:B2 0
11 *116:10 *122:16 5.83121e-06
12 *116:10 *130:10 9.30717e-05
13 *116:10 *132:29 0
14 *116:10 *149:14 3.27443e-05
15 *116:10 *263:42 2.75229e-05
16 *116:10 *266:20 9.40025e-05
17 *116:10 *266:22 8.70923e-05
18 *116:10 *267:68 0
19 *3783:B *3783:A 0
20 *3784:B1 *3770:B1_N 8.23457e-05
21 *115:14 *3783:A 3.97827e-05
22 *115:14 *116:10 0.000242844
*RES
1 *3769:Y *116:10 10.035 
2 *116:10 *116:12 2 
3 *116:12 *3784:A1 1.6 
4 *116:12 *3770:B1_N 2.395 
5 *116:10 *3783:A 7.17 
*END

*D_NET *117 0.00191833
*CONN
*I *3772:B I *D sky130_fd_sc_hd__nand3_1
*I *3771:B1 I *D sky130_fd_sc_hd__a21o_1
*I *3770:X O *D sky130_fd_sc_hd__a21bo_1
*CAP
1 *3772:B 3.91528e-05
2 *3771:B1 0.000106592
3 *3770:X 0.000255782
4 *117:8 0.000401526
5 *3771:B1 *3789:A1 8.7152e-06
6 *3771:B1 *118:6 2.96334e-05
7 *3771:B1 *119:10 6.22925e-05
8 *3771:B1 *296:141 0.000194694
9 *3772:B *119:8 6.38291e-05
10 *3772:B *119:10 8.53113e-06
11 *117:8 *296:141 0.000387891
12 *3771:A1 *3771:B1 7.7401e-05
13 *3772:A *3771:B1 7.33689e-05
14 *3772:A *3772:B 0.000130714
15 *3772:C *3772:B 3.76596e-05
16 *3773:A1 *3771:B1 0
17 *3782:B *3771:B1 3.18367e-05
18 *112:10 *3771:B1 8.7152e-06
*RES
1 *3770:X *117:8 7.155 
2 *117:8 *3771:B1 7.02 
3 *117:8 *3772:B 5.235 
*END

*D_NET *118 0.00157162
*CONN
*I *3782:C I *D sky130_fd_sc_hd__nand3_1
*I *3789:A2 I *D sky130_fd_sc_hd__a21o_1
*I *3773:A2 I *D sky130_fd_sc_hd__a21bo_1
*I *3771:X O *D sky130_fd_sc_hd__a21o_1
*CAP
1 *3782:C 0.000134141
2 *3789:A2 6.76262e-05
3 *3773:A2 6.75097e-05
4 *3771:X 0
5 *118:6 0.000409426
6 *118:4 0.000408431
7 *3789:A2 *3789:A1 9.53428e-06
8 *118:6 *296:141 2.70992e-05
9 *3766:A2 *3789:A2 4.00541e-06
10 *3771:A1 *3773:A2 1.10085e-05
11 *3771:A1 *118:6 0.000158072
12 *3771:B1 *118:6 2.96334e-05
13 *3773:A1 *3773:A2 2.74107e-05
14 *3773:A1 *118:6 3.64998e-06
15 *3782:B *3782:C 8.65961e-05
16 *3782:B *118:6 4.82863e-05
17 *3789:B1 *3789:A2 4.05358e-05
18 *112:10 *3789:A2 3.86529e-05
*RES
1 *3771:X *118:4 1.6 
2 *118:4 *118:6 3.555 
3 *118:6 *3773:A2 2.665 
4 *118:6 *3789:A2 7.085 
5 *118:4 *3782:C 3.445 
*END

*D_NET *119 0.00207955
*CONN
*I *3782:A I *D sky130_fd_sc_hd__nand3_1
*I *3773:B1_N I *D sky130_fd_sc_hd__a21bo_1
*I *3789:A1 I *D sky130_fd_sc_hd__a21o_1
*I *3772:Y O *D sky130_fd_sc_hd__nand3_1
*CAP
1 *3782:A 0.000272124
2 *3773:B1_N 0
3 *3789:A1 0.000247169
4 *3772:Y 2.19866e-05
5 *119:10 0.000273307
6 *119:8 0.00032025
7 *3782:A *296:141 0.000230429
8 *3766:A2 *3789:A1 4.82863e-05
9 *3771:B1 *3789:A1 8.7152e-06
10 *3771:B1 *119:10 6.22925e-05
11 *3772:B *119:8 6.38291e-05
12 *3772:B *119:10 8.53113e-06
13 *3772:C *119:8 7.23602e-05
14 *3772:C *119:10 6.22925e-05
15 *3782:B *3782:A 7.00224e-05
16 *3789:A2 *3789:A1 9.53428e-06
17 *3789:B1 *3789:A1 0
18 *101:14 *3789:A1 4.91763e-05
19 *112:10 *3789:A1 5.19181e-05
20 *113:10 *3789:A1 0.000198615
21 *113:10 *119:10 8.7152e-06
*RES
1 *3772:Y *119:8 4.47 
2 *119:8 *119:10 0.87 
3 *119:10 *3789:A1 8.445 
4 *119:10 *3773:B1_N 3.6 
5 *119:8 *3782:A 7.785 
*END

*D_NET *120 0.00159656
*CONN
*I *3775:B I *D sky130_fd_sc_hd__and3_1
*I *3801:B1 I *D sky130_fd_sc_hd__a21oi_1
*I *3773:X O *D sky130_fd_sc_hd__a21bo_1
*CAP
1 *3775:B 3.72243e-05
2 *3801:B1 0.000110764
3 *3773:X 0.000390023
4 *120:10 0.000538012
5 *3801:B1 *3802:B 5.40741e-05
6 *3801:B1 *122:10 6.12198e-05
7 *120:10 *3754:A2 0
8 *120:10 *121:14 9.14049e-05
9 *3789:B1 *120:10 0.000118527
10 *3801:A1 *3775:B 1.91597e-05
11 *3801:A1 *3801:B1 0.000157584
12 *101:14 *120:10 0
13 *102:8 *120:10 0
14 *102:23 *120:10 0
15 *110:12 *3801:B1 1.85674e-05
16 *114:16 *120:10 0
*RES
1 *3773:X *120:10 11.825 
2 *120:10 *3801:B1 4.51 
3 *120:10 *3775:B 2.05 
*END

*D_NET *121 0.00144174
*CONN
*I *3775:C I *D sky130_fd_sc_hd__and3_1
*I *3801:A2 I *D sky130_fd_sc_hd__a21oi_1
*I *3774:X O *D sky130_fd_sc_hd__a21o_1
*CAP
1 *3775:C 0
2 *3801:A2 5.51387e-05
3 *3774:X 0.000256478
4 *121:14 0.000311616
5 *3801:A2 *122:10 5.94962e-05
6 *121:14 *3754:A2 0
7 *121:14 *264:51 3.57924e-05
8 *3763:A *121:14 4.41506e-05
9 *3763:B *121:14 3.65279e-05
10 *3774:A2 *121:14 0.00023468
11 *3774:B1 *121:14 0.000115779
12 *3775:A *3801:A2 1.85674e-05
13 *3801:A1 *3801:A2 0.000105382
14 *3801:A1 *121:14 4.37341e-06
15 *102:8 *121:14 0
16 *110:12 *121:14 7.23533e-05
17 *120:10 *121:14 9.14049e-05
*RES
1 *3774:X *121:14 11.4838 
2 *121:14 *3801:A2 3.12625 
3 *121:14 *3775:C 1.6 
*END

*D_NET *122 0.00198938
*CONN
*I *3802:A I *D sky130_fd_sc_hd__nor2_1
*I *3777:B1_N I *D sky130_fd_sc_hd__o21ba_1
*I *3776:C_N I *D sky130_fd_sc_hd__nor3b_1
*I *3775:X O *D sky130_fd_sc_hd__and3_1
*CAP
1 *3802:A 0
2 *3777:B1_N 3.44213e-05
3 *3776:C_N 6.32299e-05
4 *3775:X 0.000187559
5 *122:16 0.000301843
6 *122:10 0.000391751
7 *3776:C_N *263:42 8.77073e-05
8 *3776:C_N *266:22 3.76596e-05
9 *122:10 *3802:B 5.14739e-05
10 *122:10 *149:14 2.59926e-05
11 *122:10 *263:42 0
12 *122:16 *149:14 9.02259e-05
13 *122:16 *263:42 0.000134807
14 *122:16 *266:22 0.000196414
15 *122:16 *267:68 0
16 *3776:B *3776:C_N 0.000141599
17 *3776:B *122:16 8.53113e-06
18 *3781:A *3777:B1_N 8.65905e-05
19 *3801:A1 *122:10 2.30292e-05
20 *3801:A2 *122:10 5.94962e-05
21 *3801:B1 *122:10 6.12198e-05
22 *116:10 *122:16 5.83121e-06
*RES
1 *3775:X *122:10 5.185 
2 *122:10 *122:16 7.67 
3 *122:16 *3776:C_N 6 
4 *122:16 *3777:B1_N 4.395 
5 *122:10 *3802:A 1.6 
*END

*D_NET *123 0.00126414
*CONN
*I *3811:A2 I *D sky130_fd_sc_hd__o21a_1
*I *3839:A_N I *D sky130_fd_sc_hd__and2b_1
*I *3778:A I *D sky130_fd_sc_hd__nor2_1
*I *3776:Y O *D sky130_fd_sc_hd__nor3b_1
*CAP
1 *3811:A2 0
2 *3839:A_N 7.31841e-05
3 *3778:A 0.000119617
4 *3776:Y 6.46016e-05
5 *123:8 0.000266542
6 *123:6 0.000138342
7 *3778:A *3811:B1 1.65432e-05
8 *3778:A *3812:A1 0
9 *3778:A *3812:B1 4.82919e-05
10 *3839:A_N *3781:B 0.000139245
11 *3839:A_N *132:29 7.53115e-05
12 *3839:A_N *245:98 0.000274675
13 *123:6 *127:14 7.68414e-06
14 *123:8 *3811:B1 1.03323e-05
15 *123:8 *127:14 1.1392e-05
16 *3811:A1 *123:6 1.83756e-05
*RES
1 *3776:Y *123:6 2.395 
2 *123:6 *123:8 0.795 
3 *123:8 *3778:A 3.82 
4 *123:8 *3839:A_N 8.765 
5 *123:6 *3811:A2 1.6 
*END

*D_NET *124 0.00190723
*CONN
*I *3778:B I *D sky130_fd_sc_hd__nor2_1
*I *3842:A1 I *D sky130_fd_sc_hd__o21ba_1
*I *3777:X O *D sky130_fd_sc_hd__o21ba_1
*CAP
1 *3778:B 0.000126331
2 *3842:A1 0.000180094
3 *3777:X 0.00030721
4 *124:8 0.000613635
5 *3778:B *3812:B1 4.82919e-05
6 *3778:B *3840:A2 3.76596e-05
7 *3778:B *125:23 0.000139933
8 *3778:B *272:14 7.67721e-05
9 *3842:A1 *3813:A2 5.83121e-06
10 *3842:A1 *3842:A2 0.000270415
11 *3842:A1 *128:34 5.74791e-05
12 *124:8 *128:34 1.17409e-05
13 *3781:A *124:8 3.1835e-05
*RES
1 *3777:X *124:8 5.77 
2 *124:8 *3842:A1 5.155 
3 *124:8 *3778:B 8.45 
*END

*D_NET *125 0.00158726
*CONN
*I *3804:A I *D sky130_fd_sc_hd__and4_1
*I *3835:A I *D sky130_fd_sc_hd__inv_2
*I *3812:A1 I *D sky130_fd_sc_hd__a31o_1
*I *3778:Y O *D sky130_fd_sc_hd__nor2_1
*CAP
1 *3804:A 8.12594e-06
2 *3835:A 0.000135606
3 *3812:A1 6.63226e-05
4 *3778:Y 6.26579e-05
5 *125:23 0.000246424
6 *125:6 0.000231673
7 *3804:A *3804:B 3.74161e-05
8 *3804:A *3840:A2 4.82919e-05
9 *3812:A1 *3812:B1 1.16578e-05
10 *3835:A *3804:B 4.66108e-05
11 *3835:A *3804:D 4.66108e-05
12 *3835:A *3837:A2 5.05437e-05
13 *3835:A *3840:A2 4.66108e-05
14 *3835:A *151:10 2.49909e-05
15 *125:6 *3812:B1 4.21973e-05
16 *125:23 *3840:A2 0.000291365
17 *125:23 *128:34 5.02217e-05
18 *125:23 *272:14 0
19 *3778:A *3812:A1 0
20 *3778:B *125:23 0.000139933
*RES
1 *3778:Y *125:6 2.395 
2 *125:6 *3812:A1 2.77 
3 *125:6 *125:23 7.42 
4 *125:23 *3835:A 4.12 
5 *125:23 *3804:A 2.05 
*END

*D_NET *126 0.000961703
*CONN
*I *3780:B I *D sky130_fd_sc_hd__nor2_1
*I *3779:Y O *D sky130_fd_sc_hd__a21oi_1
*CAP
1 *3780:B 0.0002717
2 *3779:Y 0.0002717
3 *3780:B *266:22 0.000139238
4 *3780:B *279:35 5.85534e-05
5 *3746:A *3780:B 2.16917e-05
6 *3746:B *3780:B 4.82863e-05
7 *3779:B1 *3780:B 7.60965e-05
8 *91:12 *3780:B 7.44375e-05
*RES
1 *3779:Y *3780:B 12.15 
*END

*D_NET *127 0.00204818
*CONN
*I *3781:B I *D sky130_fd_sc_hd__xor2_2
*I *3811:B1 I *D sky130_fd_sc_hd__o21a_1
*I *3780:Y O *D sky130_fd_sc_hd__nor2_1
*CAP
1 *3781:B 8.48112e-05
2 *3811:B1 4.64797e-05
3 *3780:Y 0.000360217
4 *127:14 0.000491508
5 *3781:B *132:29 0.00022921
6 *3781:B *245:98 4.84393e-05
7 *127:14 *3785:A 4.72328e-05
8 *127:14 *263:23 9.20028e-05
9 *127:14 *263:42 0.000332114
10 *127:14 *266:22 0
11 *3778:A *3811:B1 1.65432e-05
12 *3811:A1 *127:14 0.000121437
13 *3839:A_N *3781:B 0.000139245
14 *108:14 *3811:B1 0
15 *108:14 *127:14 9.53428e-06
16 *123:6 *127:14 7.68414e-06
17 *123:8 *3811:B1 1.03323e-05
18 *123:8 *127:14 1.1392e-05
*RES
1 *3780:Y *127:14 12.74 
2 *127:14 *3811:B1 2.41 
3 *127:14 *3781:B 6.655 
*END

*D_NET *128 0.0021859
*CONN
*I *3839:B I *D sky130_fd_sc_hd__and2b_1
*I *3804:B I *D sky130_fd_sc_hd__and4_1
*I *3812:A2 I *D sky130_fd_sc_hd__a31o_1
*I *3842:A2 I *D sky130_fd_sc_hd__o21ba_1
*I *3781:X O *D sky130_fd_sc_hd__xor2_2
*CAP
1 *3839:B 7.94051e-05
2 *3804:B 6.98464e-05
3 *3812:A2 5.34855e-05
4 *3842:A2 0.000192074
5 *3781:X 0
6 *128:34 0.000336619
7 *128:4 0.000432927
8 *3804:B *3840:A2 2.05056e-05
9 *3812:A2 *3840:A1 9.50342e-06
10 *3812:A2 *3840:A2 0.000208477
11 *3812:A2 *157:39 0.000208477
12 *3839:B *3840:A2 5.83121e-06
13 *3842:A2 *3813:A2 3.09088e-05
14 *3842:A2 *177:16 1.37328e-05
15 *128:34 *272:14 5.02217e-05
16 *3804:A *3804:B 3.74161e-05
17 *3835:A *3804:B 4.66108e-05
18 *3842:A1 *3842:A2 0.000270415
19 *3842:A1 *128:34 5.74791e-05
20 *124:8 *128:34 1.17409e-05
21 *125:23 *128:34 5.02217e-05
*RES
1 *3781:X *128:4 1.6 
2 *128:4 *3842:A2 5.17 
3 *128:4 *3812:A2 8 
4 *128:4 *128:34 6.97 
5 *128:34 *3804:B 2.74 
6 *128:34 *3839:B 2.92 
*END

*D_NET *129 0.00386118
*CONN
*I *3790:A I *D sky130_fd_sc_hd__and3_1
*I *3791:A1 I *D sky130_fd_sc_hd__a21oi_1
*I *3782:Y O *D sky130_fd_sc_hd__nand3_1
*CAP
1 *3790:A 0
2 *3791:A1 0.000107921
3 *3782:Y 0.00144523
4 *129:18 0.00155315
5 *3791:A1 *3790:C 9.28108e-05
6 *3791:A1 *3791:A2 0.000237243
7 *3791:A1 *3791:B1 2.0514e-05
8 *129:18 *3796:B 0.000331675
9 *129:18 *144:8 9.82856e-06
10 *129:18 *296:16 0
11 *129:18 *296:141 6.28008e-05
*RES
1 *3782:Y *129:18 10.1185 
2 *129:18 *3791:A1 4.12 
3 *129:18 *3790:A 1.6 
*END

*D_NET *130 0.00133403
*CONN
*I *3786:A1 I *D sky130_fd_sc_hd__a21o_1
*I *3787:A I *D sky130_fd_sc_hd__and3_1
*I *3783:Y O *D sky130_fd_sc_hd__nand3_1
*CAP
1 *3786:A1 0.000199813
2 *3787:A 0
3 *3783:Y 0.000114199
4 *130:10 0.000314012
5 *3786:A1 *3787:C 0.000143961
6 *3786:A1 *136:14 3.08989e-05
7 *130:10 *266:20 0.000260126
8 *3783:A *130:10 0.000177946
9 *116:10 *130:10 9.30717e-05
*RES
1 *3783:Y *130:10 8.765 
2 *130:10 *3787:A 1.6 
3 *130:10 *3786:A1 4.135 
*END

*D_NET *131 0.00109553
*CONN
*I *3786:A2 I *D sky130_fd_sc_hd__a21o_1
*I *3787:B I *D sky130_fd_sc_hd__and3_1
*I *3784:X O *D sky130_fd_sc_hd__a21o_1
*CAP
1 *3786:A2 0
2 *3787:B 0.000116905
3 *3784:X 0.000268598
4 *131:22 0.000385503
5 *3787:B *3787:C 2.86752e-05
6 *3787:B *136:14 4.82863e-05
7 *131:22 *3787:C 4.82919e-05
8 *131:22 *3796:B 3.82728e-05
9 *131:22 *3797:A 4.43871e-06
10 *131:22 *132:29 8.53113e-06
11 *131:22 *134:8 6.96499e-05
12 *131:22 *245:98 3.17709e-05
13 *131:22 *272:14 0
14 *131:22 *296:141 4.66108e-05
*RES
1 *3784:X *131:22 10.265 
2 *131:22 *3787:B 3.715 
3 *131:22 *3786:A2 1.6 
*END

*D_NET *132 0.00394941
*CONN
*I *3787:C I *D sky130_fd_sc_hd__and3_1
*I *3786:B1 I *D sky130_fd_sc_hd__a21o_1
*I *3792:A I *D sky130_fd_sc_hd__inv_2
*I *3785:X O *D sky130_fd_sc_hd__and4_1
*CAP
1 *3787:C 8.45266e-05
2 *3786:B1 3.00522e-05
3 *3792:A 0.000202786
4 *3785:X 5.8539e-05
5 *132:29 0.000579732
6 *132:8 0.000726478
7 *3787:C *136:14 1.83267e-05
8 *3792:A *139:6 8.40213e-05
9 *3792:A *213:42 0.000134932
10 *3792:A *213:51 1.01687e-05
11 *3792:A *245:92 0.00013521
12 *3792:A *272:14 0.000132842
13 *132:8 *213:42 9.53428e-06
14 *132:8 *213:51 8.65961e-05
15 *132:29 *3768:B1 0.000139245
16 *132:29 *3768:B2 2.42236e-05
17 *132:29 *3769:B 7.06865e-05
18 *132:29 *3794:A 2.7881e-05
19 *132:29 *134:8 2.96297e-05
20 *132:29 *140:10 0.000134516
21 *132:29 *245:92 2.97291e-05
22 *132:29 *245:98 0.000219254
23 *132:29 *267:59 0.000379391
24 *132:29 *267:68 5.55694e-05
25 *132:29 *274:29 1.1561e-05
26 *3781:B *132:29 0.00022921
27 *3786:A1 *3787:C 0.000143961
28 *3787:B *3787:C 2.86752e-05
29 *3839:A_N *132:29 7.53115e-05
30 *115:14 *132:29 0
31 *116:10 *132:29 0
32 *131:22 *3787:C 4.82919e-05
33 *131:22 *132:29 8.53113e-06
*RES
1 *3785:X *132:8 2.755 
2 *132:8 *3792:A 9.515 
3 *132:8 *132:29 17.875 
4 *132:29 *3786:B1 2.05 
5 *132:29 *3787:C 3.67 
*END

*D_NET *133 0.00157302
*CONN
*I *3796:B I *D sky130_fd_sc_hd__and2b_1
*I *3788:A3 I *D sky130_fd_sc_hd__a31o_1
*I *3786:X O *D sky130_fd_sc_hd__a21o_1
*CAP
1 *3796:B 0.000246141
2 *3788:A3 0
3 *3786:X 0.000201833
4 *133:10 0.000447974
5 *3796:B *3796:A_N 2.23922e-05
6 *3796:B *3797:A 3.09451e-05
7 *3796:B *134:8 0.000100428
8 *3796:B *144:8 0
9 *3796:B *272:14 1.92979e-05
10 *133:10 *272:14 0.000134058
11 *129:18 *3796:B 0.000331675
12 *131:22 *3796:B 3.82728e-05
*RES
1 *3786:X *133:10 6.375 
2 *133:10 *3788:A3 3.6 
3 *133:10 *3796:B 6.84413 
*END

*D_NET *134 0.0017355
*CONN
*I *3796:A_N I *D sky130_fd_sc_hd__and2b_1
*I *3788:B1 I *D sky130_fd_sc_hd__a31o_1
*I *3787:X O *D sky130_fd_sc_hd__and3_1
*CAP
1 *3796:A_N 0.000104037
2 *3788:B1 0.00026682
3 *3787:X 0.000168482
4 *134:8 0.000539339
5 *3788:B1 *3795:A 1.85317e-05
6 *3788:B1 *3797:A 7.06865e-05
7 *3788:B1 *3797:B 6.97118e-05
8 *3788:B1 *272:14 2.87867e-05
9 *3796:A_N *3797:A 0
10 *3796:A_N *266:20 0
11 *134:8 *136:14 0.00013687
12 *3783:A *3796:A_N 1.46278e-05
13 *3783:A *134:8 4.92192e-05
14 *3796:B *3796:A_N 2.23922e-05
15 *3796:B *134:8 0.000100428
16 *115:14 *134:8 4.62877e-05
17 *131:22 *134:8 6.96499e-05
18 *132:29 *134:8 2.96297e-05
*RES
1 *3787:X *134:8 7.785 
2 *134:8 *3788:B1 11.365 
3 *134:8 *3796:A_N 5.355 
*END

*D_NET *135 0.000848187
*CONN
*I *3790:B I *D sky130_fd_sc_hd__and3_1
*I *3791:B1 I *D sky130_fd_sc_hd__a21oi_1
*I *3788:X O *D sky130_fd_sc_hd__a31o_1
*CAP
1 *3790:B 0
2 *3791:B1 0.000162902
3 *3788:X 0.000120073
4 *135:6 0.000282975
5 *3791:B1 *3791:A2 0.000163199
6 *3791:B1 *138:10 5.05437e-05
7 *135:6 *3791:A2 4.29198e-05
8 *135:6 *136:14 5.062e-06
9 *3791:A1 *3791:B1 2.0514e-05
*RES
1 *3788:X *135:6 3.085 
2 *135:6 *3791:B1 5.095 
3 *135:6 *3790:B 1.6 
*END

*D_NET *136 0.00296023
*CONN
*I *3791:A2 I *D sky130_fd_sc_hd__a21oi_1
*I *3790:C I *D sky130_fd_sc_hd__and3_1
*I *3789:X O *D sky130_fd_sc_hd__a21o_1
*CAP
1 *3791:A2 8.57975e-05
2 *3790:C 8.69206e-05
3 *3789:X 0.000714333
4 *136:14 0.000887051
5 *136:14 *3788:A2 0.000234685
6 *136:14 *296:141 2.97373e-05
7 *3784:B1 *136:14 1.08758e-05
8 *3786:A1 *136:14 3.08989e-05
9 *3787:B *136:14 4.82863e-05
10 *3787:C *136:14 1.83267e-05
11 *3791:A1 *3790:C 9.28108e-05
12 *3791:A1 *3791:A2 0.000237243
13 *3791:B1 *3791:A2 0.000163199
14 *115:14 *136:14 0.00013521
15 *134:8 *136:14 0.00013687
16 *135:6 *3791:A2 4.29198e-05
17 *135:6 *136:14 5.062e-06
*RES
1 *3789:X *136:14 16.415 
2 *136:14 *3790:C 2.8 
3 *136:14 *3791:A2 4.735 
*END

*D_NET *137 0.00243271
*CONN
*I *3798:A_N I *D sky130_fd_sc_hd__and4bb_1
*I *3810:A1 I *D sky130_fd_sc_hd__o21a_1
*I *3799:B1 I *D sky130_fd_sc_hd__o2bb2a_1
*I *3803:A I *D sky130_fd_sc_hd__xor2_1
*I *3790:X O *D sky130_fd_sc_hd__and3_1
*CAP
1 *3798:A_N 5.22868e-05
2 *3810:A1 0
3 *3799:B1 0
4 *3803:A 0.000160789
5 *3790:X 6.42322e-05
6 *137:16 0.000196319
7 *137:12 0.000104694
8 *137:8 0.000185683
9 *3798:A_N *3798:C 0.000200615
10 *3798:A_N *3798:D 1.4389e-05
11 *3798:A_N *145:14 0.000275548
12 *3803:A *3799:A1_N 0.000136048
13 *3803:A *3803:B 0.000114614
14 *3803:A *144:16 0.000201508
15 *3803:A *144:26 0.000308724
16 *3803:A *146:14 7.69103e-06
17 *137:8 *3799:B2 1.44259e-05
18 *137:8 *138:10 4.7043e-05
19 *137:8 *144:8 3.4222e-05
20 *137:8 *144:16 5.55344e-05
21 *137:12 *3799:B2 3.39064e-05
22 *137:12 *3810:A2 7.23533e-05
23 *137:12 *144:16 3.31282e-05
24 *137:12 *146:14 0
25 *137:16 *3803:B 8.65905e-05
26 *137:16 *144:16 3.23663e-05
*RES
1 *3790:X *137:8 5.49 
2 *137:8 *137:12 3.635 
3 *137:12 *137:16 1.155 
4 *137:16 *3803:A 7.36 
5 *137:16 *3799:B1 1.6 
6 *137:12 *3810:A1 1.6 
7 *137:8 *3798:A_N 6.12 
*END

*D_NET *138 0.00109076
*CONN
*I *3798:B_N I *D sky130_fd_sc_hd__and4bb_1
*I *3799:B2 I *D sky130_fd_sc_hd__o2bb2a_1
*I *3791:Y O *D sky130_fd_sc_hd__a21oi_1
*CAP
1 *3798:B_N 8.54857e-05
2 *3799:B2 9.42994e-05
3 *3791:Y 0.000211038
4 *138:10 0.000390823
5 *3798:B_N *3798:C 0.000163199
6 *3799:B2 *3798:C 0
7 *138:10 *144:8 0
8 *3791:B1 *138:10 5.05437e-05
9 *137:8 *3799:B2 1.44259e-05
10 *137:8 *138:10 4.7043e-05
11 *137:12 *3799:B2 3.39064e-05
*RES
1 *3791:Y *138:10 7.05 
2 *138:10 *3799:B2 5.235 
3 *138:10 *3798:B_N 5.445 
*END

*D_NET *139 0.000973015
*CONN
*I *3794:C I *D sky130_fd_sc_hd__and4_2
*I *3806:B1 I *D sky130_fd_sc_hd__a22o_1
*I *3792:Y O *D sky130_fd_sc_hd__inv_2
*CAP
1 *3794:C 9.10332e-05
2 *3806:B1 1.84179e-05
3 *3792:Y 7.65448e-05
4 *139:6 0.000185996
5 *3794:C *3794:A 0.000108098
6 *3794:C *3794:D 8.5002e-05
7 *3794:C *3806:A2 2.67184e-05
8 *3794:C *141:14 6.00111e-05
9 *3806:B1 *3794:D 5.4155e-06
10 *3806:B1 *3806:A2 4.14666e-06
11 *139:6 *3794:A 4.82919e-05
12 *139:6 *3806:A2 3.97257e-05
13 *139:6 *141:14 5.30022e-05
14 *139:6 *153:20 8.65905e-05
15 *3792:A *139:6 8.40213e-05
*RES
1 *3792:Y *139:6 3.775 
2 *139:6 *3806:B1 1.96 
3 *139:6 *3794:C 4.135 
*END

*D_NET *140 0.000812945
*CONN
*I *3794:D I *D sky130_fd_sc_hd__and4_2
*I *3806:B2 I *D sky130_fd_sc_hd__a22o_1
*I *3793:X O *D sky130_fd_sc_hd__a22o_1
*CAP
1 *3794:D 7.17521e-05
2 *3806:B2 0
3 *3793:X 4.7757e-05
4 *140:10 0.000119509
5 *3794:D *3806:A2 0.000123762
6 *3794:D *141:14 1.33293e-05
7 *3794:D *212:88 7.57202e-05
8 *140:10 *267:59 0.000136182
9 *3794:C *3794:D 8.5002e-05
10 *3806:B1 *3794:D 5.4155e-06
11 *132:29 *140:10 0.000134516
*RES
1 *3793:X *140:10 7.235 
2 *140:10 *3806:B2 1.6 
3 *140:10 *3794:D 3.79 
*END

*D_NET *141 0.00815089
*CONN
*I *3798:C I *D sky130_fd_sc_hd__and4bb_1
*I *3799:A1_N I *D sky130_fd_sc_hd__o2bb2a_1
*I *3805:A I *D sky130_fd_sc_hd__inv_2
*I *3829:A I *D sky130_fd_sc_hd__nor2_1
*I *3794:X O *D sky130_fd_sc_hd__and4_2
*CAP
1 *3798:C 0.00023736
2 *3799:A1_N 3.27132e-05
3 *3805:A 3.36214e-05
4 *3829:A 0.000326507
5 *3794:X 0.000974639
6 *141:44 0.000565991
7 *141:16 0.000545213
8 *141:14 0.00145564
9 *3798:C *145:14 0.000147749
10 *3798:C *146:14 0
11 *3798:C *150:10 1.52184e-05
12 *3799:A1_N *3803:B 3.54109e-05
13 *3799:A1_N *146:14 3.57413e-05
14 *3805:A *3853:B1 5.4155e-06
15 *3829:A *3808:B 0.000203178
16 *3829:A *3829:B 3.293e-05
17 *3829:A *3830:B 5.37018e-05
18 *3829:A *3852:A 0.000160641
19 *3829:A *3853:B1 0.000111277
20 *3829:A *3854:A1 4.99619e-05
21 *3829:A *3854:B1 4.80285e-05
22 *3829:A *154:25 2.18022e-05
23 *3829:A *280:16 0.000187409
24 *141:14 *3794:A 0.00015806
25 *141:14 *3813:B1 0.000119756
26 *141:14 *3831:A 0.00013521
27 *141:14 *3840:B1 0.000199727
28 *141:14 *3844:C 6.96076e-05
29 *141:14 *3844:D_N 2.49909e-05
30 *141:14 *151:10 4.14369e-05
31 *141:14 *153:20 0.000429658
32 *141:14 *212:88 8.88108e-06
33 *141:16 *3808:B 0.000201503
34 *141:16 *3844:C 4.9253e-06
35 *141:16 *3853:A1 2.20732e-05
36 *141:16 *3853:B1 2.96334e-05
37 *141:44 *3813:A2 0
38 *141:44 *3831:C 8.09021e-06
39 *141:44 *3843:B1 0.000139245
40 *141:44 *3843:C1 0.000309722
41 *141:44 *3844:B 0.000187656
42 *141:44 *145:14 7.81221e-05
43 *141:44 *150:10 7.62393e-05
44 *141:44 *177:16 0
45 *3794:C *141:14 6.00111e-05
46 *3794:D *141:14 1.33293e-05
47 *3798:A_N *3798:C 0.000200615
48 *3798:B_N *3798:C 0.000163199
49 *3799:B2 *3798:C 0
50 *3803:A *3799:A1_N 0.000136048
51 *139:6 *141:14 5.30022e-05
*RES
1 *3794:X *141:14 20.36 
2 *141:14 *141:16 3.555 
3 *141:16 *3829:A 14.24 
4 *141:16 *3805:A 2.215 
5 *141:14 *141:44 9.755 
6 *141:44 *3799:A1_N 4.86375 
7 *141:44 *3798:C 8.955 
*END

*D_NET *142 0.000491313
*CONN
*I *3797:A I *D sky130_fd_sc_hd__xnor2_2
*I *3795:Y O *D sky130_fd_sc_hd__nand2_1
*CAP
1 *3797:A 0.000160963
2 *3795:Y 0.000160963
3 *3797:A *3788:A2 1.14914e-05
4 *3797:A *3795:A 3.53993e-06
5 *3797:A *3797:B 4.82863e-05
6 *3797:A *272:14 0
7 *3788:B1 *3797:A 7.06865e-05
8 *3796:A_N *3797:A 0
9 *3796:B *3797:A 3.09451e-05
10 *131:22 *3797:A 4.43871e-06
*RES
1 *3795:Y *3797:A 10.08 
*END

*D_NET *143 0.000208679
*CONN
*I *3797:B I *D sky130_fd_sc_hd__xnor2_2
*I *3796:X O *D sky130_fd_sc_hd__and2b_1
*CAP
1 *3797:B 4.53404e-05
2 *3796:X 4.53404e-05
3 *3788:B1 *3797:B 6.97118e-05
4 *3797:A *3797:B 4.82863e-05
*RES
1 *3796:X *3797:B 4.34 
*END

*D_NET *144 0.00423658
*CONN
*I *3798:D I *D sky130_fd_sc_hd__and4bb_1
*I *3799:A2_N I *D sky130_fd_sc_hd__o2bb2a_1
*I *3809:A I *D sky130_fd_sc_hd__and2_1
*I *3830:A I *D sky130_fd_sc_hd__xnor2_1
*I *3797:Y O *D sky130_fd_sc_hd__xnor2_2
*CAP
1 *3798:D 0.000108264
2 *3799:A2_N 0
3 *3809:A 0
4 *3830:A 9.31039e-05
5 *3797:Y 0.000231683
6 *144:26 0.000753888
7 *144:16 0.00105315
8 *144:8 0.000732311
9 *3798:D *145:14 3.1562e-06
10 *3830:A *3809:B 0.000127746
11 *3830:A *3829:B 8.49205e-05
12 *3830:A *3830:B 0
13 *3830:A *177:16 2.30292e-05
14 *144:8 *272:14 0
15 *144:16 *3803:B 2.66586e-05
16 *144:16 *3810:A2 7.23533e-05
17 *144:16 *146:14 0
18 *144:16 *149:14 1.43521e-05
19 *144:16 *272:14 0
20 *144:26 *3809:B 4.60584e-05
21 *144:26 *3841:B1 0
22 *144:26 *145:14 0
23 *144:26 *177:16 0.000124895
24 *144:26 *213:8 0
25 *144:26 *274:12 5.13155e-05
26 *144:26 *280:16 0
27 *3796:B *144:8 0
28 *3798:A_N *3798:D 1.4389e-05
29 *3803:A *144:16 0.000201508
30 *3803:A *144:26 0.000308724
31 *129:18 *144:8 9.82856e-06
32 *137:8 *144:8 3.4222e-05
33 *137:8 *144:16 5.55344e-05
34 *137:12 *144:16 3.31282e-05
35 *137:16 *144:16 3.23663e-05
36 *138:10 *144:8 0
*RES
1 *3797:Y *144:8 7.02 
2 *144:8 *144:16 8.735 
3 *144:16 *144:26 13.84 
4 *144:26 *3830:A 3.79 
5 *144:26 *3809:A 1.6 
6 *144:16 *3799:A2_N 1.6 
7 *144:8 *3798:D 4.74 
*END

*D_NET *145 0.00333055
*CONN
*I *3810:A2 I *D sky130_fd_sc_hd__o21a_1
*I *3800:A I *D sky130_fd_sc_hd__nor2_1
*I *3837:A1 I *D sky130_fd_sc_hd__o221a_1
*I *3798:X O *D sky130_fd_sc_hd__and4bb_1
*CAP
1 *3810:A2 2.36145e-05
2 *3800:A 8.42859e-05
3 *3837:A1 0.000158418
4 *3798:X 0
5 *145:14 0.000906441
6 *145:4 0.000687352
7 *3800:A *3800:B 5.4155e-06
8 *3800:A *147:19 4.66108e-05
9 *3800:A *274:21 1.17309e-05
10 *3837:A1 *3837:A2 1.91597e-05
11 *3837:A1 *3837:B1 6.9303e-05
12 *3837:A1 *3837:B2 8.40213e-05
13 *3837:A1 *3837:C1 9.26268e-06
14 *3837:A1 *3841:A1 0.000165803
15 *3837:A1 *3841:B1 0.000123701
16 *3837:A1 *3843:B1 5.26865e-05
17 *3837:A1 *3843:C1 0.000114492
18 *3837:A1 *182:6 4.66108e-05
19 *145:14 *3841:B1 2.07184e-05
20 *145:14 *3843:C1 5.16418e-05
21 *145:14 *274:12 0
22 *3798:A_N *145:14 0.000275548
23 *3798:C *145:14 0.000147749
24 *3798:D *145:14 3.1562e-06
25 *137:12 *3810:A2 7.23533e-05
26 *141:44 *145:14 7.81221e-05
27 *144:16 *3810:A2 7.23533e-05
28 *144:26 *145:14 0
*RES
1 *3798:X *145:4 1.6 
2 *145:4 *145:14 11.765 
3 *145:14 *3837:A1 8.49 
4 *145:14 *3800:A 5.01 
5 *145:4 *3810:A2 6.47 
*END

*D_NET *146 0.00109619
*CONN
*I *3800:B I *D sky130_fd_sc_hd__nor2_1
*I *3843:A1 I *D sky130_fd_sc_hd__o211a_1
*I *3799:X O *D sky130_fd_sc_hd__o2bb2a_1
*CAP
1 *3800:B 8.10196e-05
2 *3843:A1 0
3 *3799:X 0.00016903
4 *146:14 0.000250049
5 *3800:B *147:19 0.000101022
6 *3800:B *274:21 0.000196381
7 *146:14 *3803:B 8.65905e-05
8 *146:14 *3838:B 2.0851e-06
9 *146:14 *147:19 4.99619e-05
10 *146:14 *150:10 9.06979e-05
11 *146:14 *157:14 0
12 *146:14 *274:21 2.05056e-05
13 *3798:C *146:14 0
14 *3799:A1_N *146:14 3.57413e-05
15 *3800:A *3800:B 5.4155e-06
16 *3803:A *146:14 7.69103e-06
17 *137:12 *146:14 0
18 *144:16 *146:14 0
*RES
1 *3799:X *146:14 9.245 
2 *146:14 *3843:A1 1.6 
3 *146:14 *3800:B 4.15 
*END

*D_NET *147 0.00192043
*CONN
*I *3804:C I *D sky130_fd_sc_hd__and4_1
*I *3838:A I *D sky130_fd_sc_hd__nor2_1
*I *3841:B1 I *D sky130_fd_sc_hd__o21ai_1
*I *3800:Y O *D sky130_fd_sc_hd__nor2_1
*CAP
1 *3804:C 0.000206573
2 *3838:A 2.14552e-05
3 *3841:B1 8.49303e-05
4 *3800:Y 0
5 *147:19 0.000397134
6 *147:4 0.000254036
7 *3804:C *3840:A2 5.33085e-05
8 *3804:C *157:14 0.000162325
9 *3804:C *272:14 0
10 *3804:C *274:21 7.89269e-05
11 *3841:B1 *3837:C1 7.54302e-06
12 *3841:B1 *3843:C1 1.34361e-05
13 *3841:B1 *177:16 1.0183e-05
14 *147:19 *3844:B 0.000199833
15 *147:19 *274:21 8.87273e-05
16 *3800:A *147:19 4.66108e-05
17 *3800:B *147:19 0.000101022
18 *3837:A1 *3841:B1 0.000123701
19 *144:26 *3841:B1 0
20 *145:14 *3841:B1 2.07184e-05
21 *146:14 *147:19 4.99619e-05
*RES
1 *3800:Y *147:4 1.6 
2 *147:4 *3841:B1 7.63625 
3 *147:4 *147:19 4.245 
4 *147:19 *3838:A 1.96 
5 *147:19 *3804:C 9.935 
*END

*D_NET *148 0.00022588
*CONN
*I *3802:B I *D sky130_fd_sc_hd__nor2_1
*I *3801:Y O *D sky130_fd_sc_hd__a21oi_1
*CAP
1 *3802:B 5.43369e-05
2 *3801:Y 5.43369e-05
3 *3802:B *149:14 1.16578e-05
4 *3801:B1 *3802:B 5.40741e-05
5 *122:10 *3802:B 5.14739e-05
*RES
1 *3801:Y *3802:B 4.715 
*END

*D_NET *149 0.00294898
*CONN
*I *3803:B I *D sky130_fd_sc_hd__xor2_1
*I *3810:B1 I *D sky130_fd_sc_hd__o21a_1
*I *3802:Y O *D sky130_fd_sc_hd__nor2_1
*CAP
1 *3803:B 0.000438582
2 *3810:B1 0
3 *3802:Y 0.000610221
4 *149:14 0.0010488
5 *149:14 *3769:D 3.00381e-05
6 *149:14 *157:14 0.000133486
7 *149:14 *263:42 8.18626e-05
8 *149:14 *272:14 0
9 *149:14 *274:21 8.11472e-05
10 *3799:A1_N *3803:B 3.54109e-05
11 *3802:B *149:14 1.16578e-05
12 *3803:A *3803:B 0.000114614
13 *116:10 *149:14 3.27443e-05
14 *122:10 *149:14 2.59926e-05
15 *122:16 *149:14 9.02259e-05
16 *137:16 *3803:B 8.65905e-05
17 *144:16 *3803:B 2.66586e-05
18 *144:16 *149:14 1.43521e-05
19 *146:14 *3803:B 8.65905e-05
*RES
1 *3802:Y *149:14 16.145 
2 *149:14 *3810:B1 1.6 
3 *149:14 *3803:B 9.025 
*END

*D_NET *150 0.00204195
*CONN
*I *3834:A I *D sky130_fd_sc_hd__inv_2
*I *3804:D I *D sky130_fd_sc_hd__and4_1
*I *3843:A2 I *D sky130_fd_sc_hd__o211a_1
*I *3803:X O *D sky130_fd_sc_hd__xor2_1
*CAP
1 *3834:A 0
2 *3804:D 0.000119568
3 *3843:A2 0
4 *3803:X 0.000127403
5 *150:27 0.000593774
6 *150:10 0.000601609
7 *3804:D *3837:A2 7.4027e-05
8 *3804:D *3837:B1 6.43623e-05
9 *3804:D *3838:B 0
10 *3804:D *157:14 0.000212841
11 *150:10 *3843:B1 9.50342e-06
12 *150:27 *157:14 1.00941e-05
13 *3798:C *150:10 1.52184e-05
14 *3835:A *3804:D 4.66108e-05
15 *141:44 *150:10 7.62393e-05
16 *146:14 *150:10 9.06979e-05
*RES
1 *3803:X *150:10 6.195 
2 *150:10 *3843:A2 3.6 
3 *150:10 *150:27 1.85317 
4 *150:27 *3804:D 6.705 
5 *150:27 *3834:A 3.6 
*END

*D_NET *151 0.0013589
*CONN
*I *3813:A1 I *D sky130_fd_sc_hd__a21o_1
*I *3831:A I *D sky130_fd_sc_hd__and3_1
*I *3804:X O *D sky130_fd_sc_hd__and4_1
*CAP
1 *3813:A1 4.54044e-05
2 *3831:A 9.08879e-05
3 *3804:X 0.000158319
4 *151:10 0.000294611
5 *3813:A1 *3813:A2 4.66108e-05
6 *3813:A1 *3813:B1 1.91597e-05
7 *3813:A1 *3844:C 8.63511e-05
8 *3831:A *3840:A1 1.65192e-05
9 *3831:A *3840:A2 0
10 *3831:A *3840:B1 4.82919e-05
11 *3831:A *3844:C 7.23533e-05
12 *151:10 *3837:B1 1.88904e-05
13 *151:10 *3840:A1 1.22676e-05
14 *151:10 *3840:B1 0.000142662
15 *151:10 *157:39 0.000104937
16 *3835:A *151:10 2.49909e-05
17 *141:14 *3831:A 0.00013521
18 *141:14 *151:10 4.14369e-05
*RES
1 *3804:X *151:10 7.725 
2 *151:10 *3831:A 5.685 
3 *151:10 *3813:A1 4.755 
*END

*D_NET *152 0.000811515
*CONN
*I *3853:A1 I *D sky130_fd_sc_hd__a21o_1
*I *3808:A I *D sky130_fd_sc_hd__and3_1
*I *3805:Y O *D sky130_fd_sc_hd__inv_2
*CAP
1 *3853:A1 0.000160847
2 *3808:A 7.19528e-05
3 *3805:Y 0
4 *152:4 0.0002328
5 *3808:A *3853:B1 8.79409e-05
6 *3853:A1 *3808:B 7.23533e-05
7 *3853:A1 *3853:B1 0.000163548
8 *141:16 *3853:A1 2.20732e-05
*RES
1 *3805:Y *152:4 1.6 
2 *152:4 *3808:A 2.755 
3 *152:4 *3853:A1 8.3 
*END

*D_NET *153 0.00314233
*CONN
*I *3853:A2 I *D sky130_fd_sc_hd__a21o_1
*I *3808:B I *D sky130_fd_sc_hd__and3_1
*I *3806:X O *D sky130_fd_sc_hd__a22o_1
*CAP
1 *3853:A2 0
2 *3808:B 0.000350702
3 *3806:X 0.000360001
4 *153:20 0.000710703
5 *3808:B *3831:C 0
6 *3808:B *3844:A 2.03321e-05
7 *3808:B *3845:A3 0.000120186
8 *3808:B *3853:B1 2.75451e-05
9 *153:20 *3828:A 1.63138e-05
10 *153:20 *3828:B 4.82863e-05
11 *153:20 *3831:B 4.60584e-05
12 *153:20 *3831:C 7.6999e-05
13 *153:20 *3833:A3 0.000200432
14 *153:20 *3840:A1 4.85494e-05
15 *153:20 *3840:B1 0.000122943
16 *3829:A *3808:B 0.000203178
17 *3853:A1 *3808:B 7.23533e-05
18 *139:6 *153:20 8.65905e-05
19 *141:14 *153:20 0.000429658
20 *141:16 *3808:B 0.000201503
*RES
1 *3806:X *153:20 12.085 
2 *153:20 *3808:B 11.81 
3 *153:20 *3853:A2 1.6 
*END

*D_NET *154 0.00185631
*CONN
*I *3853:B1 I *D sky130_fd_sc_hd__a21o_1
*I *3808:C I *D sky130_fd_sc_hd__and3_1
*I *3848:A I *D sky130_fd_sc_hd__inv_2
*I *3807:X O *D sky130_fd_sc_hd__and4_1
*CAP
1 *3853:B1 0.000175586
2 *3808:C 0
3 *3848:A 5.24628e-05
4 *3807:X 0
5 *154:25 0.000389206
6 *154:4 0.000266083
7 *3848:A *213:42 1.94548e-05
8 *3853:B1 *213:8 0
9 *154:25 *3850:A2 4.19513e-05
10 *154:25 *3850:B1 0.000140912
11 *154:25 *3854:A2 7.21296e-06
12 *154:25 *3854:B1 0.000173984
13 *154:25 *213:42 5.4155e-06
14 *154:25 *280:16 0.000136877
15 *3805:A *3853:B1 5.4155e-06
16 *3808:A *3853:B1 8.79409e-05
17 *3808:B *3853:B1 2.75451e-05
18 *3829:A *3853:B1 0.000111277
19 *3829:A *154:25 2.18022e-05
20 *3853:A1 *3853:B1 0.000163548
21 *141:16 *3853:B1 2.96334e-05
*RES
1 *3807:X *154:4 1.6 
2 *154:4 *3848:A 2.665 
3 *154:4 *154:25 9.055 
4 *154:25 *3808:C 1.6 
5 *154:25 *3853:B1 10.745 
*END

*D_NET *155 0.00254113
*CONN
*I *3809:B I *D sky130_fd_sc_hd__and2_1
*I *3829:B I *D sky130_fd_sc_hd__nor2_1
*I *3852:A I *D sky130_fd_sc_hd__inv_2
*I *3808:X O *D sky130_fd_sc_hd__and3_1
*CAP
1 *3809:B 0.000113919
2 *3829:B 0.000169531
3 *3852:A 0.000315311
4 *3808:X 0
5 *155:21 0.00036119
6 *155:4 0.000393051
7 *3809:B *3841:A1 0
8 *3829:B *3830:B 4.7101e-05
9 *3852:A *3847:B2 9.75182e-05
10 *3852:A *3854:A1 0.000165108
11 *155:21 *213:8 0.000273695
12 *155:21 *280:16 0.000152405
13 *3829:A *3829:B 3.293e-05
14 *3829:A *3852:A 0.000160641
15 *3830:A *3809:B 0.000127746
16 *3830:A *3829:B 8.49205e-05
17 *144:26 *3809:B 4.60584e-05
*RES
1 *3808:X *155:4 1.6 
2 *155:4 *3852:A 6.82 
3 *155:4 *155:21 7.165 
4 *155:21 *3829:B 4.48 
5 *155:21 *3809:B 3.79 
*END

*D_NET *156 0.00197171
*CONN
*I *3813:A2 I *D sky130_fd_sc_hd__a21o_1
*I *3836:A I *D sky130_fd_sc_hd__inv_2
*I *3809:X O *D sky130_fd_sc_hd__and2_1
*CAP
1 *3813:A2 0.000564005
2 *3836:A 0
3 *3809:X 1.96262e-05
4 *156:6 0.000583632
5 *3813:A2 *3813:B1 8.23457e-05
6 *3813:A2 *3831:C 2.49909e-05
7 *3813:A2 *3840:B1 0.000158297
8 *3813:A2 *3844:C 2.63322e-05
9 *3813:A2 *3844:D_N 6.23462e-05
10 *3813:A2 *177:16 0.000288455
11 *3813:A2 *183:6 4.82863e-05
12 *3813:A2 *213:8 0
13 *156:6 *177:16 3.00381e-05
14 *3813:A1 *3813:A2 4.66108e-05
15 *3842:A1 *3813:A2 5.83121e-06
16 *3842:A2 *3813:A2 3.09088e-05
17 *141:44 *3813:A2 0
*RES
1 *3809:X *156:6 2.05 
2 *156:6 *3836:A 1.6 
3 *156:6 *3813:A2 20.415 
*END

*D_NET *157 0.00341917
*CONN
*I *3812:A3 I *D sky130_fd_sc_hd__a31o_1
*I *3840:A1 I *D sky130_fd_sc_hd__o21a_1
*I *3837:B1 I *D sky130_fd_sc_hd__o221a_1
*I *3810:X O *D sky130_fd_sc_hd__o21a_1
*CAP
1 *3812:A3 0
2 *3840:A1 0.000156608
3 *3837:B1 0.000478797
4 *3810:X 0.000252525
5 *157:39 0.000250271
6 *157:14 0.000824984
7 *3837:B1 *3837:A2 8.26373e-05
8 *3837:B1 *3837:B2 2.16833e-05
9 *3837:B1 *3838:B 4.43871e-06
10 *3837:B1 *3843:B1 4.82919e-05
11 *3837:B1 *3844:D_N 4.1977e-05
12 *3840:A1 *3806:A2 0
13 *3840:A1 *3840:A2 7.53115e-05
14 *3840:A1 *3840:B1 1.16578e-05
15 *3840:A1 *3844:C 3.86529e-05
16 *157:14 *3840:A2 1.88337e-05
17 *157:14 *272:14 0
18 *157:39 *3840:A2 4.09479e-05
19 *3804:C *157:14 0.000162325
20 *3804:D *3837:B1 6.43623e-05
21 *3804:D *157:14 0.000212841
22 *3812:A2 *3840:A1 9.50342e-06
23 *3812:A2 *157:39 0.000208477
24 *3831:A *3840:A1 1.65192e-05
25 *3837:A1 *3837:B1 6.9303e-05
26 *146:14 *157:14 0
27 *149:14 *157:14 0.000133486
28 *150:27 *157:14 1.00941e-05
29 *151:10 *3837:B1 1.88904e-05
30 *151:10 *3840:A1 1.22676e-05
31 *151:10 *157:39 0.000104937
32 *153:20 *3840:A1 4.85494e-05
*RES
1 *3810:X *157:14 9.2625 
2 *157:14 *3837:B1 11.0925 
3 *157:14 *157:39 3.2925 
4 *157:39 *3840:A1 7.095 
5 *157:39 *3812:A3 3.6 
*END

*D_NET *158 0.000330897
*CONN
*I *3812:B1 I *D sky130_fd_sc_hd__a31o_1
*I *3811:X O *D sky130_fd_sc_hd__o21a_1
*CAP
1 *3812:B1 9.02288e-05
2 *3811:X 9.02288e-05
3 *3778:A *3812:B1 4.82919e-05
4 *3778:B *3812:B1 4.82919e-05
5 *3812:A1 *3812:B1 1.16578e-05
6 *125:6 *3812:B1 4.21973e-05
*RES
1 *3811:X *3812:B1 5.03 
*END

*D_NET *159 0.000446807
*CONN
*I *3813:B1 I *D sky130_fd_sc_hd__a21o_1
*I *3812:X O *D sky130_fd_sc_hd__a31o_1
*CAP
1 *3813:B1 9.52617e-05
2 *3812:X 9.52617e-05
3 *3813:B1 *3844:C 3.5022e-05
4 *3813:A1 *3813:B1 1.91597e-05
5 *3813:A2 *3813:B1 8.23457e-05
6 *141:14 *3813:B1 0.000119756
*RES
1 *3812:X *3813:B1 5.39 
*END

*D_NET *160 0.00080101
*CONN
*I *3828:B I *D sky130_fd_sc_hd__xnor2_1
*I *3815:A2 I *D sky130_fd_sc_hd__a21oi_1
*I *3813:X O *D sky130_fd_sc_hd__a21o_1
*CAP
1 *3828:B 9.73191e-06
2 *3815:A2 0.000149491
3 *3813:X 8.93522e-05
4 *160:8 0.000248575
5 *3815:A2 *3828:A 7.24184e-05
6 *3815:A2 *249:66 4.82863e-05
7 *3828:B *3833:A3 4.82863e-05
8 *160:8 *3828:A 7.21296e-06
9 *160:8 *3831:B 0
10 *160:8 *3831:C 7.23602e-05
11 *160:8 *3840:B1 0
12 *3815:A1 *3815:A2 7.00889e-06
13 *153:20 *3828:B 4.82863e-05
*RES
1 *3813:X *160:8 5.235 
2 *160:8 *3815:A2 6.195 
3 *160:8 *3828:B 4.05 
*END

*D_NET *161 0.000581301
*CONN
*I *3815:B1 I *D sky130_fd_sc_hd__a21oi_1
*I *3827:A I *D sky130_fd_sc_hd__or2b_1
*I *3814:X O *D sky130_fd_sc_hd__and2_1
*CAP
1 *3815:B1 6.19758e-05
2 *3827:A 6.32128e-05
3 *3814:X 6.5009e-05
4 *161:8 0.000190198
5 *3815:B1 *3828:A 0
6 *3827:A *3828:A 0
7 *3827:A *162:16 0
8 *161:8 *279:35 1.03423e-05
9 *3815:A1 *3815:B1 6.83447e-05
10 *3815:A1 *3827:A 5.39961e-05
11 *94:16 *3827:A 2.15738e-05
12 *95:16 *161:8 4.66486e-05
*RES
1 *3814:X *161:8 4.395 
2 *161:8 *3827:A 4.98 
3 *161:8 *3815:B1 4.725 
*END

*D_NET *162 0.0025668
*CONN
*I *3816:S I *D sky130_fd_sc_hd__mux2_1
*I *3826:A2 I *D sky130_fd_sc_hd__o211ai_1
*I *3815:Y O *D sky130_fd_sc_hd__a21oi_1
*CAP
1 *3816:S 2.31167e-05
2 *3826:A2 0
3 *3815:Y 0.00056903
4 *162:16 0.000592147
5 *3816:S *3826:C1 0.000122331
6 *162:16 *3826:C1 1.74557e-05
7 *162:16 *3828:A 0.000154272
8 *162:16 *3833:A1 2.88322e-05
9 *162:16 *3833:A3 1.31735e-05
10 *162:16 *3833:B1 3.64998e-06
11 *162:16 *3849:B1 8.17606e-05
12 *162:16 *163:8 0.000187501
13 *162:16 *173:12 0.0001249
14 *162:16 *179:39 0
15 *162:16 *213:42 0.000196376
16 *162:16 *249:66 0.000166716
17 *3816:A0 *3816:S 8.65961e-05
18 *3816:A0 *162:16 0.000198945
19 *3827:A *162:16 0
20 *94:16 *162:16 0
*RES
1 *3815:Y *162:16 18.515 
2 *162:16 *3826:A2 1.6 
3 *162:16 *3816:S 2.74 
*END

*D_NET *163 0.00193042
*CONN
*I *3833:A1 I *D sky130_fd_sc_hd__a31o_1
*I *3845:A1 I *D sky130_fd_sc_hd__o31a_1
*I *3816:X O *D sky130_fd_sc_hd__mux2_1
*CAP
1 *3833:A1 9.6185e-05
2 *3845:A1 0.000262776
3 *3816:X 0.000170556
4 *163:8 0.000529517
5 *3833:A1 *3831:B 0
6 *3833:A1 *3833:A3 9.50342e-06
7 *3833:A1 *3849:B1 6.03272e-05
8 *3833:A1 *179:39 0
9 *3833:A1 *249:66 3.23391e-05
10 *3845:A1 *3849:A1 0.000121437
11 *3845:A1 *3849:B1 0.000160635
12 *3845:A1 *173:12 0.000116158
13 *3845:A1 *245:33 6.55328e-05
14 *3845:A1 *279:35 9.27255e-06
15 *163:8 *3807:B 2.46007e-05
16 *163:8 *3849:B1 2.92496e-05
17 *163:8 *179:39 0
18 *163:8 *249:66 2.59981e-05
19 *162:16 *3833:A1 2.88322e-05
20 *162:16 *163:8 0.000187501
*RES
1 *3816:X *163:8 7.785 
2 *163:8 *3845:A1 11.845 
3 *163:8 *3833:A1 5.43 
*END

*D_NET *164 0.00123341
*CONN
*I *3819:A3 I *D sky130_fd_sc_hd__a31o_1
*I *3817:Y O *D sky130_fd_sc_hd__nand2_1
*CAP
1 *3819:A3 0.000372989
2 *3817:Y 0.000372989
3 *3819:A3 *3817:A 7.4027e-05
4 *3819:A3 *3832:B 0.000167925
5 *3819:A3 *179:10 3.07153e-05
6 *3832:A *3819:A3 1.83847e-05
7 *55:18 *3819:A3 0
8 *59:14 *3819:A3 2.33054e-05
9 *59:23 *3819:A3 0.00017307
*RES
1 *3817:Y *3819:A3 13.725 
*END

*D_NET *165 0.00228424
*CONN
*I *3819:B1 I *D sky130_fd_sc_hd__a31o_1
*I *3832:B I *D sky130_fd_sc_hd__and2_1
*I *3818:Y O *D sky130_fd_sc_hd__o21ai_1
*CAP
1 *3819:B1 1.85694e-05
2 *3832:B 0.000282558
3 *3818:Y 0.000124858
4 *165:6 0.000425986
5 *3832:B *246:25 4.66108e-05
6 *165:6 *217:27 3.83041e-05
7 *165:6 *217:43 4.82919e-05
8 *165:6 *246:25 0.000515721
9 *165:6 *246:42 4.82919e-05
10 *3713:B *3832:B 4.66108e-05
11 *3818:A2 *3819:B1 9.53428e-06
12 *3818:A2 *3832:B 4.66742e-05
13 *3818:A2 *165:6 0.000404758
14 *3819:A3 *3832:B 0.000167925
15 *3832:A *3832:B 4.82919e-05
16 *59:23 *3832:B 1.12578e-05
*RES
1 *3818:Y *165:6 6.88 
2 *165:6 *3832:B 6.805 
3 *165:6 *3819:B1 1.96 
*END

*D_NET *166 0.000510761
*CONN
*I *3820:S I *D sky130_fd_sc_hd__mux2_1
*I *3819:X O *D sky130_fd_sc_hd__a31o_1
*CAP
1 *3820:S 8.23516e-05
2 *3819:X 8.23516e-05
3 *3820:S *3712:A 0.000139238
4 *3820:S *3713:A 8.49205e-05
5 *3713:B *3820:S 5.13155e-05
6 *3817:B *3820:S 1.08758e-05
7 *55:10 *3820:S 2.8185e-05
8 *55:66 *3820:S 3.64998e-06
9 *58:8 *3820:S 2.78732e-05
*RES
1 *3819:X *3820:S 9.63 
*END

*D_NET *167 0.00172279
*CONN
*I *3825:B1 I *D sky130_fd_sc_hd__o22a_1
*I *3824:A I *D sky130_fd_sc_hd__nand2_1
*I *3820:X O *D sky130_fd_sc_hd__mux2_1
*CAP
1 *3825:B1 2.08101e-05
2 *3824:A 0.000109229
3 *3820:X 0.000309364
4 *167:8 0.000439403
5 *3824:A *3824:B 0.000403895
6 *167:8 *3824:B 3.66286e-05
7 *3734:A *3824:A 1.8731e-05
8 *3817:B *167:8 8.8266e-05
9 *3825:A2 *3824:A 0.000138799
10 *3825:A2 *3825:B1 0
11 *3825:A2 *167:8 4.0843e-05
12 *55:18 *167:8 1.85674e-05
13 *68:14 *167:8 8.49205e-05
14 *68:23 *3825:B1 0
15 *68:42 *3824:A 1.33293e-05
*RES
1 *3820:X *167:8 6.55 
2 *167:8 *3824:A 5.515 
3 *167:8 *3825:B1 1.96 
*END

*D_NET *168 0.00139285
*CONN
*I *3823:A0 I *D sky130_fd_sc_hd__mux2_1
*I *3822:B1 I *D sky130_fd_sc_hd__o21ai_1
*I *3821:Y O *D sky130_fd_sc_hd__nand2_1
*CAP
1 *3823:A0 6.48582e-05
2 *3822:B1 0
3 *3821:Y 0.000277242
4 *168:16 0.000342101
5 *3823:A0 *3823:A1 0.000160635
6 *3823:A0 *252:20 2.55587e-05
7 *3823:A0 *257:16 7.67345e-05
8 *168:16 *252:20 9.80943e-06
9 *168:16 *257:16 2.49909e-05
10 *3716:A *168:16 8.20055e-05
11 *3716:B *168:16 5.07844e-05
12 *3717:B *3823:A0 0
13 *3718:A *168:16 0.00016712
14 *55:26 *3823:A0 2.61183e-06
15 *61:20 *168:16 3.57349e-05
16 *63:12 *168:16 7.26588e-05
*RES
1 *3821:Y *168:16 10.64 
2 *168:16 *3822:B1 1.6 
3 *168:16 *3823:A0 3.79 
*END

*D_NET *169 0.000377216
*CONN
*I *3823:A1 I *D sky130_fd_sc_hd__mux2_1
*I *3822:Y O *D sky130_fd_sc_hd__o21ai_1
*CAP
1 *3823:A1 2.7135e-05
2 *3822:Y 2.7135e-05
3 *3823:A1 *252:20 0.000162311
4 *3823:A0 *3823:A1 0.000160635
*RES
1 *3822:Y *3823:A1 4.685 
*END

*D_NET *170 0.00262406
*CONN
*I *3825:B2 I *D sky130_fd_sc_hd__o22a_1
*I *3824:B I *D sky130_fd_sc_hd__nand2_1
*I *3823:X O *D sky130_fd_sc_hd__mux2_1
*CAP
1 *3825:B2 3.57002e-05
2 *3824:B 0.000380672
3 *3823:X 0.000320824
4 *170:14 0.000737197
5 *3825:B2 *179:39 0
6 *170:14 *3707:A 0
7 *170:14 *3719:A1 6.14983e-05
8 *170:14 *3720:B 5.28781e-05
9 *170:14 *3817:A 0
10 *170:14 *179:39 0
11 *170:14 *252:20 3.1835e-05
12 *170:14 *257:16 8.65961e-05
13 *3719:B1 *170:14 0.000227748
14 *3824:A *3824:B 0.000403895
15 *68:14 *3825:B2 5.16418e-05
16 *68:14 *170:14 0.000196946
17 *167:8 *3824:B 3.66286e-05
*RES
1 *3823:X *170:14 10.92 
2 *170:14 *3824:B 8.805 
3 *170:14 *3825:B2 4.215 
*END

*D_NET *171 0.000264555
*CONN
*I *3826:B1 I *D sky130_fd_sc_hd__o211ai_1
*I *3824:Y O *D sky130_fd_sc_hd__nand2_1
*CAP
1 *3826:B1 7.33613e-05
2 *3824:Y 7.33613e-05
3 *3826:B1 *214:25 0.000117832
*RES
1 *3824:Y *3826:B1 8.58 
*END

*D_NET *172 0.000892969
*CONN
*I *3826:C1 I *D sky130_fd_sc_hd__o211ai_1
*I *3825:X O *D sky130_fd_sc_hd__o22a_1
*CAP
1 *3826:C1 0.000306202
2 *3825:X 0.000306202
3 *3826:C1 *173:12 2.91987e-05
4 *3747:A *3826:C1 0
5 *3816:A0 *3826:C1 6.1357e-05
6 *3816:A1 *3826:C1 5.02217e-05
7 *3816:S *3826:C1 0.000122331
8 *162:16 *3826:C1 1.74557e-05
*RES
1 *3825:X *3826:C1 12.24 
*END

*D_NET *173 0.00212685
*CONN
*I *3833:A2 I *D sky130_fd_sc_hd__a31o_1
*I *3845:A2 I *D sky130_fd_sc_hd__o31a_1
*I *3826:Y O *D sky130_fd_sc_hd__o211ai_1
*CAP
1 *3833:A2 7.35647e-05
2 *3845:A2 0
3 *3826:Y 0.000351673
4 *173:12 0.000425238
5 *3833:A2 *3833:B1 0.000112622
6 *3833:A2 *3845:A3 0.00012657
7 *3833:A2 *179:39 5.54327e-05
8 *3833:A2 *180:16 1.74083e-05
9 *3833:A2 *213:42 9.29046e-05
10 *173:12 *179:39 0.000464196
11 *173:12 *245:33 8.09021e-06
12 *173:12 *245:37 0.000128892
13 *3826:C1 *173:12 2.91987e-05
14 *3845:A1 *173:12 0.000116158
15 *162:16 *173:12 0.0001249
*RES
1 *3826:Y *173:12 13.235 
2 *173:12 *3845:A2 1.6 
3 *173:12 *3833:A2 4.48 
*END

*D_NET *174 0.00081072
*CONN
*I *3828:A I *D sky130_fd_sc_hd__xnor2_1
*I *3827:X O *D sky130_fd_sc_hd__or2b_1
*CAP
1 *3828:A 0.000251466
2 *3827:X 0.000251466
3 *3828:A *3831:B 3.86607e-05
4 *3828:A *3833:A3 1.89097e-05
5 *3815:A2 *3828:A 7.24184e-05
6 *3815:B1 *3828:A 0
7 *3827:A *3828:A 0
8 *153:20 *3828:A 1.63138e-05
9 *160:8 *3828:A 7.21296e-06
10 *162:16 *3828:A 0.000154272
*RES
1 *3827:X *3828:A 11.5875 
*END

*D_NET *175 0.00114853
*CONN
*I *3831:B I *D sky130_fd_sc_hd__and3_1
*I *3844:A I *D sky130_fd_sc_hd__or4b_1
*I *3828:Y O *D sky130_fd_sc_hd__xnor2_1
*CAP
1 *3831:B 0.000282822
2 *3844:A 6.9081e-05
3 *3828:Y 0
4 *175:6 0.000351903
5 *3831:B *3831:C 0
6 *3831:B *3833:A3 0.000265602
7 *3831:B *3845:A3 3.35338e-05
8 *3844:A *3831:C 0
9 *3844:A *3845:A3 4.05358e-05
10 *3808:B *3844:A 2.03321e-05
11 *3828:A *3831:B 3.86607e-05
12 *3833:A1 *3831:B 0
13 *153:20 *3831:B 4.60584e-05
14 *160:8 *3831:B 0
*RES
1 *3828:Y *175:6 3.6 
2 *175:6 *3844:A 4.98 
3 *175:6 *3831:B 8.295 
*END

*D_NET *176 0.000300796
*CONN
*I *3830:B I *D sky130_fd_sc_hd__xnor2_1
*I *3829:Y O *D sky130_fd_sc_hd__nor2_1
*CAP
1 *3830:B 9.99964e-05
2 *3829:Y 9.99964e-05
3 *3829:A *3830:B 5.37018e-05
4 *3829:B *3830:B 4.7101e-05
5 *3830:A *3830:B 0
*RES
1 *3829:Y *3830:B 5.045 
*END

*D_NET *177 0.00256484
*CONN
*I *3831:C I *D sky130_fd_sc_hd__and3_1
*I *3842:B1_N I *D sky130_fd_sc_hd__o21ba_1
*I *3830:Y O *D sky130_fd_sc_hd__xnor2_1
*CAP
1 *3831:C 0.000264651
2 *3842:B1_N 0
3 *3830:Y 0.000442084
4 *177:16 0.000706736
5 *3831:C *3840:B1 0
6 *3831:C *3844:B 0.000139245
7 *3831:C *3844:D_N 0.00020447
8 *177:16 *3843:C1 4.82863e-05
9 *177:16 *183:6 8.65905e-05
10 *177:16 *213:8 0
11 *3808:B *3831:C 0
12 *3813:A2 *3831:C 2.49909e-05
13 *3813:A2 *177:16 0.000288455
14 *3830:A *177:16 2.30292e-05
15 *3831:B *3831:C 0
16 *3841:B1 *177:16 1.0183e-05
17 *3842:A2 *177:16 1.37328e-05
18 *3844:A *3831:C 0
19 *141:44 *3831:C 8.09021e-06
20 *141:44 *177:16 0
21 *144:26 *177:16 0.000124895
22 *153:20 *3831:C 7.6999e-05
23 *156:6 *177:16 3.00381e-05
24 *160:8 *3831:C 7.23602e-05
*RES
1 *3830:Y *177:16 14.18 
2 *177:16 *3842:B1_N 1.6 
3 *177:16 *3831:C 11.1125 
*END

*D_NET *178 0.000944628
*CONN
*I *3833:A3 I *D sky130_fd_sc_hd__a31o_1
*I *3831:X O *D sky130_fd_sc_hd__and3_1
*CAP
1 *3833:A3 0.000163638
2 *3831:X 0.000163638
3 *3833:A3 *3845:A3 6.14445e-05
4 *3833:A3 *245:33 0
5 *3828:A *3833:A3 1.89097e-05
6 *3828:B *3833:A3 4.82863e-05
7 *3831:B *3833:A3 0.000265602
8 *3833:A1 *3833:A3 9.50342e-06
9 *153:20 *3833:A3 0.000200432
10 *162:16 *3833:A3 1.31735e-05
*RES
1 *3831:X *3833:A3 11.61 
*END

*D_NET *179 0.00576
*CONN
*I *3845:B1 I *D sky130_fd_sc_hd__o31a_1
*I *3833:B1 I *D sky130_fd_sc_hd__a31o_1
*I *3856:C I *D sky130_fd_sc_hd__or3_1
*I *3832:X O *D sky130_fd_sc_hd__and2_1
*CAP
1 *3845:B1 3.68512e-06
2 *3833:B1 8.47269e-05
3 *3856:C 0.000771689
4 *3832:X 0.000303118
5 *179:39 0.000623908
6 *179:10 0.0016103
7 *3833:B1 *180:16 8.8266e-05
8 *3833:B1 *213:42 1.9415e-05
9 *3833:B1 *249:66 0.000191654
10 *3856:C *3690:A 0
11 *3856:C *3691:B1_N 9.188e-05
12 *3856:C *3731:A1 2.8585e-06
13 *3856:C *3731:B1 2.92147e-05
14 *3856:C *3856:B 2.09263e-05
15 *3856:C *3857:A1 0
16 *3856:C *211:73 0
17 *3856:C *214:25 6.86819e-05
18 *179:39 *3707:A 9.61414e-05
19 *179:39 *3807:B 2.46089e-05
20 *179:39 *180:16 2.22004e-05
21 *179:39 *214:25 0
22 *179:39 *245:37 0
23 *3732:A *179:39 3.9442e-05
24 *3732:B *3856:C 3.95724e-05
25 *3733:A *179:10 0.000311288
26 *3734:B *179:39 1.01661e-05
27 *3747:A *179:10 0.000130453
28 *3747:A *179:39 0
29 *3816:A1 *179:39 0.000116165
30 *3819:A3 *179:10 3.07153e-05
31 *3825:A2 *179:39 2.05641e-05
32 *3825:B2 *179:39 0
33 *3833:A1 *179:39 0
34 *3833:A2 *3833:B1 0.000112622
35 *3833:A2 *179:39 5.54327e-05
36 *68:42 *179:39 4.92096e-05
37 *79:8 *3856:C 0.000113255
38 *79:8 *179:10 0.000107738
39 *80:10 *179:39 0.000102257
40 *162:16 *3833:B1 3.64998e-06
41 *162:16 *179:39 0
42 *163:8 *179:39 0
43 *170:14 *179:39 0
44 *173:12 *179:39 0.000464196
*RES
1 *3832:X *179:10 8.035 
2 *179:10 *3856:C 16.61 
3 *179:10 *179:39 15.3925 
4 *179:39 *3833:B1 4.8175 
5 *179:39 *3845:B1 1.7275 
*END

*D_NET *180 0.00289983
*CONN
*I *3846:A3 I *D sky130_fd_sc_hd__a31o_1
*I *3854:A2 I *D sky130_fd_sc_hd__a31o_1
*I *3850:A2 I *D sky130_fd_sc_hd__a31o_1
*I *3833:X O *D sky130_fd_sc_hd__a31o_1
*CAP
1 *3846:A3 0
2 *3854:A2 7.54921e-05
3 *3850:A2 0.000247207
4 *3833:X 0.000310194
5 *180:20 0.000440423
6 *180:16 0.000427918
7 *3850:A2 *3847:A1 0
8 *3850:A2 *3850:A1 7.4027e-05
9 *3850:A2 *3850:B1 0
10 *3850:A2 *3855:A2 0
11 *3850:A2 *211:117 0
12 *3854:A2 *3847:A1 0
13 *3854:A2 *3847:B2 9.54399e-05
14 *3854:A2 *3854:A3 0.000117832
15 *3854:A2 *280:16 3.50111e-05
16 *180:16 *3807:A 8.65905e-05
17 *180:16 *3807:D 4.82863e-05
18 *180:16 *3846:A2 0.000183745
19 *180:16 *3849:A2 9.50342e-06
20 *180:16 *213:8 0.000185405
21 *180:16 *213:42 7.77735e-05
22 *180:16 *214:25 0.000105163
23 *180:20 *3854:A3 3.38341e-05
24 *180:20 *192:16 8.23457e-05
25 *180:20 *280:8 8.65961e-05
26 *3833:A2 *180:16 1.74083e-05
27 *3833:B1 *180:16 8.8266e-05
28 *154:25 *3850:A2 4.19513e-05
29 *154:25 *3854:A2 7.21296e-06
30 *179:39 *180:16 2.22004e-05
*RES
1 *3833:X *180:16 12.365 
2 *180:16 *180:20 4.175 
3 *180:20 *3850:A2 8.085 
4 *180:20 *3854:A2 5.745 
5 *180:16 *3846:A3 1.6 
*END

*D_NET *181 0.000836945
*CONN
*I *3837:A2 I *D sky130_fd_sc_hd__o221a_1
*I *3834:Y O *D sky130_fd_sc_hd__inv_2
*CAP
1 *3837:A2 0.00023114
2 *3834:Y 0.00023114
3 *3837:A2 *3837:B2 4.66108e-05
4 *3837:A2 *3838:B 4.99619e-05
5 *3837:A2 *182:6 5.17256e-05
6 *3804:D *3837:A2 7.4027e-05
7 *3835:A *3837:A2 5.05437e-05
8 *3837:A1 *3837:A2 1.91597e-05
9 *3837:B1 *3837:A2 8.26373e-05
*RES
1 *3834:Y *3837:A2 12.105 
*END

*D_NET *182 0.00282983
*CONN
*I *3840:B1 I *D sky130_fd_sc_hd__o21a_1
*I *3837:B2 I *D sky130_fd_sc_hd__o221a_1
*I *3841:A1 I *D sky130_fd_sc_hd__o21ai_1
*I *3835:Y O *D sky130_fd_sc_hd__inv_2
*CAP
1 *3840:B1 0.000306053
2 *3837:B2 4.04713e-05
3 *3841:A1 0.000279569
4 *3835:Y 0
5 *182:6 0.000458614
6 *182:4 0.000444626
7 *3837:B2 *3844:B 4.9968e-05
8 *3837:B2 *3844:D_N 4.9968e-05
9 *3840:B1 *3844:D_N 0
10 *3841:A1 *3837:C1 8.7073e-05
11 *3841:A1 *183:6 1.34594e-05
12 *3809:B *3841:A1 0
13 *3813:A2 *3840:B1 0.000158297
14 *3831:A *3840:B1 4.82919e-05
15 *3831:C *3840:B1 0
16 *3837:A1 *3837:B2 8.40213e-05
17 *3837:A1 *3841:A1 0.000165803
18 *3837:A1 *182:6 4.66108e-05
19 *3837:A2 *3837:B2 4.66108e-05
20 *3837:A2 *182:6 5.17256e-05
21 *3837:B1 *3837:B2 2.16833e-05
22 *3840:A1 *3840:B1 1.16578e-05
23 *141:14 *3840:B1 0.000199727
24 *151:10 *3840:B1 0.000142662
25 *153:20 *3840:B1 0.000122943
26 *160:8 *3840:B1 0
*RES
1 *3835:Y *182:4 1.6 
2 *182:4 *182:6 1.83 
3 *182:6 *3841:A1 5.425 
4 *182:6 *3837:B2 7.01 
5 *182:4 *3840:B1 12.89 
*END

*D_NET *183 0.000451718
*CONN
*I *3841:A2 I *D sky130_fd_sc_hd__o21ai_1
*I *3837:C1 I *D sky130_fd_sc_hd__o221a_1
*I *3836:Y O *D sky130_fd_sc_hd__inv_2
*CAP
1 *3841:A2 0
2 *3837:C1 4.21971e-05
3 *3836:Y 4.17121e-05
4 *183:6 8.39092e-05
5 *3837:C1 *3843:B1 3.16844e-05
6 *3813:A2 *183:6 4.82863e-05
7 *3837:A1 *3837:C1 9.26268e-06
8 *3841:A1 *3837:C1 8.7073e-05
9 *3841:A1 *183:6 1.34594e-05
10 *3841:B1 *3837:C1 7.54302e-06
11 *177:16 *183:6 8.65905e-05
*RES
1 *3836:Y *183:6 2.74 
2 *183:6 *3837:C1 3.3025 
3 *183:6 *3841:A2 1.6 
*END

*D_NET *184 0.000354836
*CONN
*I *3838:B I *D sky130_fd_sc_hd__nor2_1
*I *3837:X O *D sky130_fd_sc_hd__o221a_1
*CAP
1 *3838:B 0.000138356
2 *3837:X 0.000138356
3 *3838:B *3843:B1 0
4 *3838:B *3844:B 0
5 *3838:B *3844:D_N 2.16389e-05
6 *3804:D *3838:B 0
7 *3837:A2 *3838:B 4.99619e-05
8 *3837:B1 *3838:B 4.43871e-06
9 *146:14 *3838:B 2.0851e-06
*RES
1 *3837:X *3838:B 9.285 
*END

*D_NET *185 0.00141317
*CONN
*I *3844:B I *D sky130_fd_sc_hd__or4b_1
*I *3838:Y O *D sky130_fd_sc_hd__nor2_1
*CAP
1 *3844:B 0.000267875
2 *3838:Y 0.000267875
3 *3844:B *3843:B1 9.54399e-05
4 *3844:B *3844:D_N 0.000205281
5 *3831:C *3844:B 0.000139245
6 *3837:B2 *3844:B 4.9968e-05
7 *3838:B *3844:B 0
8 *141:44 *3844:B 0.000187656
9 *147:19 *3844:B 0.000199833
*RES
1 *3838:Y *3844:B 14.235 
*END

*D_NET *186 0.0014676
*CONN
*I *3840:A2 I *D sky130_fd_sc_hd__o21a_1
*I *3839:X O *D sky130_fd_sc_hd__and2b_1
*CAP
1 *3840:A2 0.00031023
2 *3839:X 0.00031023
3 *3840:A2 *272:14 0
4 *3778:B *3840:A2 3.76596e-05
5 *3804:A *3840:A2 4.82919e-05
6 *3804:B *3840:A2 2.05056e-05
7 *3804:C *3840:A2 5.33085e-05
8 *3812:A2 *3840:A2 0.000208477
9 *3831:A *3840:A2 0
10 *3835:A *3840:A2 4.66108e-05
11 *3839:B *3840:A2 5.83121e-06
12 *3840:A1 *3840:A2 7.53115e-05
13 *125:23 *3840:A2 0.000291365
14 *157:14 *3840:A2 1.88337e-05
15 *157:39 *3840:A2 4.09479e-05
*RES
1 *3839:X *3840:A2 14.565 
*END

*D_NET *187 0.00102905
*CONN
*I *3844:C I *D sky130_fd_sc_hd__or4b_1
*I *3840:X O *D sky130_fd_sc_hd__o21a_1
*CAP
1 *3844:C 0.000323759
2 *3840:X 0.000323759
3 *3844:C *3844:D_N 4.82919e-05
4 *3813:A1 *3844:C 8.63511e-05
5 *3813:A2 *3844:C 2.63322e-05
6 *3813:B1 *3844:C 3.5022e-05
7 *3831:A *3844:C 7.23533e-05
8 *3840:A1 *3844:C 3.86529e-05
9 *141:14 *3844:C 6.96076e-05
10 *141:16 *3844:C 4.9253e-06
*RES
1 *3840:X *3844:C 12.795 
*END

*D_NET *188 0.000765525
*CONN
*I *3843:B1 I *D sky130_fd_sc_hd__o211a_1
*I *3841:Y O *D sky130_fd_sc_hd__o21ai_1
*CAP
1 *3843:B1 0.000194337
2 *3841:Y 0.000194337
3 *3837:A1 *3843:B1 5.26865e-05
4 *3837:B1 *3843:B1 4.82919e-05
5 *3837:C1 *3843:B1 3.16844e-05
6 *3838:B *3843:B1 0
7 *3844:B *3843:B1 9.54399e-05
8 *141:44 *3843:B1 0.000139245
9 *150:10 *3843:B1 9.50342e-06
*RES
1 *3841:Y *3843:B1 10.665 
*END

*D_NET *189 0.000899954
*CONN
*I *3843:C1 I *D sky130_fd_sc_hd__o211a_1
*I *3842:X O *D sky130_fd_sc_hd__o21ba_1
*CAP
1 *3843:C1 0.000181188
2 *3842:X 0.000181188
3 *3837:A1 *3843:C1 0.000114492
4 *3841:B1 *3843:C1 1.34361e-05
5 *141:44 *3843:C1 0.000309722
6 *145:14 *3843:C1 5.16418e-05
7 *177:16 *3843:C1 4.82863e-05
*RES
1 *3842:X *3843:C1 11.325 
*END

*D_NET *190 0.00129372
*CONN
*I *3844:D_N I *D sky130_fd_sc_hd__or4b_1
*I *3843:X O *D sky130_fd_sc_hd__o211a_1
*CAP
1 *3844:D_N 0.000317376
2 *3843:X 0.000317376
3 *3813:A2 *3844:D_N 6.23462e-05
4 *3831:C *3844:D_N 0.00020447
5 *3837:B1 *3844:D_N 4.1977e-05
6 *3837:B2 *3844:D_N 4.9968e-05
7 *3838:B *3844:D_N 2.16389e-05
8 *3840:B1 *3844:D_N 0
9 *3844:B *3844:D_N 0.000205281
10 *3844:C *3844:D_N 4.82919e-05
11 *141:14 *3844:D_N 2.49909e-05
*RES
1 *3843:X *3844:D_N 14.16 
*END

*D_NET *191 0.000812873
*CONN
*I *3845:A3 I *D sky130_fd_sc_hd__o31a_1
*I *3844:X O *D sky130_fd_sc_hd__or4b_1
*CAP
1 *3845:A3 0.000152854
2 *3844:X 0.000152854
3 *3845:A3 *3846:A1 0
4 *3845:A3 *213:42 0.000124895
5 *3808:B *3845:A3 0.000120186
6 *3831:B *3845:A3 3.35338e-05
7 *3833:A2 *3845:A3 0.00012657
8 *3833:A3 *3845:A3 6.14445e-05
9 *3844:A *3845:A3 4.05358e-05
*RES
1 *3844:X *3845:A3 11.505 
*END

*D_NET *192 0.00241848
*CONN
*I *3846:B1 I *D sky130_fd_sc_hd__a31o_1
*I *3854:B1 I *D sky130_fd_sc_hd__a31o_1
*I *3850:B1 I *D sky130_fd_sc_hd__a31o_1
*I *3845:X O *D sky130_fd_sc_hd__o31a_1
*CAP
1 *3846:B1 0
2 *3854:B1 8.63177e-05
3 *3850:B1 0.000211572
4 *3845:X 8.8768e-05
5 *192:16 0.000356344
6 *192:12 0.000147222
7 *3850:B1 *3849:A2 0.000162332
8 *3850:B1 *3850:A1 0
9 *3850:B1 *3850:A3 7.60965e-05
10 *3850:B1 *213:8 0.000198974
11 *3854:B1 *213:8 0.000155928
12 *3854:B1 *280:16 1.1561e-05
13 *192:12 *3846:A1 0.000116853
14 *192:12 *3846:A2 6.74079e-05
15 *192:12 *213:42 4.82863e-05
16 *192:16 *3846:A1 4.82863e-05
17 *192:16 *3854:A3 0.000197264
18 *3829:A *3854:B1 4.80285e-05
19 *3850:A2 *3850:B1 0
20 *154:25 *3850:B1 0.000140912
21 *154:25 *3854:B1 0.000173984
22 *180:20 *192:16 8.23457e-05
*RES
1 *3845:X *192:12 7.685 
2 *192:12 *192:16 3.83 
3 *192:16 *3850:B1 8.925 
4 *192:16 *3854:B1 6.285 
5 *192:12 *3846:B1 1.6 
*END

*D_NET *193 0.00120286
*CONN
*I *3847:B2 I *D sky130_fd_sc_hd__a22o_1
*I *3846:X O *D sky130_fd_sc_hd__a31o_1
*CAP
1 *3847:B2 0.000264144
2 *3846:X 0.000264144
3 *3847:B2 *3854:A1 0.000104883
4 *3847:B2 *3854:A3 0.000119756
5 *3847:B2 *3855:B2 0.000163204
6 *3847:B2 *280:16 9.37731e-05
7 *3852:A *3847:B2 9.75182e-05
8 *3854:A2 *3847:B2 9.54399e-05
*RES
1 *3846:X *3847:B2 12.69 
*END

*D_NET *194 0.000228577
*CONN
*I *3850:A1 I *D sky130_fd_sc_hd__a31o_1
*I *3848:Y O *D sky130_fd_sc_hd__inv_2
*CAP
1 *3850:A1 7.7275e-05
2 *3848:Y 7.7275e-05
3 *3850:A1 *3851:B1 0
4 *3850:A1 *3851:B2 0
5 *3850:A2 *3850:A1 7.4027e-05
6 *3850:B1 *3850:A1 0
*RES
1 *3848:Y *3850:A1 8.685 
*END

*D_NET *195 0.00110731
*CONN
*I *3850:A3 I *D sky130_fd_sc_hd__a31o_1
*I *3849:X O *D sky130_fd_sc_hd__a22o_1
*CAP
1 *3850:A3 0.00016513
2 *3849:X 0.00016513
3 *3850:A3 *3807:B 0.000232111
4 *3850:A3 *3849:A2 6.38806e-05
5 *3850:A3 *3851:A2 0.000241483
6 *3850:A3 *3851:B2 5.4155e-06
7 *3850:A3 *279:12 8.23457e-05
8 *3850:A3 *279:35 7.57202e-05
9 *3850:B1 *3850:A3 7.60965e-05
*RES
1 *3849:X *3850:A3 8.495 
*END

*D_NET *196 0.000106519
*CONN
*I *3851:B2 I *D sky130_fd_sc_hd__a22o_1
*I *3850:X O *D sky130_fd_sc_hd__a31o_1
*CAP
1 *3851:B2 3.99976e-05
2 *3850:X 3.99976e-05
3 *3851:B2 *3851:A2 2.11084e-05
4 *3850:A1 *3851:B2 0
5 *3850:A3 *3851:B2 5.4155e-06
*RES
1 *3850:X *3851:B2 4.01 
*END

*D_NET *197 0.000417097
*CONN
*I *3854:A1 I *D sky130_fd_sc_hd__a31o_1
*I *3852:Y O *D sky130_fd_sc_hd__inv_2
*CAP
1 *3854:A1 4.85719e-05
2 *3852:Y 4.85719e-05
3 *3829:A *3854:A1 4.99619e-05
4 *3847:B2 *3854:A1 0.000104883
5 *3852:A *3854:A1 0.000165108
*RES
1 *3852:Y *3854:A1 5.375 
*END

*D_NET *198 0.00121622
*CONN
*I *3854:A3 I *D sky130_fd_sc_hd__a31o_1
*I *3853:X O *D sky130_fd_sc_hd__a21o_1
*CAP
1 *3854:A3 0.000303022
2 *3853:X 0.000303022
3 *3854:A3 *3846:A1 1.91597e-05
4 *3854:A3 *3847:A1 0
5 *3854:A3 *280:8 0.000122331
6 *3847:B2 *3854:A3 0.000119756
7 *3854:A2 *3854:A3 0.000117832
8 *180:20 *3854:A3 3.38341e-05
9 *192:16 *3854:A3 0.000197264
*RES
1 *3853:X *3854:A3 13.185 
*END

*D_NET *199 0.00160426
*CONN
*I *3855:B2 I *D sky130_fd_sc_hd__a22o_1
*I *3854:X O *D sky130_fd_sc_hd__a31o_1
*CAP
1 *3855:B2 0.000388545
2 *3854:X 0.000388545
3 *3855:B2 *3847:A1 0.000275115
4 *3855:B2 *3847:B1 2.49909e-05
5 *3855:B2 *3851:B1 1.91597e-05
6 *3855:B2 *3855:B1 4.66108e-05
7 *3855:B2 *211:117 3.2003e-05
8 *3855:B2 *244:39 1.39517e-05
9 *3855:B2 *244:54 3.76625e-05
10 *3855:B2 *261:92 2.97122e-05
11 *3847:B2 *3855:B2 0.000163204
12 *3876:D *3855:B2 0.00018476
*RES
1 *3854:X *3855:B2 16.29 
*END

*D_NET *200 0.000601393
*CONN
*I *3857:B1_N I *D sky130_fd_sc_hd__a21bo_1
*I *3856:X O *D sky130_fd_sc_hd__or3_1
*CAP
1 *3857:B1_N 0.000250017
2 *3856:X 0.000250017
3 *3857:B1_N *3691:B1_N 4.82919e-05
4 *3857:B1_N *3857:A1 5.30673e-05
*RES
1 *3856:X *3857:B1_N 6.065 
*END

*D_NET *201 0.000695287
*CONN
*I *3859:B1 I *D sky130_fd_sc_hd__a31o_1
*I *3858:X O *D sky130_fd_sc_hd__and2_1
*CAP
1 *3859:B1 0.000158524
2 *3858:X 0.000158524
3 *3859:B1 *3859:A1 5.83121e-06
4 *3859:B1 *209:16 0.000186204
5 *3859:B1 *214:6 0.000186204
6 *3859:B1 *214:25 0
*RES
1 *3858:X *3859:B1 11.445 
*END

*D_NET *202 0.00106796
*CONN
*I *3861:B1 I *D sky130_fd_sc_hd__a31o_1
*I *3860:X O *D sky130_fd_sc_hd__and2_1
*CAP
1 *3861:B1 0.000368089
2 *3860:X 0.000368089
3 *3861:B1 *3679:A 0
4 *3861:B1 *3683:B1 0
5 *3861:B1 *3861:A1 1.88656e-05
6 *3861:B1 *3861:A2 3.45588e-05
7 *3861:B1 *3861:A3 1.37328e-05
8 *3861:B1 *243:104 8.65905e-05
9 *3861:B1 *275:10 0.000178034
*RES
1 *3860:X *3861:B1 13.365 
*END

*D_NET *203 0.00123877
*CONN
*I *3863:B1 I *D sky130_fd_sc_hd__a31o_1
*I *3862:X O *D sky130_fd_sc_hd__and2_1
*CAP
1 *3863:B1 0.000314768
2 *3862:X 0.000314768
3 *3863:B1 *3865:A3 2.30797e-05
4 *3863:B1 *3883:CLK 0.000187766
5 *3863:B1 *243:130 0.000273008
6 *3863:B1 *262:40 8.53113e-06
7 *3863:B1 *262:62 0.000116853
*RES
1 *3862:X *3863:B1 13.14 
*END

*D_NET *204 0.000105481
*CONN
*I *3865:B1 I *D sky130_fd_sc_hd__a31o_1
*I *3864:X O *D sky130_fd_sc_hd__and2_1
*CAP
1 *3865:B1 5.27404e-05
2 *3864:X 5.27404e-05
*RES
1 *3864:X *3865:B1 3.995 
*END

*D_NET *205 0.000105481
*CONN
*I *3867:B1 I *D sky130_fd_sc_hd__a31o_1
*I *3866:X O *D sky130_fd_sc_hd__and2_1
*CAP
1 *3867:B1 5.27404e-05
2 *3866:X 5.27404e-05
*RES
1 *3866:X *3867:B1 3.995 
*END

*D_NET *206 0.000149146
*CONN
*I *3869:B1 I *D sky130_fd_sc_hd__a31o_1
*I *3868:X O *D sky130_fd_sc_hd__and2_1
*CAP
1 *3869:B1 3.04398e-05
2 *3868:X 3.04398e-05
3 *3869:B1 *3868:A 8.8266e-05
*RES
1 *3868:X *3869:B1 3.995 
*END

*D_NET *207 0.000668712
*CONN
*I *3871:B1 I *D sky130_fd_sc_hd__a31o_1
*I *3870:X O *D sky130_fd_sc_hd__and2_1
*CAP
1 *3871:B1 0.000151772
2 *3870:X 0.000151772
3 *3871:B1 *3870:A 0.000131008
4 *3871:B1 *3870:B 4.99619e-05
5 *3871:B1 *3885:CLK 0.000100544
6 *3871:B1 *210:25 2.34423e-05
7 *3871:B1 *261:16 6.02123e-05
*RES
1 *3870:X *3871:B1 11.07 
*END

*D_NET *208 0.00068671
*CONN
*I *3873:B1 I *D sky130_fd_sc_hd__a31o_1
*I *3872:X O *D sky130_fd_sc_hd__and2_1
*CAP
1 *3873:B1 0.000258739
2 *3872:X 0.000258739
3 *3873:B1 *210:25 5.30673e-05
4 *3873:B1 *211:14 0.000116165
5 *3873:B1 *243:43 0
*RES
1 *3872:X *3873:B1 10.755 
*END

*D_NET *209 0.0155383
*CONN
*I *3867:A2 I *D sky130_fd_sc_hd__a31o_1
*I *3865:A2 I *D sky130_fd_sc_hd__a31o_1
*I *3863:A2 I *D sky130_fd_sc_hd__a31o_1
*I *3861:A2 I *D sky130_fd_sc_hd__a31o_1
*I *3656:A I *D sky130_fd_sc_hd__inv_2
*I *3873:A2 I *D sky130_fd_sc_hd__a31o_1
*I *3871:A2 I *D sky130_fd_sc_hd__a31o_1
*I *3691:A2 I *D sky130_fd_sc_hd__o21ba_1
*I *3869:A2 I *D sky130_fd_sc_hd__a31o_1
*I *3859:A2 I *D sky130_fd_sc_hd__a31o_1
*I *3655:X O *D sky130_fd_sc_hd__clkbuf_4
*CAP
1 *3867:A2 0.000116034
2 *3865:A2 0.00020872
3 *3863:A2 0
4 *3861:A2 0.000149407
5 *3656:A 0.000331088
6 *3873:A2 0
7 *3871:A2 4.42061e-05
8 *3691:A2 7.99625e-05
9 *3869:A2 6.98337e-05
10 *3859:A2 2.89488e-05
11 *3655:X 0
12 *209:121 0.000555307
13 *209:115 0.000758356
14 *209:98 0.00140591
15 *209:74 0.000502254
16 *209:35 0.000341731
17 *209:33 0.000385857
18 *209:31 0.000670639
19 *209:16 0.00197
20 *209:4 0.00255207
21 *3656:A *211:14 0.000143266
22 *3656:A *243:79 0
23 *3656:A *261:8 4.66108e-05
24 *3691:A2 *3691:A1 8.49205e-05
25 *3691:A2 *3691:B1_N 3.59531e-06
26 *3691:A2 *3869:A1 5.50167e-05
27 *3691:A2 *3872:B 8.49205e-05
28 *3691:A2 *243:55 3.62454e-05
29 *3691:A2 *301:10 5.08304e-06
30 *3859:A2 *3859:A3 1.92979e-05
31 *3859:A2 *3871:A1 0
32 *3859:A2 *214:25 2.66861e-05
33 *3859:A2 *243:43 1.92979e-05
34 *3861:A2 *3679:B 2.8377e-05
35 *3861:A2 *3683:B1 0.000157707
36 *3861:A2 *3891:A 0.000198939
37 *3861:A2 *243:104 3.24055e-05
38 *3861:A2 *303:20 7.21296e-06
39 *3865:A2 *3686:B1 0
40 *3865:A2 *3863:A3 3.70572e-05
41 *3865:A2 *3864:A 0
42 *3865:A2 *3865:A3 0
43 *3867:A2 *3866:B 0
44 *3867:A2 *3867:A1 1.33293e-05
45 *3867:A2 *3867:A3 3.45679e-05
46 *3869:A2 *3868:A 1.33293e-05
47 *3869:A2 *3869:A3 7.00889e-06
48 *3869:A2 *3871:A3 0
49 *3871:A2 *3868:A 1.30356e-07
50 *3871:A2 *3871:A1 4.61268e-05
51 *3871:A2 *3871:A3 9.47099e-06
52 *209:16 *3709:A1 3.23663e-05
53 *209:16 *3709:B1 0.00014719
54 *209:16 *3859:A1 1.17309e-05
55 *209:16 *3875:D 0.000114912
56 *209:16 *214:6 0.000167636
57 *209:16 *243:26 0.000177439
58 *209:16 *249:6 9.27255e-06
59 *209:16 *249:10 1.33293e-05
60 *209:16 *254:6 0.000352156
61 *209:16 *267:10 4.55864e-06
62 *209:16 *267:23 5.10873e-05
63 *209:16 *267:44 0.000209827
64 *209:16 *277:22 0.000425312
65 *209:31 *3871:A1 8.57226e-05
66 *209:33 *3871:A1 5.75066e-05
67 *209:35 *3868:A 2.8585e-06
68 *209:35 *3869:A3 6.6564e-05
69 *209:35 *3871:A3 4.26056e-05
70 *209:74 *210:25 6.14983e-05
71 *209:74 *211:14 0.000286075
72 *209:74 *243:79 0
73 *209:74 *261:16 0
74 *209:98 *3688:B1 1.33293e-05
75 *209:98 *3688:B2 0.000198939
76 *209:98 *3689:B1 6.60261e-06
77 *209:98 *3875:D 8.65905e-05
78 *209:98 *265:31 0.00011379
79 *209:115 *3688:B1 2.04748e-05
80 *209:115 *3688:B2 1.08758e-05
81 *209:115 *3867:A1 6.91965e-05
82 *209:115 *3867:A3 1.56428e-05
83 *209:121 *3864:A 0
84 *209:121 *3865:A3 3.09233e-05
85 *209:121 *211:42 0
86 *209:121 *211:51 0
87 *209:121 *243:117 5.4003e-05
88 *209:121 *243:130 0.00069266
89 *3715:A *209:16 0.00021806
90 *3717:A *209:16 4.82863e-05
91 *3859:B1 *209:16 0.000186204
92 *3861:B1 *3861:A2 3.45588e-05
93 *3882:D *209:121 5.72091e-05
94 *3884:D *209:121 4.49498e-05
95 *56:8 *209:16 2.8585e-06
96 *61:16 *209:16 2.16917e-05
97 *61:20 *209:16 1.08758e-05
*RES
1 *3655:X *209:4 1.6 
2 *209:4 *209:16 28.72 
3 *209:16 *3859:A2 6.215 
4 *209:16 *209:31 4.26 
5 *209:31 *209:33 1.83 
6 *209:33 *209:35 2.52 
7 *209:35 *3869:A2 2.665 
8 *209:35 *3691:A2 7.775 
9 *209:33 *3871:A2 2.875 
10 *209:31 *209:74 5.42 
11 *209:74 *3873:A2 3.6 
12 *209:74 *3656:A 8.82 
13 *209:4 *209:98 11.49 
14 *209:98 *3861:A2 9.68 
15 *209:98 *209:115 3.555 
16 *209:115 *209:121 12.775 
17 *209:121 *3863:A2 1.6 
18 *209:121 *3865:A2 8.99 
19 *209:115 *3867:A2 3.355 
*END

*D_NET *210 0.00462327
*CONN
*I *3856:A I *D sky130_fd_sc_hd__or3_1
*I *3657:A I *D sky130_fd_sc_hd__buf_2
*I *3868:A I *D sky130_fd_sc_hd__and2_1
*I *3870:A I *D sky130_fd_sc_hd__and2_1
*I *3872:A I *D sky130_fd_sc_hd__and2_1
*I *3656:Y O *D sky130_fd_sc_hd__inv_2
*CAP
1 *3856:A 6.5747e-05
2 *3657:A 0.000232871
3 *3868:A 0.000485869
4 *3870:A 0.000142763
5 *3872:A 1.09854e-05
6 *3656:Y 0
7 *210:51 0.000362204
8 *210:25 0.000837348
9 *210:10 0.000321345
10 *210:6 0.00016523
11 *3657:A *211:83 1.79886e-05
12 *3856:A *3691:B1_N 4.66443e-05
13 *3856:A *211:83 0.000116165
14 *3856:A *261:64 9.68787e-05
15 *3868:A *3868:B 2.75229e-05
16 *3868:A *3869:A3 6.90876e-05
17 *3868:A *3871:A1 0.000163966
18 *3868:A *3871:A3 4.83186e-05
19 *3870:A *3885:CLK 0
20 *3870:A *211:14 0.000106393
21 *3872:A *3872:B 3.00381e-05
22 *210:10 *3691:B1_N 7.5431e-05
23 *210:10 *243:55 5.88411e-05
24 *210:10 *261:16 2.03861e-05
25 *210:25 *3872:B 2.30292e-05
26 *210:25 *211:14 4.49328e-05
27 *210:25 *261:16 6.22464e-05
28 *210:51 *3691:B1_N 7.5431e-05
29 *3869:A2 *3868:A 1.33293e-05
30 *3869:B1 *3868:A 8.8266e-05
31 *3871:A2 *3868:A 1.30356e-07
32 *3871:B1 *3870:A 0.000131008
33 *3871:B1 *210:25 2.34423e-05
34 *3873:B1 *210:25 5.30673e-05
35 *3874:D *3856:A 5.4003e-05
36 *3874:D *3872:A 2.75145e-05
37 *3874:D *210:10 0.000247567
38 *3874:D *210:25 2.75229e-05
39 *3874:D *210:51 0.000185398
40 *209:35 *3868:A 2.8585e-06
41 *209:74 *210:25 6.14983e-05
*RES
1 *3656:Y *210:6 3.6 
2 *210:6 *210:10 5.42 
3 *210:10 *3872:A 2.05 
4 *210:10 *210:25 6.845 
5 *210:25 *3870:A 7.02 
6 *210:25 *3868:A 11.085 
7 *210:6 *210:51 2.145 
8 *210:51 *3657:A 6.3 
9 *210:51 *3856:A 6.255 
*END

*D_NET *211 0.0158576
*CONN
*I *3690:A I *D sky130_fd_sc_hd__nor2_1
*I *3847:A1 I *D sky130_fd_sc_hd__a22o_1
*I *3851:A1 I *D sky130_fd_sc_hd__a22o_1
*I *3855:A1 I *D sky130_fd_sc_hd__a22o_1
*I *3857:A1 I *D sky130_fd_sc_hd__a21bo_1
*I *3864:A I *D sky130_fd_sc_hd__and2_1
*I *3862:A I *D sky130_fd_sc_hd__and2_1
*I *3866:A I *D sky130_fd_sc_hd__and2_1
*I *3860:A I *D sky130_fd_sc_hd__and2_1
*I *3858:A I *D sky130_fd_sc_hd__and2_1
*I *3657:X O *D sky130_fd_sc_hd__buf_2
*CAP
1 *3690:A 0.000180268
2 *3847:A1 0.000388451
3 *3851:A1 0
4 *3855:A1 2.56275e-05
5 *3857:A1 5.9165e-05
6 *3864:A 0.000379072
7 *3862:A 2.22788e-05
8 *3866:A 0
9 *3860:A 5.43937e-05
10 *3858:A 0.000104026
11 *3657:X 3.79446e-05
12 *211:117 0.00058245
13 *211:100 0.00040992
14 *211:83 0.0006933
15 *211:73 0.000702731
16 *211:51 0.000667904
17 *211:42 0.000518682
18 *211:31 0.00300401
19 *211:14 0.0039889
20 *211:8 0.00130394
21 *3690:A *244:39 3.73349e-05
22 *3847:A1 *3847:B1 4.99619e-05
23 *3847:A1 *3855:A2 3.86607e-05
24 *3855:A1 *3851:A2 0
25 *3855:A1 *3855:A2 9.53428e-06
26 *3855:A1 *3855:B1 3.26889e-05
27 *3857:A1 *3856:B 0
28 *3857:A1 *3857:A2 1.42551e-05
29 *3858:A *283:10 0
30 *3860:A *3860:B 7.35729e-05
31 *3862:A *3862:B 4.82863e-05
32 *3864:A *3864:B 4.82919e-05
33 *3864:A *304:26 6.52734e-05
34 *3864:A *304:28 0
35 *211:14 *3731:A2 0
36 *211:14 *3871:A1 0
37 *211:14 *3873:A1 0
38 *211:14 *3874:CLK 0
39 *211:14 *243:43 0
40 *211:14 *243:79 0
41 *211:31 *3681:A1 0.000311288
42 *211:31 *284:10 0
43 *211:42 *284:10 0
44 *211:42 *304:32 0
45 *211:51 *304:28 0
46 *211:51 *304:32 0
47 *211:73 *3731:A2 0
48 *211:73 *3874:CLK 0
49 *211:73 *243:79 0
50 *211:83 *3691:B1_N 4.94326e-05
51 *211:83 *261:64 1.22591e-05
52 *211:83 *293:61 0
53 *211:100 *3857:A2 0.000285854
54 *211:100 *244:39 0
55 *211:100 *261:64 0
56 *211:100 *261:79 5.33787e-05
57 *211:100 *261:92 5.30144e-05
58 *211:100 *293:68 8.08153e-06
59 *211:100 *293:86 7.75412e-05
60 *211:117 *3847:B1 1.03423e-05
61 *211:117 *3851:A2 1.08758e-05
62 *211:117 *3851:B1 6.07575e-06
63 *211:117 *3855:B1 0.000124007
64 *211:117 *244:39 4.87455e-05
65 *211:117 *244:54 7.21296e-06
66 *3656:A *211:14 0.000143266
67 *3657:A *211:83 1.79886e-05
68 *3850:A2 *3847:A1 0
69 *3850:A2 *211:117 0
70 *3854:A2 *3847:A1 0
71 *3854:A3 *3847:A1 0
72 *3855:B2 *3847:A1 0.000275115
73 *3855:B2 *211:117 3.2003e-05
74 *3856:A *211:83 0.000116165
75 *3856:C *3690:A 0
76 *3856:C *3857:A1 0
77 *3856:C *211:73 0
78 *3857:B1_N *3857:A1 5.30673e-05
79 *3865:A2 *3864:A 0
80 *3870:A *211:14 0.000106393
81 *3873:B1 *211:14 0.000116165
82 *3879:D *211:100 6.74079e-05
83 *3880:D *211:14 0
84 *3882:D *3864:A 0
85 *3884:D *211:51 0
86 *209:74 *211:14 0.000286075
87 *209:121 *3864:A 0
88 *209:121 *211:42 0
89 *209:121 *211:51 0
90 *210:25 *211:14 4.49328e-05
*RES
1 *3657:X *211:8 4.05 
2 *211:8 *211:14 21.71 
3 *211:14 *3858:A 7.235 
4 *211:14 *211:31 40.22 
5 *211:31 *3860:A 4.74 
6 *211:31 *211:42 3.93 
7 *211:42 *3866:A 3.6 
8 *211:42 *211:51 4.185 
9 *211:51 *3862:A 4.05 
10 *211:51 *3864:A 10.275 
11 *211:8 *211:73 1.38 
12 *211:73 *211:83 10.0375 
13 *211:83 *3857:A1 4.9125 
14 *211:83 *211:100 7.6625 
15 *211:100 *3855:A1 2.215 
16 *211:100 *211:117 5.345 
17 *211:117 *3851:A1 3.6 
18 *211:117 *3847:A1 11.475 
19 *211:73 *3690:A 6.84 
*END

*D_NET *212 0.0110792
*CONN
*I *3739:B1 I *D sky130_fd_sc_hd__a22o_1
*I *3740:D I *D sky130_fd_sc_hd__nand4_1
*I *3755:C I *D sky130_fd_sc_hd__nand4_2
*I *3754:A2 I *D sky130_fd_sc_hd__a22o_1
*I *3794:B I *D sky130_fd_sc_hd__and4_2
*I *3806:A2 I *D sky130_fd_sc_hd__a22o_1
*I *3677:A I *D sky130_fd_sc_hd__xnor2_1
*I *3673:A1 I *D sky130_fd_sc_hd__o31a_1
*I *3863:A1 I *D sky130_fd_sc_hd__a31o_1
*I *3661:B I *D sky130_fd_sc_hd__or4_1
*I *3658:X O *D sky130_fd_sc_hd__clkbuf_4
*CAP
1 *3739:B1 0
2 *3740:D 0.000187641
3 *3755:C 0
4 *3754:A2 0.000505102
5 *3794:B 0
6 *3806:A2 0.00023729
7 *3677:A 2.70832e-05
8 *3673:A1 9.73191e-06
9 *3863:A1 0.000422657
10 *3661:B 0.00034914
11 *3658:X 0.000611823
12 *212:121 0.000206522
13 *212:88 0.000417877
14 *212:86 0.00101254
15 *212:82 0.00054419
16 *212:80 0.00067512
17 *212:24 0.00115217
18 *212:16 0.000512819
19 *212:12 0.000258027
20 *212:10 0.00119672
21 *3661:B *3671:A 4.43566e-05
22 *3661:B *213:108 9.02259e-05
23 *3673:A1 *3673:A3 4.82863e-05
24 *3673:A1 *3673:B1 4.82863e-05
25 *3677:A *279:37 2.49909e-05
26 *3740:D *3724:D 3.00381e-05
27 *3740:D *213:83 5.05437e-05
28 *3740:D *246:85 2.97004e-06
29 *3740:D *264:51 0
30 *3754:A2 *266:22 0.000341732
31 *3754:A2 *266:84 1.08758e-05
32 *3863:A1 *3686:A1 5.1232e-05
33 *3863:A1 *3686:B1 0.000167153
34 *3863:A1 *3686:B2 4.82919e-05
35 *3863:A1 *3687:C1 1.83756e-05
36 *3863:A1 *3863:A3 5.83121e-06
37 *212:10 *3767:B 3.80606e-05
38 *212:10 *273:10 0.000422105
39 *212:10 *300:31 0
40 *212:10 *300:43 0
41 *212:12 *3677:B 1.34361e-05
42 *212:12 *273:10 8.26783e-05
43 *212:12 *300:43 0
44 *212:16 *3677:B 0.00011852
45 *212:16 *273:10 0
46 *212:16 *300:43 0
47 *212:24 *3674:B 4.91189e-05
48 *212:24 *217:97 0
49 *212:24 *217:116 0
50 *212:24 *225:12 7.89689e-05
51 *212:24 *273:10 0
52 *212:80 *3739:A1 2.30292e-05
53 *212:80 *3739:A2 2.0198e-05
54 *212:82 *3739:A1 2.75229e-05
55 *212:82 *3739:B2 4.82919e-05
56 *212:82 *3755:B 8.43778e-05
57 *212:82 *213:83 2.59926e-05
58 *212:86 *213:70 4.43682e-05
59 *212:86 *213:83 3.23663e-05
60 *212:121 *3755:B 0
61 *212:121 *3755:D 5.4155e-06
62 *3742:B1 *3740:D 0
63 *3743:A *3740:D 4.82919e-05
64 *3760:A2 *212:86 0.000110563
65 *3761:B *3754:A2 0
66 *3762:A2 *3754:A2 0
67 *3763:C *3754:A2 0
68 *3794:C *3806:A2 2.67184e-05
69 *3794:D *3806:A2 0.000123762
70 *3794:D *212:88 7.57202e-05
71 *3806:B1 *3806:A2 4.14666e-06
72 *3840:A1 *3806:A2 0
73 *88:8 *3740:D 0
74 *101:6 *3754:A2 5.83121e-06
75 *102:8 *3740:D 2.97004e-06
76 *107:8 *3754:A2 0
77 *108:32 *3754:A2 0.000208491
78 *120:10 *3754:A2 0
79 *121:14 *3754:A2 0
80 *139:6 *3806:A2 3.97257e-05
81 *141:14 *212:88 8.88108e-06
*RES
1 *3658:X *212:10 16.32 
2 *212:10 *212:12 2.4 
3 *212:12 *212:16 2.34 
4 *212:16 *212:24 8.78 
5 *212:24 *3661:B 6.775 
6 *212:24 *3863:A1 9.19 
7 *212:16 *3673:A1 4.05 
8 *212:12 *3677:A 4.05 
9 *212:10 *212:80 8.78 
10 *212:80 *212:82 3.555 
11 *212:82 *212:86 5.295 
12 *212:86 *212:88 2.175 
13 *212:88 *3806:A2 4.945 
14 *212:88 *3794:B 1.6 
15 *212:86 *3754:A2 15.935 
16 *212:82 *212:121 0.36 
17 *212:121 *3755:C 1.6 
18 *212:121 *3740:D 9.245 
19 *212:80 *3739:B1 1.6 
*END

*D_NET *213 0.016578
*CONN
*I *3676:A1 I *D sky130_fd_sc_hd__o21a_1
*I *3673:A2 I *D sky130_fd_sc_hd__o31a_1
*I *3680:A I *D sky130_fd_sc_hd__xor2_1
*I *3861:A1 I *D sky130_fd_sc_hd__a31o_1
*I *3661:C I *D sky130_fd_sc_hd__or4_1
*I *3755:D I *D sky130_fd_sc_hd__nand4_2
*I *3785:C I *D sky130_fd_sc_hd__and4_1
*I *3793:A2 I *D sky130_fd_sc_hd__a22o_1
*I *3807:C I *D sky130_fd_sc_hd__and4_1
*I *3849:A2 I *D sky130_fd_sc_hd__a22o_1
*I *3659:X O *D sky130_fd_sc_hd__clkbuf_4
*CAP
1 *3676:A1 0
2 *3673:A2 0.000222113
3 *3680:A 0
4 *3861:A1 0.000494013
5 *3661:C 0
6 *3755:D 2.47179e-05
7 *3785:C 1.15106e-05
8 *3793:A2 1.24596e-05
9 *3807:C 0
10 *3849:A2 0.000177621
11 *3659:X 0.000402481
12 *213:138 0.000371069
13 *213:108 0.00132392
14 *213:89 0.00112861
15 *213:83 0.000745818
16 *213:70 0.000743737
17 *213:51 0.000514501
18 *213:42 0.00109696
19 *213:21 0.00100237
20 *213:8 0.000580102
21 *3673:A2 *3673:A3 2.18022e-05
22 *3673:A2 *3673:B1 0.000199833
23 *3673:A2 *3676:A2 9.53428e-06
24 *3673:A2 *3676:B1 2.16833e-05
25 *3673:A2 *214:130 1.34503e-05
26 *3755:D *3755:B 0
27 *3785:C *3785:D 5.4155e-06
28 *3793:A2 *3785:B 6.95479e-06
29 *3793:A2 *3785:D 2.72174e-06
30 *3793:A2 *249:96 1.68902e-05
31 *3849:A2 *3807:B 0.000118527
32 *3849:A2 *3846:A2 1.15688e-05
33 *3849:A2 *3849:A1 0.00015896
34 *3849:A2 *245:33 0
35 *3849:A2 *279:12 8.23457e-05
36 *3849:A2 *279:35 0.000150672
37 *3861:A1 *3679:A 0
38 *3861:A1 *3683:B1 6.16226e-06
39 *3861:A1 *292:22 0.000297498
40 *3861:A1 *302:18 0
41 *213:8 *280:16 8.30826e-05
42 *213:42 *3785:B 2.16518e-05
43 *213:42 *3807:A 8.65905e-05
44 *213:42 *3807:D 1.34594e-05
45 *213:42 *245:29 0.00013827
46 *213:42 *249:66 0.000250798
47 *213:42 *249:96 0.000197097
48 *213:51 *3785:B 6.14493e-05
49 *213:51 *3785:D 4.66108e-05
50 *213:70 *3785:A 2.75145e-05
51 *213:70 *3785:B 1.34503e-05
52 *213:83 *3755:B 0.00015806
53 *213:83 *246:91 0.000160658
54 *213:83 *247:112 0.000114492
55 *213:83 *247:127 0.000195925
56 *213:89 *3661:A 5.83121e-06
57 *213:89 *214:88 5.64057e-05
58 *213:89 *246:85 4.77809e-05
59 *213:89 *247:112 0.000373952
60 *213:108 *3661:A 3.83194e-05
61 *213:108 *3664:B 0
62 *213:108 *3670:B 6.45236e-05
63 *213:108 *3671:A 4.80285e-05
64 *213:108 *214:77 0
65 *213:108 *215:12 0.000114492
66 *213:108 *243:26 2.0514e-05
67 *213:108 *265:31 0
68 *213:108 *300:45 1.70935e-05
69 *213:108 *300:49 7.09999e-05
70 *213:108 *302:18 1.15688e-05
71 *213:108 *303:34 0.000695276
72 *213:138 *214:100 0.000118081
73 *213:138 *214:130 0.000262102
74 *213:138 *279:35 1.47347e-05
75 *3661:B *213:108 9.02259e-05
76 *3740:D *213:83 5.05437e-05
77 *3742:B1 *213:83 7.36834e-05
78 *3742:B1 *213:89 4.43871e-06
79 *3744:A1 *213:70 8.23457e-05
80 *3744:A2 *213:70 2.16833e-05
81 *3749:A *213:70 5.4003e-05
82 *3760:A1 *213:70 6.45236e-05
83 *3760:A2 *3755:D 1.37328e-05
84 *3760:A2 *213:70 9.94353e-05
85 *3760:B1 *213:70 0.000118527
86 *3792:A *213:42 0.000134932
87 *3792:A *213:51 1.01687e-05
88 *3813:A2 *213:8 0
89 *3833:A2 *213:42 9.29046e-05
90 *3833:B1 *213:42 1.9415e-05
91 *3845:A3 *213:42 0.000124895
92 *3848:A *213:42 1.94548e-05
93 *3850:A3 *3849:A2 6.38806e-05
94 *3850:B1 *3849:A2 0.000162332
95 *3850:B1 *213:8 0.000198974
96 *3853:B1 *213:8 0
97 *3854:B1 *213:8 0.000155928
98 *3861:B1 *3861:A1 1.88656e-05
99 *72:20 *213:89 0.000372591
100 *89:8 *213:138 2.49909e-05
101 *132:8 *213:42 9.53428e-06
102 *132:8 *213:51 8.65961e-05
103 *144:26 *213:8 0
104 *154:25 *213:42 5.4155e-06
105 *155:21 *213:8 0.000273695
106 *162:16 *213:42 0.000196376
107 *177:16 *213:8 0
108 *180:16 *3849:A2 9.50342e-06
109 *180:16 *213:8 0.000185405
110 *180:16 *213:42 7.77735e-05
111 *192:12 *213:42 4.82863e-05
112 *212:82 *213:83 2.59926e-05
113 *212:86 *213:70 4.43682e-05
114 *212:86 *213:83 3.23663e-05
115 *212:121 *3755:D 5.4155e-06
*RES
1 *3659:X *213:8 13.395 
2 *213:8 *3849:A2 8.7 
3 *213:8 *213:21 2 
4 *213:21 *3807:C 1.6 
5 *213:21 *213:42 16.0875 
6 *213:42 *3793:A2 1.96 
7 *213:42 *213:51 2.0025 
8 *213:51 *3785:C 1.96 
9 *213:51 *213:70 11.815 
10 *213:70 *3755:D 2.215 
11 *213:70 *213:83 9.23 
12 *213:83 *213:89 9.71 
13 *213:89 *3661:C 1.6 
14 *213:89 *213:108 19.9 
15 *213:108 *3861:A1 8.47547 
16 *213:108 *3680:A 1.6 
17 *213:83 *213:138 5.555 
18 *213:138 *3673:A2 5.425 
19 *213:138 *3676:A1 1.6 
*END

*D_NET *214 0.0210198
*CONN
*I *3673:A3 I *D sky130_fd_sc_hd__o31a_1
*I *3676:A2 I *D sky130_fd_sc_hd__o21a_1
*I *3793:B1 I *D sky130_fd_sc_hd__a22o_1
*I *3849:B1 I *D sky130_fd_sc_hd__a22o_1
*I *3661:D I *D sky130_fd_sc_hd__or4_1
*I *3679:B I *D sky130_fd_sc_hd__nand2_1
*I *3682:A1_N I *D sky130_fd_sc_hd__o2bb2a_1
*I *3846:A2 I *D sky130_fd_sc_hd__a31o_1
*I *3807:D I *D sky130_fd_sc_hd__and4_1
*I *3859:A1 I *D sky130_fd_sc_hd__a31o_1
*I *3660:X O *D sky130_fd_sc_hd__clkbuf_4
*CAP
1 *3673:A3 0.000160685
2 *3676:A2 1.68577e-05
3 *3793:B1 4.30992e-05
4 *3849:B1 0.000620871
5 *3661:D 0
6 *3679:B 9.97899e-05
7 *3682:A1_N 0
8 *3846:A2 6.69183e-05
9 *3807:D 8.02108e-05
10 *3859:A1 7.18893e-05
11 *3660:X 0
12 *214:130 0.000336697
13 *214:100 0.00198088
14 *214:88 0.00170745
15 *214:77 0.000714965
16 *214:57 0.000710831
17 *214:47 0.00181014
18 *214:25 0.0010345
19 *214:6 0.0021933
20 *214:4 0.00194956
21 *3673:A3 *3673:B1 0.000114996
22 *3673:A3 *3676:B1 4.82863e-05
23 *3673:A3 *3677:B 0.00012657
24 *3673:A3 *3684:B1 0
25 *3676:A2 *3673:B1 4.00541e-06
26 *3679:B *3683:B1 3.60815e-05
27 *3679:B *275:10 0
28 *3679:B *303:20 0.00019541
29 *3793:B1 *245:23 3.97211e-05
30 *3793:B1 *249:96 2.49909e-05
31 *3793:B1 *272:14 4.13879e-05
32 *3846:A2 *3846:A1 8.72665e-06
33 *3846:A2 *245:31 4.47504e-06
34 *3846:A2 *245:33 1.94892e-05
35 *3849:B1 *3849:B2 4.66108e-05
36 *3849:B1 *245:29 0.0004455
37 *3849:B1 *279:35 5.90938e-05
38 *214:6 *3702:A1 2.26018e-05
39 *214:6 *3702:A2 5.062e-06
40 *214:6 *3702:B1 2.11084e-05
41 *214:6 *3702:B2 5.0751e-05
42 *214:6 *3709:A3 0.000153217
43 *214:6 *243:26 1.83463e-05
44 *214:6 *255:6 0.00012657
45 *214:25 *3731:B1 0
46 *214:25 *3807:B 5.21545e-05
47 *214:25 *3871:A1 0
48 *214:25 *3873:A1 0
49 *214:25 *3889:A 1.22505e-05
50 *214:25 *243:43 8.97868e-05
51 *214:25 *245:33 8.76033e-05
52 *214:25 *245:37 0.000685562
53 *214:25 *279:12 0.00011379
54 *214:47 *3875:CLK 0.000146392
55 *214:47 *243:26 7.59416e-05
56 *214:57 *3681:A2 8.16102e-05
57 *214:57 *3682:A2_N 1.17653e-05
58 *214:57 *3682:B1 4.92062e-05
59 *214:57 *3875:RESET_B 7.06865e-05
60 *214:57 *3891:A 0.000239813
61 *214:57 *293:6 0.000107704
62 *214:77 *3661:A 9.50342e-06
63 *214:77 *3664:C_N 8.18098e-05
64 *214:77 *3727:A 0
65 *214:77 *3875:D 0
66 *214:77 *3875:RESET_B 9.16314e-05
67 *214:77 *217:21 4.40812e-05
68 *214:77 *251:21 0
69 *214:77 *265:31 0.000118735
70 *214:77 *301:98 0.000247567
71 *214:77 *301:115 4.29069e-05
72 *214:88 *3661:A 0.000252282
73 *214:88 *3727:A 0
74 *214:88 *247:112 0.000150881
75 *214:88 *279:35 5.16348e-05
76 *214:88 *296:38 0.000242779
77 *214:88 *296:40 0.000107627
78 *214:100 *245:29 3.23812e-05
79 *214:100 *246:85 6.03407e-05
80 *3673:A1 *3673:A3 4.82863e-05
81 *3673:A2 *3673:A3 2.18022e-05
82 *3673:A2 *3676:A2 9.53428e-06
83 *3673:A2 *214:130 1.34503e-05
84 *3715:A *214:6 9.91257e-05
85 *3720:C *214:25 0.000167031
86 *3725:B1_N *214:88 6.30136e-05
87 *3725:B1_N *214:100 0
88 *3732:A *214:25 8.35263e-05
89 *3742:A1 *214:100 2.05056e-05
90 *3742:A2 *214:100 4.43467e-05
91 *3742:B1 *214:100 4.82919e-05
92 *3743:B *214:100 0
93 *3826:B1 *214:25 0.000117832
94 *3833:A1 *3849:B1 6.03272e-05
95 *3845:A1 *3849:B1 0.000160635
96 *3849:A2 *3846:A2 1.15688e-05
97 *3856:C *214:25 6.86819e-05
98 *3859:A2 *214:25 2.66861e-05
99 *3859:B1 *3859:A1 5.83121e-06
100 *3859:B1 *214:6 0.000186204
101 *3859:B1 *214:25 0
102 *3861:A2 *3679:B 2.8377e-05
103 *3880:D *214:25 0
104 *72:20 *214:88 0
105 *73:12 *214:77 0
106 *89:8 *214:100 1.96098e-05
107 *162:16 *3849:B1 8.17606e-05
108 *163:8 *3849:B1 2.92496e-05
109 *179:39 *214:25 0
110 *180:16 *3807:D 4.82863e-05
111 *180:16 *3846:A2 0.000183745
112 *180:16 *214:25 0.000105163
113 *192:12 *3846:A2 6.74079e-05
114 *209:16 *3859:A1 1.17309e-05
115 *209:16 *214:6 0.000167636
116 *213:42 *3807:D 1.34594e-05
117 *213:89 *214:88 5.64057e-05
118 *213:108 *214:77 0
119 *213:138 *214:100 0.000118081
120 *213:138 *214:130 0.000262102
*RES
1 *3660:X *214:4 1.6 
2 *214:4 *214:6 16.32 
3 *214:6 *3859:A1 2.665 
4 *214:6 *214:25 23.62 
5 *214:25 *3807:D 2.74 
6 *214:25 *3846:A2 8 
7 *214:4 *214:47 10.73 
8 *214:47 *214:57 12.4062 
9 *214:57 *3682:A1_N 1.6 
10 *214:57 *3679:B 8 
11 *214:47 *214:77 10.56 
12 *214:77 *3661:D 3.6 
13 *214:77 *214:88 8.99 
14 *214:88 *214:100 8.02503 
15 *214:100 *3849:B1 8.1891 
16 *214:100 *3793:B1 5.0375 
17 *214:88 *214:130 2.865 
18 *214:130 *3676:A2 1.96 
19 *214:130 *3673:A3 5.17 
*END

*D_NET *215 0.00122232
*CONN
*I *3670:B I *D sky130_fd_sc_hd__nand2_1
*I *3662:C I *D sky130_fd_sc_hd__or3_1
*I *3668:A2 I *D sky130_fd_sc_hd__o21a_1
*I *3661:X O *D sky130_fd_sc_hd__or4_1
*CAP
1 *3670:B 9.44668e-05
2 *3662:C 0
3 *3668:A2 2.40487e-05
4 *3661:X 8.88903e-05
5 *215:12 7.72713e-05
6 *215:8 0.00023658
7 *3668:A2 *3662:A 4.66742e-05
8 *3668:A2 *3668:A1 3.39603e-05
9 *3668:A2 *300:96 2.16833e-05
10 *3668:A2 *300:109 1.16578e-05
11 *3670:B *3671:B 0.000117832
12 *3670:B *217:97 4.58014e-05
13 *3670:B *217:116 1.01661e-05
14 *3670:B *300:45 7.16181e-05
15 *215:8 *3671:A 0.000120655
16 *215:12 *217:97 4.19967e-05
17 *213:108 *3670:B 6.45236e-05
18 *213:108 *215:12 0.000114492
*RES
1 *3661:X *215:8 4.74 
2 *215:8 *215:12 3.38 
3 *215:12 *3668:A2 2.395 
4 *215:12 *3662:C 1.6 
5 *215:8 *3670:B 6.51 
*END

*D_NET *216 0.00102119
*CONN
*I *3665:B I *D sky130_fd_sc_hd__nand2_1
*I *3664:B I *D sky130_fd_sc_hd__or3b_2
*I *3662:X O *D sky130_fd_sc_hd__or3_1
*CAP
1 *3665:B 6.01564e-05
2 *3664:B 0.000197101
3 *3662:X 0
4 *216:4 0.000257258
5 *3664:B *3666:A 0.000181383
6 *3664:B *3666:B 3.59997e-05
7 *3664:B *3687:C1 0
8 *3664:B *3689:B1 0
9 *3664:B *217:95 8.53113e-06
10 *3664:B *243:14 4.18603e-06
11 *3664:B *302:18 5.39961e-05
12 *3665:B *3662:B 5.29568e-05
13 *3665:B *3665:A 4.99619e-05
14 *3665:B *3867:A1 0.00011966
15 *213:108 *3664:B 0
*RES
1 *3662:X *216:4 1.6 
2 *216:4 *3664:B 9.785 
3 *216:4 *3665:B 3.265 
*END

*D_NET *217 0.0120314
*CONN
*I *3668:B1 I *D sky130_fd_sc_hd__o21a_1
*I *3665:A I *D sky130_fd_sc_hd__nand2_1
*I *3673:B1 I *D sky130_fd_sc_hd__o31a_1
*I *3676:B1 I *D sky130_fd_sc_hd__o21a_1
*I *3670:A I *D sky130_fd_sc_hd__nand2_1
*I *3818:B1 I *D sky130_fd_sc_hd__o21ai_1
*I *3707:B I *D sky130_fd_sc_hd__and3_1
*I *3731:A2 I *D sky130_fd_sc_hd__a21oi_1
*I *3873:A1 I *D sky130_fd_sc_hd__a31o_1
*I *3664:C_N I *D sky130_fd_sc_hd__or3b_2
*I *3663:X O *D sky130_fd_sc_hd__buf_2
*CAP
1 *3668:B1 0
2 *3665:A 0.000145261
3 *3673:B1 0.00010519
4 *3676:B1 1.02919e-05
5 *3670:A 4.66305e-05
6 *3818:B1 0
7 *3707:B 0
8 *3731:A2 0.000115151
9 *3873:A1 0.000223103
10 *3664:C_N 0.000309339
11 *3663:X 0
12 *217:116 0.00033952
13 *217:97 0.000474861
14 *217:95 0.000642187
15 *217:85 0.000441681
16 *217:47 0.000698066
17 *217:43 0.00146969
18 *217:27 0.00144425
19 *217:21 0.000541234
20 *217:6 0.000367261
21 *3664:C_N *302:28 0.000389572
22 *3664:C_N *302:41 0
23 *3665:A *3867:A1 4.60584e-05
24 *3670:A *272:20 3.42583e-05
25 *3673:B1 *3684:A2 0
26 *3731:A2 *3731:B1 0.000147176
27 *3873:A1 *3731:B1 0.000186787
28 *3873:A1 *243:43 0.000138799
29 *217:27 *3695:A 4.80285e-05
30 *217:27 *246:42 6.12852e-05
31 *217:27 *248:10 8.49205e-05
32 *217:27 *300:51 0.000130903
33 *217:27 *300:57 6.74457e-05
34 *217:43 *3697:B1 1.44259e-05
35 *217:43 *3697:B2 6.83488e-05
36 *217:43 *3735:B 0.000111459
37 *217:43 *3817:A 0.000427094
38 *217:43 *302:50 2.75229e-05
39 *217:43 *302:52 0.00023983
40 *217:43 *302:54 0.000153144
41 *217:85 *300:51 0.00027209
42 *217:95 *3662:B 0
43 *217:95 *3687:C1 0
44 *217:95 *300:51 9.27255e-06
45 *217:95 *300:96 0.00017985
46 *217:95 *300:109 2.30292e-05
47 *217:97 *3671:B 6.47594e-05
48 *217:97 *3687:B2 0
49 *217:97 *3687:C1 0
50 *217:97 *225:12 4.70343e-05
51 *217:116 *3674:B 6.74079e-05
52 *217:116 *225:12 1.22762e-05
53 *217:116 *265:42 2.75538e-05
54 *217:116 *300:43 7.63204e-05
55 *217:116 *300:45 0
56 *3664:B *217:95 8.53113e-06
57 *3665:B *3665:A 4.99619e-05
58 *3670:B *217:97 4.58014e-05
59 *3670:B *217:116 1.01661e-05
60 *3673:A1 *3673:B1 4.82863e-05
61 *3673:A2 *3673:B1 0.000199833
62 *3673:A2 *3676:B1 2.16833e-05
63 *3673:A3 *3673:B1 0.000114996
64 *3673:A3 *3676:B1 4.82863e-05
65 *3676:A2 *3673:B1 4.00541e-06
66 *3714:A *217:43 0.000120655
67 *3719:A2 *217:43 0.000162311
68 *3719:A2 *217:47 4.35432e-05
69 *3818:A2 *217:27 8.65905e-05
70 *3818:A2 *217:43 4.82919e-05
71 *59:14 *217:43 8.65905e-05
72 *66:10 *217:43 5.29667e-05
73 *68:14 *217:43 4.99619e-05
74 *73:12 *3664:C_N 4.18603e-06
75 *73:12 *217:21 3.98952e-05
76 *165:6 *217:27 3.83041e-05
77 *165:6 *217:43 4.82919e-05
78 *211:14 *3731:A2 0
79 *211:14 *3873:A1 0
80 *211:73 *3731:A2 0
81 *212:24 *217:97 0
82 *212:24 *217:116 0
83 *214:25 *3873:A1 0
84 *214:77 *3664:C_N 8.18098e-05
85 *214:77 *217:21 4.40812e-05
86 *215:12 *217:97 4.19967e-05
*RES
1 *3663:X *217:6 3.6 
2 *217:6 *3664:C_N 9.555 
3 *217:6 *217:21 3.38 
4 *217:21 *217:27 6.78 
5 *217:27 *217:43 22.285 
6 *217:43 *217:47 5.9 
7 *217:47 *3873:A1 8.43 
8 *217:47 *3731:A2 5.79 
9 *217:43 *3707:B 1.6 
10 *217:27 *3818:B1 1.6 
11 *217:21 *217:85 3.135 
12 *217:85 *217:95 6.11 
13 *217:95 *217:97 4.185 
14 *217:97 *3670:A 4.665 
15 *217:97 *217:116 6.44 
16 *217:116 *3676:B1 2.05 
17 *217:116 *3673:B1 4.84 
18 *217:95 *3665:A 5.895 
19 *217:85 *3668:B1 1.6 
*END

*D_NET *218 0.00118063
*CONN
*I *3689:A2 I *D sky130_fd_sc_hd__a21oi_4
*I *3688:A2 I *D sky130_fd_sc_hd__o22a_1
*I *3664:X O *D sky130_fd_sc_hd__or3b_2
*CAP
1 *3689:A2 2.946e-05
2 *3688:A2 7.69707e-05
3 *3664:X 0.000364897
4 *218:12 0.000471328
5 *3688:A2 *3688:B2 5.72004e-05
6 *3688:A2 *3689:A1 7.4027e-05
7 *3688:A2 *3689:B1 0
8 *218:12 *3689:A1 4.42213e-05
9 *218:12 *243:14 1.83756e-05
10 *218:12 *302:28 4.41506e-05
*RES
1 *3664:X *218:12 7.015 
2 *218:12 *3688:A2 7.235 
3 *218:12 *3689:A2 2.05 
*END

*D_NET *219 0.000355462
*CONN
*I *3666:B I *D sky130_fd_sc_hd__xor2_1
*I *3665:Y O *D sky130_fd_sc_hd__nand2_1
*CAP
1 *3666:B 8.10063e-05
2 *3665:Y 8.10063e-05
3 *3666:B *3687:C1 5.13155e-05
4 *3666:B *220:8 0
5 *3666:B *223:10 5.30673e-05
6 *3666:B *262:38 5.30673e-05
7 *3664:B *3666:B 3.59997e-05
*RES
1 *3665:Y *3666:B 9.48 
*END

*D_NET *220 0.00128215
*CONN
*I *3667:B I *D sky130_fd_sc_hd__and2_1
*I *3687:A2 I *D sky130_fd_sc_hd__o221a_1
*I *3666:X O *D sky130_fd_sc_hd__xor2_1
*CAP
1 *3667:B 0.000153728
2 *3687:A2 0
3 *3666:X 7.34211e-05
4 *220:8 0.000227149
5 *3667:B *3687:A1 0.000231977
6 *3667:B *3867:A1 0.000163992
7 *3667:B *262:38 0.000176511
8 *220:8 *3686:A2 2.75229e-05
9 *220:8 *223:10 3.23663e-05
10 *220:8 *262:38 0.000195482
11 *3666:B *220:8 0
*RES
1 *3666:X *220:8 3.79 
2 *220:8 *3687:A2 1.6 
3 *220:8 *3667:B 10.715 
*END

*D_NET *221 0.00079126
*CONN
*I *3688:B1 I *D sky130_fd_sc_hd__o22a_1
*I *3667:X O *D sky130_fd_sc_hd__and2_1
*CAP
1 *3688:B1 0.000251112
2 *3667:X 0.000251112
3 *3688:B1 *3683:B1 7.4027e-05
4 *3688:B1 *3688:A1 5.05521e-05
5 *3688:B1 *3688:B2 5.66262e-05
6 *3688:B1 *3867:A1 7.4027e-05
7 *209:98 *3688:B1 1.33293e-05
8 *209:115 *3688:B1 2.04748e-05
*RES
1 *3667:X *3688:B1 11.91 
*END

*D_NET *222 0.000465453
*CONN
*I *3669:B I *D sky130_fd_sc_hd__xnor2_1
*I *3668:X O *D sky130_fd_sc_hd__o21a_1
*CAP
1 *3669:B 7.74951e-05
2 *3668:X 7.74951e-05
3 *3669:B *262:38 4.66826e-05
4 *3669:B *265:31 9.47454e-05
5 *3669:B *301:94 4.66108e-05
6 *3669:B *301:98 9.47454e-05
7 *3669:B *303:34 2.76781e-05
*RES
1 *3668:X *3669:B 9.48 
*END

*D_NET *223 0.00179354
*CONN
*I *3687:B1 I *D sky130_fd_sc_hd__o221a_1
*I *3686:A2 I *D sky130_fd_sc_hd__a22o_1
*I *3669:Y O *D sky130_fd_sc_hd__xnor2_1
*CAP
1 *3687:B1 0
2 *3686:A2 0.000148331
3 *3669:Y 0.000314927
4 *223:10 0.000463258
5 *3686:A2 *3683:B1 0
6 *3686:A2 *3686:A1 5.4155e-06
7 *3686:A2 *3687:B2 0.00016163
8 *3686:A2 *3687:C1 0.000314438
9 *223:10 *3666:A 4.66108e-05
10 *223:10 *3687:A1 0
11 *223:10 *262:38 2.30324e-05
12 *223:10 *303:34 0.000202945
13 *3666:B *223:10 5.30673e-05
14 *220:8 *3686:A2 2.75229e-05
15 *220:8 *223:10 3.23663e-05
*RES
1 *3669:Y *223:10 7.255 
2 *223:10 *3686:A2 10.34 
3 *223:10 *3687:B1 1.6 
*END

*D_NET *224 0.000257067
*CONN
*I *3671:B I *D sky130_fd_sc_hd__xor2_1
*I *3670:Y O *D sky130_fd_sc_hd__nand2_1
*CAP
1 *3671:B 3.72377e-05
2 *3670:Y 3.72377e-05
3 *3670:B *3671:B 0.000117832
4 *217:97 *3671:B 6.47594e-05
*RES
1 *3670:Y *3671:B 8.58 
*END

*D_NET *225 0.00104219
*CONN
*I *3685:A2 I *D sky130_fd_sc_hd__a22o_1
*I *3672:B I *D sky130_fd_sc_hd__or2_1
*I *3671:X O *D sky130_fd_sc_hd__xor2_1
*CAP
1 *3685:A2 0
2 *3672:B 0.000106302
3 *3671:X 0.000133049
4 *225:12 0.000239351
5 *3672:B *3672:A 6.20787e-05
6 *3672:B *3685:B2 4.99619e-05
7 *3672:B *3686:B2 2.49909e-05
8 *3672:B *272:20 2.16917e-05
9 *225:12 *3686:B2 3.09088e-05
10 *225:12 *272:20 0.000235573
11 *212:24 *225:12 7.89689e-05
12 *217:97 *225:12 4.70343e-05
13 *217:116 *225:12 1.22762e-05
*RES
1 *3671:X *225:12 9.41 
2 *225:12 *3672:B 4.15 
3 *225:12 *3685:A2 1.6 
*END

*D_NET *226 0.000846211
*CONN
*I *3686:B1 I *D sky130_fd_sc_hd__a22o_1
*I *3672:X O *D sky130_fd_sc_hd__or2_1
*CAP
1 *3686:B1 0.000274064
2 *3672:X 0.000274064
3 *3686:B1 *3683:B1 5.63405e-05
4 *3686:B1 *3686:A1 1.08758e-05
5 *3686:B1 *3686:B2 4.99619e-05
6 *3686:B1 *3863:A3 0
7 *3686:B1 *3883:CLK 1.37526e-05
8 *3863:A1 *3686:B1 0.000167153
9 *3865:A2 *3686:B1 0
*RES
1 *3672:X *3686:B1 12.405 
*END

*D_NET *227 0.000196197
*CONN
*I *3674:B I *D sky130_fd_sc_hd__xnor2_1
*I *3673:X O *D sky130_fd_sc_hd__o31a_1
*CAP
1 *3674:B 3.98349e-05
2 *3673:X 3.98349e-05
3 *212:24 *3674:B 4.91189e-05
4 *217:116 *3674:B 6.74079e-05
*RES
1 *3673:X *3674:B 8.58 
*END

*D_NET *228 0.00122615
*CONN
*I *3675:B I *D sky130_fd_sc_hd__or2_1
*I *3684:A2 I *D sky130_fd_sc_hd__a22o_1
*I *3674:Y O *D sky130_fd_sc_hd__xnor2_1
*CAP
1 *3675:B 2.42975e-05
2 *3684:A2 0.000134407
3 *3674:Y 0.000151616
4 *228:8 0.00031032
5 *3675:B *3865:A1 2.05056e-05
6 *3684:A2 *3675:A 0.000141606
7 *3684:A2 *3683:B1 0.000141606
8 *3684:A2 *3685:B2 5.83121e-06
9 *3684:A2 *271:20 5.22973e-05
10 *228:8 *3674:A 0
11 *228:8 *3865:A1 0.00024366
12 *3673:B1 *3684:A2 0
*RES
1 *3674:Y *228:8 4.735 
2 *228:8 *3684:A2 9.005 
3 *228:8 *3675:B 2.05 
*END

*D_NET *229 0.000259454
*CONN
*I *3685:B1 I *D sky130_fd_sc_hd__a22o_1
*I *3675:X O *D sky130_fd_sc_hd__or2_1
*CAP
1 *3685:B1 3.93687e-05
2 *3675:X 3.93687e-05
3 *3685:B1 *3685:B2 0.000117832
4 *3685:B1 *273:10 6.28843e-05
*RES
1 *3675:X *3685:B1 8.58 
*END

*D_NET *230 0.00055092
*CONN
*I *3677:B I *D sky130_fd_sc_hd__xnor2_1
*I *3676:X O *D sky130_fd_sc_hd__o21a_1
*CAP
1 *3677:B 0.000146197
2 *3676:X 0.000146197
3 *3677:B *300:43 0
4 *3673:A3 *3677:B 0.00012657
5 *212:12 *3677:B 1.34361e-05
6 *212:16 *3677:B 0.00011852
*RES
1 *3676:X *3677:B 9.975 
*END

*D_NET *231 0.00102149
*CONN
*I *3683:A2 I *D sky130_fd_sc_hd__a21o_1
*I *3678:B I *D sky130_fd_sc_hd__or2_1
*I *3677:Y O *D sky130_fd_sc_hd__xnor2_1
*CAP
1 *3683:A2 0.000207563
2 *3678:B 0
3 *3677:Y 0.000188601
4 *231:8 0.000396164
5 *3683:A2 *3683:A1 0
6 *3683:A2 *271:20 1.85674e-05
7 *3683:A2 *279:37 8.31082e-05
8 *231:8 *279:37 0.000127485
*RES
1 *3677:Y *231:8 4.825 
2 *231:8 *3678:B 1.6 
3 *231:8 *3683:A2 9.17 
*END

*D_NET *232 0.000269052
*CONN
*I *3684:B1 I *D sky130_fd_sc_hd__a22o_1
*I *3678:X O *D sky130_fd_sc_hd__or2_1
*CAP
1 *3684:B1 8.74042e-05
2 *3678:X 8.74042e-05
3 *3684:B1 *3683:A1 4.05358e-05
4 *3684:B1 *271:20 5.37074e-05
5 *3684:B1 *273:10 0
6 *3673:A3 *3684:B1 0
*RES
1 *3678:X *3684:B1 8.88 
*END

*D_NET *233 0.000350099
*CONN
*I *3680:B I *D sky130_fd_sc_hd__xor2_1
*I *3679:Y O *D sky130_fd_sc_hd__nand2_1
*CAP
1 *3680:B 5.16702e-05
2 *3679:Y 5.16702e-05
3 *3680:B *3679:A 4.66108e-05
4 *3680:B *3891:A 0.000109377
5 *3680:B *303:34 9.07709e-05
*RES
1 *3679:Y *3680:B 5.03 
*END

*D_NET *234 0.000877952
*CONN
*I *3681:A2 I *D sky130_fd_sc_hd__a21oi_1
*I *3682:B1 I *D sky130_fd_sc_hd__o2bb2a_1
*I *3680:X O *D sky130_fd_sc_hd__xor2_1
*CAP
1 *3681:A2 0.000114635
2 *3682:B1 4.08253e-05
3 *3680:X 6.00421e-05
4 *234:10 0.000215502
5 *3681:A2 *3682:A2_N 8.96403e-05
6 *3681:A2 *3683:B1 4.99619e-05
7 *234:10 *3891:A 4.1978e-05
8 *234:10 *276:14 0.000134551
9 *234:10 *302:18 0
10 *214:57 *3681:A2 8.16102e-05
11 *214:57 *3682:B1 4.92062e-05
*RES
1 *3680:X *234:10 7.235 
2 *234:10 *3682:B1 2.395 
3 *234:10 *3681:A2 4.135 
*END

*D_NET *235 0.000531189
*CONN
*I *3682:A2_N I *D sky130_fd_sc_hd__o2bb2a_1
*I *3681:Y O *D sky130_fd_sc_hd__a21oi_1
*CAP
1 *3682:A2_N 0.000214892
2 *3681:Y 0.000214892
3 *3681:A2 *3682:A2_N 8.96403e-05
4 *214:57 *3682:A2_N 1.17653e-05
*RES
1 *3681:Y *3682:A2_N 6.815 
*END

*D_NET *236 0.00327259
*CONN
*I *3683:B1 I *D sky130_fd_sc_hd__a21o_1
*I *3682:X O *D sky130_fd_sc_hd__o2bb2a_1
*CAP
1 *3683:B1 0.000971708
2 *3682:X 0.000971708
3 *3683:B1 *3675:A 3.76518e-05
4 *3683:B1 *3684:B2 4.99619e-05
5 *3683:B1 *3685:B2 4.62396e-05
6 *3683:B1 *3686:B2 0
7 *3683:B1 *3687:B2 0
8 *3683:B1 *3688:B2 0.000320834
9 *3683:B1 *3867:A1 0.000248291
10 *3683:B1 *3883:CLK 0
11 *3683:B1 *271:20 0.000104306
12 *3683:B1 *273:10 0
13 *3683:B1 *275:10 0
14 *3679:B *3683:B1 3.60815e-05
15 *3681:A2 *3683:B1 4.99619e-05
16 *3684:A2 *3683:B1 0.000141606
17 *3686:A2 *3683:B1 0
18 *3686:B1 *3683:B1 5.63405e-05
19 *3688:B1 *3683:B1 7.4027e-05
20 *3861:A1 *3683:B1 6.16226e-06
21 *3861:A2 *3683:B1 0.000157707
22 *3861:B1 *3683:B1 0
*RES
1 *3682:X *3683:B1 27.45 
*END

*D_NET *237 0.000111545
*CONN
*I *3684:B2 I *D sky130_fd_sc_hd__a22o_1
*I *3683:X O *D sky130_fd_sc_hd__a21o_1
*CAP
1 *3684:B2 5.81042e-06
2 *3683:X 5.81042e-06
3 *3684:B2 *271:20 4.99619e-05
4 *3683:B1 *3684:B2 4.99619e-05
*RES
1 *3683:X *3684:B2 3.65 
*END

*D_NET *238 0.000905411
*CONN
*I *3685:B2 I *D sky130_fd_sc_hd__a22o_1
*I *3684:X O *D sky130_fd_sc_hd__a22o_1
*CAP
1 *3685:B2 0.000203535
2 *3684:X 0.000203535
3 *3685:B2 *3672:A 4.82919e-05
4 *3685:B2 *3675:A 0.000160651
5 *3685:B2 *273:10 6.95335e-05
6 *3672:B *3685:B2 4.99619e-05
7 *3683:B1 *3685:B2 4.62396e-05
8 *3684:A2 *3685:B2 5.83121e-06
9 *3685:B1 *3685:B2 0.000117832
*RES
1 *3684:X *3685:B2 11.865 
*END

*D_NET *239 0.000674437
*CONN
*I *3686:B2 I *D sky130_fd_sc_hd__a22o_1
*I *3685:X O *D sky130_fd_sc_hd__a22o_1
*CAP
1 *3686:B2 0.000186601
2 *3685:X 0.000186601
3 *3686:B2 *3687:B2 3.09233e-05
4 *3686:B2 *273:10 0.000116158
5 *3672:B *3686:B2 2.49909e-05
6 *3683:B1 *3686:B2 0
7 *3686:B1 *3686:B2 4.99619e-05
8 *3863:A1 *3686:B2 4.82919e-05
9 *225:12 *3686:B2 3.09088e-05
*RES
1 *3685:X *3686:B2 10.425 
*END

*D_NET *240 0.000777029
*CONN
*I *3687:C1 I *D sky130_fd_sc_hd__o221a_1
*I *3686:X O *D sky130_fd_sc_hd__a22o_1
*CAP
1 *3687:C1 0.00019645
2 *3686:X 0.00019645
3 *3664:B *3687:C1 0
4 *3666:B *3687:C1 5.13155e-05
5 *3686:A2 *3687:C1 0.000314438
6 *3863:A1 *3687:C1 1.83756e-05
7 *217:95 *3687:C1 0
8 *217:97 *3687:C1 0
*RES
1 *3686:X *3687:C1 11.325 
*END

*D_NET *241 0.00113182
*CONN
*I *3688:B2 I *D sky130_fd_sc_hd__o22a_1
*I *3687:X O *D sky130_fd_sc_hd__o221a_1
*CAP
1 *3688:B2 0.000200376
2 *3687:X 0.000200376
3 *3688:B2 *3688:A1 8.65961e-05
4 *3688:B2 *3689:A1 0
5 *3683:B1 *3688:B2 0.000320834
6 *3688:A2 *3688:B2 5.72004e-05
7 *3688:B1 *3688:B2 5.66262e-05
8 *209:98 *3688:B2 0.000198939
9 *209:115 *3688:B2 1.08758e-05
*RES
1 *3687:X *3688:B2 13.425 
*END

*D_NET *242 0.000346154
*CONN
*I *3689:B1 I *D sky130_fd_sc_hd__a21oi_4
*I *3688:X O *D sky130_fd_sc_hd__o22a_1
*CAP
1 *3689:B1 0.000132762
2 *3688:X 0.000132762
3 *3689:B1 *3689:A1 0
4 *3689:B1 *243:14 7.4027e-05
5 *3664:B *3689:B1 0
6 *3688:A2 *3689:B1 0
7 *209:98 *3689:B1 6.60261e-06
*RES
1 *3688:X *3689:B1 9.285 
*END

*D_NET *243 0.0157303
*CONN
*I *3865:A3 I *D sky130_fd_sc_hd__a31o_1
*I *3863:A3 I *D sky130_fd_sc_hd__a31o_1
*I *3867:A3 I *D sky130_fd_sc_hd__a31o_1
*I *3861:A3 I *D sky130_fd_sc_hd__a31o_1
*I *3873:A3 I *D sky130_fd_sc_hd__a31o_1
*I *3856:B I *D sky130_fd_sc_hd__or3_1
*I *3690:B I *D sky130_fd_sc_hd__nor2_1
*I *3871:A3 I *D sky130_fd_sc_hd__a31o_1
*I *3869:A3 I *D sky130_fd_sc_hd__a31o_1
*I *3859:A3 I *D sky130_fd_sc_hd__a31o_1
*I *3689:Y O *D sky130_fd_sc_hd__a21oi_4
*CAP
1 *3865:A3 0.000161553
2 *3863:A3 7.48422e-05
3 *3867:A3 5.66344e-05
4 *3861:A3 1.49415e-05
5 *3873:A3 2.08101e-05
6 *3856:B 9.5194e-05
7 *3690:B 0
8 *3871:A3 2.3184e-05
9 *3869:A3 2.25965e-05
10 *3859:A3 5.47405e-06
11 *3689:Y 0.000221876
12 *243:130 0.000428105
13 *243:117 0.000370024
14 *243:104 0.000595676
15 *243:79 0.000369805
16 *243:55 0.00037913
17 *243:47 0.000717373
18 *243:43 0.00056976
19 *243:26 0.00280069
20 *243:14 0.00303661
21 *3859:A3 *3871:A1 9.26907e-06
22 *3865:A3 *3883:CLK 0.000169762
23 *3867:A3 *3867:A1 0.000122331
24 *243:14 *3689:A1 0
25 *243:14 *276:14 0
26 *243:14 *302:18 0
27 *243:26 *3702:B1 0
28 *243:26 *3703:A_N 0
29 *243:26 *3704:B 9.50342e-06
30 *243:26 *3709:A3 5.43769e-05
31 *243:26 *3871:A1 0.00076442
32 *243:26 *3875:CLK 0.000207896
33 *243:26 *255:6 1.7386e-05
34 *243:26 *277:22 8.76457e-05
35 *243:26 *301:27 1.41896e-05
36 *243:26 *303:34 0.000198939
37 *243:43 *3707:C 3.07153e-05
38 *243:43 *3871:A1 2.90542e-05
39 *243:55 *3691:B1_N 0.000136748
40 *243:55 *3869:A1 0
41 *243:55 *261:16 2.12146e-07
42 *243:79 *3874:CLK 0.000106285
43 *243:79 *244:39 5.16418e-05
44 *243:79 *261:10 0.000116158
45 *243:79 *261:16 0.000118534
46 *243:79 *261:64 0.000358243
47 *243:104 *3891:A 1.32765e-05
48 *243:104 *303:34 0.000263884
49 *243:117 *3881:CLK 0.000162916
50 *243:117 *3891:A 1.03423e-05
51 *243:130 *3881:CLK 9.766e-05
52 *243:130 *262:40 0.000139843
53 *3656:A *243:79 0
54 *3664:B *243:14 4.18603e-06
55 *3686:B1 *3863:A3 0
56 *3689:B1 *243:14 7.4027e-05
57 *3691:A2 *243:55 3.62454e-05
58 *3856:C *3856:B 2.09263e-05
59 *3857:A1 *3856:B 0
60 *3859:A2 *3859:A3 1.92979e-05
61 *3859:A2 *243:43 1.92979e-05
62 *3861:A2 *243:104 3.24055e-05
63 *3861:B1 *3861:A3 1.37328e-05
64 *3861:B1 *243:104 8.65905e-05
65 *3863:A1 *3863:A3 5.83121e-06
66 *3863:B1 *3865:A3 2.30797e-05
67 *3863:B1 *243:130 0.000273008
68 *3865:A2 *3863:A3 3.70572e-05
69 *3865:A2 *3865:A3 0
70 *3867:A2 *3867:A3 3.45679e-05
71 *3868:A *3869:A3 6.90876e-05
72 *3868:A *3871:A3 4.83186e-05
73 *3869:A2 *3869:A3 7.00889e-06
74 *3869:A2 *3871:A3 0
75 *3871:A2 *3871:A3 9.47099e-06
76 *3873:A1 *243:43 0.000138799
77 *3873:B1 *243:43 0
78 *3881:D *3861:A3 0
79 *3881:D *243:104 0
80 *3881:D *243:117 4.82863e-05
81 *3883:D *3865:A3 2.11084e-05
82 *3887:D *243:47 2.75229e-05
83 *3887:D *243:55 6.33103e-05
84 *209:16 *243:26 0.000177439
85 *209:35 *3869:A3 6.6564e-05
86 *209:35 *3871:A3 4.26056e-05
87 *209:74 *243:79 0
88 *209:115 *3867:A3 1.56428e-05
89 *209:121 *3865:A3 3.09233e-05
90 *209:121 *243:117 5.4003e-05
91 *209:121 *243:130 0.00069266
92 *210:10 *243:55 5.88411e-05
93 *211:14 *243:43 0
94 *211:14 *243:79 0
95 *211:73 *243:79 0
96 *213:108 *243:26 2.0514e-05
97 *214:6 *243:26 1.83463e-05
98 *214:25 *243:43 8.97868e-05
99 *214:47 *243:26 7.59416e-05
100 *218:12 *243:14 1.83756e-05
*RES
1 *3689:Y *243:14 9.32 
2 *243:14 *243:26 22.9244 
3 *243:26 *3859:A3 3.8325 
4 *243:26 *243:43 9.5525 
5 *243:43 *243:47 1.5 
6 *243:47 *243:55 9.25 
7 *243:55 *3869:A3 2.74 
8 *243:55 *3871:A3 2.68 
9 *243:47 *243:79 10.735 
10 *243:79 *3690:B 1.6 
11 *243:79 *3856:B 2.92 
12 *243:43 *3873:A3 1.96 
13 *243:14 *243:104 5.985 
14 *243:104 *3861:A3 1.96 
15 *243:104 *243:117 4.775 
16 *243:117 *3867:A3 5.1 
17 *243:117 *243:130 8.01 
18 *243:130 *3863:A3 4.755 
19 *243:130 *3865:A3 7.14 
*END

*D_NET *244 0.00562538
*CONN
*I *3851:B1 I *D sky130_fd_sc_hd__a22o_1
*I *3847:B1 I *D sky130_fd_sc_hd__a22o_1
*I *3855:B1 I *D sky130_fd_sc_hd__a22o_1
*I *3691:B1_N I *D sky130_fd_sc_hd__o21ba_1
*I *3690:Y O *D sky130_fd_sc_hd__nor2_1
*CAP
1 *3851:B1 0.000153176
2 *3847:B1 0.000429821
3 *3855:B1 3.81447e-05
4 *3691:B1_N 0.000541475
5 *3690:Y 0
6 *244:54 0.000607329
7 *244:39 0.000507518
8 *244:4 0.000986515
9 *3691:B1_N *3691:A1 0.000265607
10 *3691:B1_N *3872:B 4.99619e-05
11 *3691:B1_N *293:61 0
12 *3691:B1_N *301:10 0
13 *3847:B1 *3847:A2 0.00012657
14 *3847:B1 *3855:A2 0.000187759
15 *3847:B1 *3878:CLK 0.000116151
16 *3847:B1 *3878:RESET_B 3.98952e-05
17 *3847:B1 *261:92 5.30144e-05
18 *3847:B1 *301:10 0
19 *3851:B1 *3851:A2 2.0046e-05
20 *3855:B1 *3851:A2 0
21 *244:39 *261:64 0.000191316
22 *244:39 *261:79 0
23 *244:39 *261:92 3.14025e-05
24 *244:54 *261:92 6.45236e-05
25 *3690:A *244:39 3.73349e-05
26 *3691:A2 *3691:B1_N 3.59531e-06
27 *3847:A1 *3847:B1 4.99619e-05
28 *3850:A1 *3851:B1 0
29 *3855:A1 *3855:B1 3.26889e-05
30 *3855:B2 *3847:B1 2.49909e-05
31 *3855:B2 *3851:B1 1.91597e-05
32 *3855:B2 *3855:B1 4.66108e-05
33 *3855:B2 *244:39 1.39517e-05
34 *3855:B2 *244:54 3.76625e-05
35 *3856:A *3691:B1_N 4.66443e-05
36 *3856:C *3691:B1_N 9.188e-05
37 *3857:B1_N *3691:B1_N 4.82919e-05
38 *3876:D *3847:B1 8.65905e-05
39 *3877:D *244:39 7.6325e-05
40 *3879:D *3691:B1_N 1.4399e-05
41 *210:10 *3691:B1_N 7.5431e-05
42 *210:51 *3691:B1_N 7.5431e-05
43 *211:83 *3691:B1_N 4.94326e-05
44 *211:100 *244:39 0
45 *211:117 *3847:B1 1.03423e-05
46 *211:117 *3851:B1 6.07575e-06
47 *211:117 *3855:B1 0.000124007
48 *211:117 *244:39 4.87455e-05
49 *211:117 *244:54 7.21296e-06
50 *243:55 *3691:B1_N 0.000136748
51 *243:79 *244:39 5.16418e-05
*RES
1 *3690:Y *244:4 1.6 
2 *244:4 *3691:B1_N 17.045 
3 *244:4 *244:39 10.745 
4 *244:39 *3855:B1 5.1 
5 *244:39 *244:54 2.87 
6 *244:54 *3847:B1 14.465 
7 *244:54 *3851:B1 3.445 
*END

*D_NET *245 0.0128357
*CONN
*I *3806:A1 I *D sky130_fd_sc_hd__a22o_1
*I *3794:A I *D sky130_fd_sc_hd__and4_2
*I *3795:A I *D sky130_fd_sc_hd__nand2_1
*I *3788:A1 I *D sky130_fd_sc_hd__a31o_1
*I *3846:A1 I *D sky130_fd_sc_hd__a31o_1
*I *3807:A I *D sky130_fd_sc_hd__and4_1
*I *3849:A1 I *D sky130_fd_sc_hd__a22o_1
*I *3707:A I *D sky130_fd_sc_hd__and3_1
*I *3731:A1 I *D sky130_fd_sc_hd__a21oi_1
*I *3820:A0 I *D sky130_fd_sc_hd__mux2_1
*I *3692:X O *D sky130_fd_sc_hd__buf_2
*CAP
1 *3806:A1 0
2 *3794:A 4.96805e-05
3 *3795:A 4.48252e-05
4 *3788:A1 0
5 *3846:A1 0.000128461
6 *3807:A 1.41866e-05
7 *3849:A1 6.62466e-05
8 *3707:A 0.000305938
9 *3731:A1 0.000148125
10 *3820:A0 0.000219771
11 *3692:X 0
12 *245:114 8.6009e-05
13 *245:98 0.000549806
14 *245:92 0.000617714
15 *245:37 0.000722622
16 *245:33 0.000408155
17 *245:31 9.94392e-05
18 *245:29 0.00125399
19 *245:23 0.00145389
20 *245:4 0.00048364
21 *3707:A *3707:C 3.59531e-06
22 *3707:A *3719:A1 1.39525e-05
23 *3731:A1 *3731:B1 4.22485e-05
24 *3795:A *3788:A2 0.000128066
25 *3820:A0 *3713:A 9.71067e-05
26 *3820:A0 *3817:A 0
27 *3820:A0 *272:14 0
28 *3820:A0 *272:20 4.66108e-05
29 *3849:A1 *279:35 1.47347e-05
30 *245:23 *3708:A 5.16418e-05
31 *245:23 *246:10 0.000161403
32 *245:23 *247:33 4.9968e-05
33 *245:23 *267:44 2.75538e-05
34 *245:23 *267:59 6.34249e-05
35 *245:23 *272:14 0.000269454
36 *245:23 *272:20 3.74161e-05
37 *245:92 *267:59 2.0851e-06
38 *245:92 *272:14 1.01182e-05
39 *245:98 *3768:B1 2.60908e-05
40 *245:98 *272:14 0.000676105
41 *245:98 *274:29 0.00011852
42 *3719:A2 *3707:A 2.75229e-05
43 *3732:A *3707:A 0.000132877
44 *3732:B *3731:A1 1.61831e-05
45 *3734:B *245:37 4.36438e-05
46 *3781:B *245:98 4.84393e-05
47 *3788:B1 *3795:A 1.85317e-05
48 *3792:A *245:92 0.00013521
49 *3793:B1 *245:23 3.97211e-05
50 *3794:C *3794:A 0.000108098
51 *3797:A *3795:A 3.53993e-06
52 *3833:A3 *245:33 0
53 *3839:A_N *245:98 0.000274675
54 *3845:A1 *3849:A1 0.000121437
55 *3845:A1 *245:33 6.55328e-05
56 *3845:A3 *3846:A1 0
57 *3846:A2 *3846:A1 8.72665e-06
58 *3846:A2 *245:31 4.47504e-06
59 *3846:A2 *245:33 1.94892e-05
60 *3849:A2 *3849:A1 0.00015896
61 *3849:A2 *245:33 0
62 *3849:B1 *245:29 0.0004455
63 *3854:A3 *3846:A1 1.91597e-05
64 *3856:C *3731:A1 2.8585e-06
65 *55:18 *3820:A0 5.53249e-06
66 *58:8 *3820:A0 3.47668e-05
67 *68:42 *245:37 0.000138551
68 *77:6 *3820:A0 0.000235568
69 *77:6 *245:23 4.66108e-05
70 *79:8 *3707:A 6.1357e-05
71 *79:8 *3731:A1 1.34594e-05
72 *80:10 *3707:A 4.99619e-05
73 *80:10 *245:37 3.24583e-05
74 *131:22 *245:98 3.17709e-05
75 *132:29 *3794:A 2.7881e-05
76 *132:29 *245:92 2.97291e-05
77 *132:29 *245:98 0.000219254
78 *139:6 *3794:A 4.82919e-05
79 *141:14 *3794:A 0.00015806
80 *170:14 *3707:A 0
81 *173:12 *245:33 8.09021e-06
82 *173:12 *245:37 0.000128892
83 *179:39 *3707:A 9.61414e-05
84 *179:39 *245:37 0
85 *180:16 *3807:A 8.65905e-05
86 *192:12 *3846:A1 0.000116853
87 *192:16 *3846:A1 4.82863e-05
88 *213:42 *3807:A 8.65905e-05
89 *213:42 *245:29 0.00013827
90 *214:25 *245:33 8.76033e-05
91 *214:25 *245:37 0.000685562
92 *214:100 *245:29 3.23812e-05
*RES
1 *3692:X *245:4 1.6 
2 *245:4 *3820:A0 10.175 
3 *245:4 *245:23 9.3125 
4 *245:23 *245:29 2.9608 
5 *245:29 *245:31 0.2325 
6 *245:31 *245:33 1.89 
7 *245:33 *245:37 10.01 
8 *245:37 *3731:A1 3.43 
9 *245:37 *3707:A 11.15 
10 *245:33 *3849:A1 5.43 
11 *245:31 *3807:A 4.395 
12 *245:29 *3846:A1 6.1575 
13 *245:23 *245:92 2.0175 
14 *245:92 *245:98 16.58 
15 *245:98 *3788:A1 1.6 
16 *245:98 *3795:A 2.8225 
17 *245:92 *245:114 0.45 
18 *245:114 *3794:A 5.7 
19 *245:114 *3806:A1 3.6 
*END

*D_NET *246 0.00927002
*CONN
*I *3819:A1 I *D sky130_fd_sc_hd__a31o_1
*I *3723:B2 I *D sky130_fd_sc_hd__a22o_1
*I *3740:A I *D sky130_fd_sc_hd__nand4_1
*I *3739:B2 I *D sky130_fd_sc_hd__a22o_1
*I *3755:A I *D sky130_fd_sc_hd__nand4_2
*I *3724:A I *D sky130_fd_sc_hd__nand4_1
*I *3695:A I *D sky130_fd_sc_hd__nand4_1
*I *3818:A1 I *D sky130_fd_sc_hd__o21ai_1
*I *3697:B2 I *D sky130_fd_sc_hd__a22o_1
*I *3710:A I *D sky130_fd_sc_hd__nand2_1
*I *3693:X O *D sky130_fd_sc_hd__buf_2
*CAP
1 *3819:A1 0
2 *3723:B2 6.81862e-05
3 *3740:A 0
4 *3739:B2 9.71884e-06
5 *3755:A 0
6 *3724:A 9.1648e-05
7 *3695:A 2.18567e-05
8 *3818:A1 0
9 *3697:B2 0.000127373
10 *3710:A 6.68171e-05
11 *3693:X 0.000275635
12 *246:91 7.42564e-05
13 *246:85 0.000377159
14 *246:66 0.000501185
15 *246:62 0.000357309
16 *246:44 2.18567e-05
17 *246:42 0.000302462
18 *246:25 0.000642877
19 *246:12 0.000488762
20 *246:10 0.000292332
21 *3695:A *300:57 8.49205e-05
22 *3697:B2 *3697:B1 0.000155315
23 *3697:B2 *3735:B 2.36212e-05
24 *3697:B2 *249:134 3.05295e-05
25 *3697:B2 *266:35 0
26 *3697:B2 *303:42 2.16389e-05
27 *3710:A *3712:A 2.66705e-05
28 *3710:A *267:44 0.000130427
29 *3723:B2 *3723:A1 1.37328e-05
30 *3723:B2 *3723:B1 1.61831e-05
31 *3723:B2 *247:99 8.49205e-05
32 *3723:B2 *247:112 7.3151e-05
33 *3723:B2 *272:20 0.000186388
34 *3724:A *3724:C 1.23392e-05
35 *3739:B2 *3755:B 4.82919e-05
36 *246:10 *3708:A 0.000200706
37 *246:10 *3712:A 6.23944e-05
38 *246:10 *267:44 0.00066249
39 *246:10 *279:35 8.40269e-05
40 *246:12 *3712:A 1.73877e-05
41 *246:12 *267:44 5.16418e-05
42 *246:42 *3697:B1 7.06865e-05
43 *246:62 *3695:B 0.000159957
44 *246:62 *3697:B1 4.31106e-05
45 *246:62 *3724:C 0.000267591
46 *246:62 *247:99 0.000239807
47 *246:62 *264:51 7.60965e-05
48 *246:62 *264:62 1.34594e-05
49 *246:62 *272:20 0.000469637
50 *246:66 *247:99 0
51 *246:85 *264:51 0
52 *246:85 *296:98 8.40269e-05
53 *246:91 *247:127 2.15594e-05
54 *3714:A *3710:A 2.62107e-05
55 *3725:B1_N *246:85 1.12129e-05
56 *3736:A *3724:A 6.53536e-05
57 *3737:B1 *246:85 0
58 *3740:D *246:85 2.97004e-06
59 *3742:B1 *246:85 0.000157595
60 *3742:B1 *246:91 5.16418e-05
61 *3743:A *246:85 4.66108e-05
62 *3743:B *246:85 0
63 *3832:B *246:25 4.66108e-05
64 *3:13 *246:42 3.9442e-05
65 *3:13 *246:62 2.23485e-05
66 *69:21 *3724:A 4.98252e-05
67 *70:10 *246:62 2.26018e-05
68 *71:33 *246:85 4.83411e-05
69 *72:20 *246:66 8.97564e-05
70 *72:20 *246:85 4.59464e-05
71 *87:10 *246:85 1.19928e-05
72 *88:8 *246:91 0.000159269
73 *165:6 *246:25 0.000515721
74 *165:6 *246:42 4.82919e-05
75 *212:82 *3739:B2 4.82919e-05
76 *213:83 *246:91 0.000160658
77 *213:89 *246:85 4.77809e-05
78 *214:100 *246:85 6.03407e-05
79 *217:27 *3695:A 4.80285e-05
80 *217:27 *246:42 6.12852e-05
81 *217:43 *3697:B2 6.83488e-05
82 *245:23 *246:10 0.000161403
*RES
1 *3693:X *246:10 12.15 
2 *246:10 *246:12 0.615 
3 *246:12 *3710:A 5.235 
4 *246:12 *246:25 7.28 
5 *246:25 *3697:B2 9.02 
6 *246:25 *246:42 4.01 
7 *246:42 *246:44 2 
8 *246:44 *3818:A1 1.6 
9 *246:44 *3695:A 2.395 
10 *246:42 *246:62 9.92 
11 *246:62 *246:66 3.89 
12 *246:66 *3724:A 5.46 
13 *246:66 *246:85 7.49 
14 *246:85 *246:91 6.4 
15 *246:91 *3755:A 1.6 
16 *246:91 *3739:B2 2.05 
17 *246:85 *3740:A 1.6 
18 *246:62 *3723:B2 4.045 
19 *246:10 *3819:A1 3.6 
*END

*D_NET *247 0.0116989
*CONN
*I *3724:B I *D sky130_fd_sc_hd__nand4_1
*I *3739:A1 I *D sky130_fd_sc_hd__a22o_1
*I *3755:B I *D sky130_fd_sc_hd__nand4_2
*I *3740:B I *D sky130_fd_sc_hd__nand4_1
*I *3723:A1 I *D sky130_fd_sc_hd__a22o_1
*I *3785:A I *D sky130_fd_sc_hd__and4_1
*I *3695:B I *D sky130_fd_sc_hd__nand4_1
*I *3711:A I *D sky130_fd_sc_hd__nand2_1
*I *3793:B2 I *D sky130_fd_sc_hd__a22o_1
*I *3712:A I *D sky130_fd_sc_hd__or2_1
*I *3694:X O *D sky130_fd_sc_hd__buf_2
*CAP
1 *3724:B 2.91039e-05
2 *3739:A1 4.52337e-05
3 *3755:B 7.91464e-05
4 *3740:B 0.000117225
5 *3723:A1 1.27008e-05
6 *3785:A 0.000236557
7 *3695:B 0.000382766
8 *3711:A 0
9 *3793:B2 0.000200882
10 *3712:A 0.000198549
11 *3694:X 0
12 *247:127 0.000216552
13 *247:112 0.000399457
14 *247:99 0.000373137
15 *247:89 0.00055377
16 *247:33 0.000285969
17 *247:18 0.000605759
18 *247:14 0.00083054
19 *247:10 0.000456151
20 *247:4 0.000448234
21 *3695:B *3727:A 0
22 *3695:B *300:57 0.000124007
23 *3712:A *3708:A 4.13092e-05
24 *3723:A1 *3723:A2 9.53428e-06
25 *3724:B *3724:C 1.08758e-05
26 *3740:B *296:98 0.00015639
27 *3785:A *263:23 0.000116178
28 *3785:A *266:22 0.000179115
29 *3785:A *266:35 1.82563e-05
30 *3793:B2 *249:54 0.000284387
31 *3793:B2 *249:96 4.66108e-05
32 *3793:B2 *272:14 0.000512451
33 *247:10 *3694:A 2.90599e-05
34 *247:14 *263:23 4.92014e-05
35 *247:14 *266:35 4.62396e-05
36 *247:18 *3713:A 8.49205e-05
37 *247:18 *303:78 5.74791e-05
38 *247:33 *3708:A 4.31189e-05
39 *247:33 *249:48 4.41506e-05
40 *247:33 *272:14 7.06865e-05
41 *247:89 *3724:C 0.00023301
42 *247:99 *3723:A2 1.83756e-05
43 *247:99 *264:51 6.10014e-05
44 *247:99 *264:62 0
45 *247:112 *3723:A2 1.19928e-05
46 *247:112 *3723:B1 2.49909e-05
47 *247:112 *279:35 0.000136877
48 *247:127 *279:35 9.78012e-05
49 *247:127 *296:36 5.93674e-05
50 *3710:A *3712:A 2.66705e-05
51 *3713:B *3712:A 3.69338e-05
52 *3714:A *3712:A 5.02892e-05
53 *3714:B *3712:A 6.71376e-05
54 *3723:B2 *3723:A1 1.37328e-05
55 *3723:B2 *247:99 8.49205e-05
56 *3723:B2 *247:112 7.3151e-05
57 *3725:B1_N *247:112 6.30136e-05
58 *3736:A *3724:B 1.47347e-05
59 *3739:B2 *3755:B 4.82919e-05
60 *3745:A2 *3695:B 0.000155497
61 *3745:A2 *247:14 8.53113e-06
62 *3745:B1_N *247:14 6.02202e-05
63 *3746:C *247:10 2.63322e-05
64 *3746:C *247:89 0.000102685
65 *3755:D *3755:B 0
66 *3779:A1 *247:89 8.40269e-05
67 *3779:B1 *247:89 6.77501e-05
68 *3820:S *3712:A 0.000139238
69 *3:13 *3695:B 9.54399e-05
70 *55:66 *247:18 9.46859e-06
71 *58:8 *3712:A 1.65192e-05
72 *58:8 *247:33 2.04147e-05
73 *70:10 *247:99 8.5841e-05
74 *74:25 *247:14 5.65627e-05
75 *75:8 *3695:B 0.000414248
76 *77:6 *247:33 8.40213e-05
77 *127:14 *3785:A 4.72328e-05
78 *212:80 *3739:A1 2.30292e-05
79 *212:82 *3739:A1 2.75229e-05
80 *212:82 *3755:B 8.43778e-05
81 *212:121 *3755:B 0
82 *213:70 *3785:A 2.75145e-05
83 *213:83 *3755:B 0.00015806
84 *213:83 *247:112 0.000114492
85 *213:83 *247:127 0.000195925
86 *213:89 *247:112 0.000373952
87 *214:88 *247:112 0.000150881
88 *245:23 *247:33 4.9968e-05
89 *246:10 *3712:A 6.23944e-05
90 *246:12 *3712:A 1.73877e-05
91 *246:62 *3695:B 0.000159957
92 *246:62 *247:99 0.000239807
93 *246:66 *247:99 0
94 *246:91 *247:127 2.15594e-05
*RES
1 *3694:X *247:4 1.6 
2 *247:4 *247:10 3.245 
3 *247:10 *247:14 4.91 
4 *247:14 *247:18 5.555 
5 *247:18 *3712:A 8.55 
6 *247:18 *247:33 4.43 
7 *247:33 *3793:B2 12.02 
8 *247:33 *3711:A 1.6 
9 *247:14 *3695:B 13.235 
10 *247:10 *3785:A 8.94 
11 *247:4 *247:89 5.76 
12 *247:89 *247:99 8.605 
13 *247:99 *3723:A1 1.96 
14 *247:99 *247:112 8.51 
15 *247:112 *3740:B 5.085 
16 *247:112 *247:127 5.27 
17 *247:127 *3755:B 3.79 
18 *247:127 *3739:A1 2.755 
19 *247:89 *3724:B 2.05 
*END

*D_NET *248 0.00180191
*CONN
*I *3726:B1 I *D sky130_fd_sc_hd__a22o_1
*I *3698:C I *D sky130_fd_sc_hd__nand4_1
*I *3699:A I *D sky130_fd_sc_hd__and2_1
*I *3695:Y O *D sky130_fd_sc_hd__nand4_1
*CAP
1 *3726:B1 1.65033e-05
2 *3698:C 3.69588e-05
3 *3699:A 0.000161816
4 *3695:Y 0.000118812
5 *248:12 0.000233566
6 *248:10 0.000170106
7 *3698:C *249:134 4.66108e-05
8 *3699:A *3726:B2 4.9968e-05
9 *3699:A *3875:D 7.00889e-06
10 *3699:A *251:21 0.000116853
11 *3699:A *265:31 0.000163199
12 *3699:A *277:22 9.91257e-05
13 *3726:B1 *302:50 4.66108e-05
14 *3726:B1 *303:42 2.49909e-05
15 *248:10 *3695:C 4.75576e-05
16 *248:10 *251:21 0.000132842
17 *248:10 *301:82 2.23407e-05
18 *248:12 *3726:B2 0.000107627
19 *248:12 *251:21 0.000114492
20 *3:13 *3699:A 0
21 *217:27 *248:10 8.49205e-05
*RES
1 *3695:Y *248:10 6.03 
2 *248:10 *248:12 1.38 
3 *248:12 *3699:A 7.74 
4 *248:12 *3698:C 4.05 
5 *248:10 *3726:B1 4.05 
*END

*D_NET *249 0.0118952
*CONN
*I *3698:A I *D sky130_fd_sc_hd__nand4_1
*I *3726:A1 I *D sky130_fd_sc_hd__a22o_1
*I *3709:A2 I *D sky130_fd_sc_hd__a31o_1
*I *3711:B I *D sky130_fd_sc_hd__nand2_1
*I *3793:A1 I *D sky130_fd_sc_hd__a22o_1
*I *3785:B I *D sky130_fd_sc_hd__and4_1
*I *3849:B2 I *D sky130_fd_sc_hd__a22o_1
*I *3807:B I *D sky130_fd_sc_hd__and4_1
*I *3712:B I *D sky130_fd_sc_hd__or2_1
*I *3700:B I *D sky130_fd_sc_hd__nand2_1
*I *3696:X O *D sky130_fd_sc_hd__buf_2
*CAP
1 *3698:A 3.26728e-05
2 *3726:A1 7.15013e-05
3 *3709:A2 0
4 *3711:B 0
5 *3793:A1 0
6 *3785:B 0.000266346
7 *3849:B2 1.37047e-05
8 *3807:B 0.000411182
9 *3712:B 0.000114109
10 *3700:B 2.8191e-05
11 *3696:X 2.63363e-05
12 *249:134 0.00060043
13 *249:96 0.000360583
14 *249:66 0.000925211
15 *249:54 0.000900476
16 *249:48 0.000806983
17 *249:27 0.000677727
18 *249:16 0.000285071
19 *249:10 0.000317011
20 *249:6 0.000645274
21 *3698:A *3698:B 1.46828e-05
22 *3698:A *302:28 4.99619e-05
23 *3700:B *3700:A 4.87465e-06
24 *3700:B *252:20 1.69632e-05
25 *3700:B *303:61 0
26 *3712:B *3710:B 9.03508e-06
27 *3712:B *302:52 1.91597e-05
28 *3712:B *302:54 6.97034e-05
29 *3726:A1 *251:21 0.000136182
30 *3726:A1 *302:41 9.30787e-05
31 *3785:B *3785:D 2.49909e-05
32 *3807:B *279:12 2.7881e-05
33 *3807:B *279:35 0.000165346
34 *3849:B2 *279:35 2.75229e-05
35 *249:6 *277:22 4.9253e-06
36 *249:10 *3709:A1 0.000124895
37 *249:10 *3709:B1 9.80943e-06
38 *249:16 *3704:A 0.000112685
39 *249:16 *3709:B1 4.41506e-05
40 *249:16 *254:6 7.35729e-05
41 *249:16 *263:23 0
42 *249:16 *267:44 1.7902e-05
43 *249:16 *301:69 0.00014041
44 *249:16 *303:78 7.32599e-05
45 *249:27 *263:23 6.15773e-05
46 *249:27 *303:78 0.000105537
47 *249:48 *263:23 0.000589148
48 *249:48 *264:62 0.000158066
49 *249:48 *267:44 0.000118438
50 *249:48 *303:78 0.000361435
51 *249:54 *272:14 6.56448e-06
52 *249:134 *3697:A1 8.03844e-05
53 *249:134 *3698:B 1.08758e-05
54 *249:134 *3698:D 4.66108e-05
55 *249:134 *3699:B 8.73389e-06
56 *249:134 *3709:A1 0.000201127
57 *249:134 *3875:CLK 0
58 *249:134 *250:8 2.55503e-05
59 *249:134 *252:20 0
60 *249:134 *301:69 7.68414e-06
61 *249:134 *301:82 0.000160635
62 *249:134 *302:28 1.92617e-05
63 *249:134 *303:42 8.53113e-06
64 *3697:B2 *249:134 3.05295e-05
65 *3698:C *249:134 4.66108e-05
66 *3793:A2 *3785:B 6.95479e-06
67 *3793:A2 *249:96 1.68902e-05
68 *3793:B1 *249:96 2.49909e-05
69 *3793:B2 *249:54 0.000284387
70 *3793:B2 *249:96 4.66108e-05
71 *3815:A1 *249:54 0
72 *3815:A1 *249:66 4.16262e-05
73 *3815:A2 *249:66 4.82863e-05
74 *3833:A1 *249:66 3.23391e-05
75 *3833:B1 *249:66 0.000191654
76 *3849:A2 *3807:B 0.000118527
77 *3849:B1 *3849:B2 4.66108e-05
78 *3850:A3 *3807:B 0.000232111
79 *56:8 *249:10 3.21081e-06
80 *56:8 *249:16 2.30292e-05
81 *77:6 *249:48 8.15554e-05
82 *94:16 *249:54 0
83 *162:16 *249:66 0.000166716
84 *163:8 *3807:B 2.46007e-05
85 *163:8 *249:66 2.59981e-05
86 *179:39 *3807:B 2.46089e-05
87 *209:16 *249:6 9.27255e-06
88 *209:16 *249:10 1.33293e-05
89 *213:42 *3785:B 2.16518e-05
90 *213:42 *249:66 0.000250798
91 *213:42 *249:96 0.000197097
92 *213:51 *3785:B 6.14493e-05
93 *213:70 *3785:B 1.34503e-05
94 *214:25 *3807:B 5.21545e-05
95 *247:33 *249:48 4.41506e-05
*RES
1 *3696:X *249:6 2.05 
2 *249:6 *249:10 2.19 
3 *249:10 *249:16 6.485 
4 *249:16 *3700:B 4.215 
5 *249:16 *249:27 1.38 
6 *249:27 *3712:B 5.445 
7 *249:27 *249:48 13.265 
8 *249:48 *249:54 10.225 
9 *249:54 *249:66 11.81 
10 *249:66 *3807:B 14.515 
11 *249:66 *3849:B2 4.05 
12 *249:54 *249:96 2.535 
13 *249:96 *3785:B 5.08 
14 *249:96 *3793:A1 1.6 
15 *249:48 *3711:B 1.6 
16 *249:10 *3709:A2 1.6 
17 *249:6 *249:134 12.16 
18 *249:134 *3726:A1 7.235 
19 *249:134 *3698:A 2.395 
*END

*D_NET *250 0.000817796
*CONN
*I *3698:D I *D sky130_fd_sc_hd__nand4_1
*I *3726:B2 I *D sky130_fd_sc_hd__a22o_1
*I *3697:X O *D sky130_fd_sc_hd__a22o_1
*CAP
1 *3698:D 1.38912e-05
2 *3726:B2 6.71716e-05
3 *3697:X 4.83557e-05
4 *250:8 0.000129419
5 *3698:D *3699:B 1.34503e-05
6 *3726:B2 *301:82 0.000136877
7 *250:8 *3699:B 5.34747e-05
8 *250:8 *301:69 3.17194e-05
9 *250:8 *301:82 9.36815e-05
10 *3699:A *3726:B2 4.9968e-05
11 *3:13 *3726:B2 0
12 *248:12 *3726:B2 0.000107627
13 *249:134 *3698:D 4.66108e-05
14 *249:134 *250:8 2.55503e-05
*RES
1 *3697:X *250:8 3.355 
2 *250:8 *3726:B2 7.49 
3 *250:8 *3698:D 2.05 
*END

*D_NET *251 0.00230208
*CONN
*I *3727:A I *D sky130_fd_sc_hd__nand3_1
*I *3728:A1 I *D sky130_fd_sc_hd__a21o_1
*I *3699:B I *D sky130_fd_sc_hd__and2_1
*I *3698:Y O *D sky130_fd_sc_hd__nand4_1
*CAP
1 *3727:A 9.23734e-05
2 *3728:A1 3.61493e-05
3 *3699:B 0.000244499
4 *3698:Y 0
5 *251:21 0.000431627
6 *251:4 0.000547603
7 *3699:B *3875:CLK 0.000139238
8 *3699:B *301:69 1.08758e-05
9 *3699:B *301:82 1.6418e-05
10 *251:21 *3695:C 2.66852e-05
11 *251:21 *302:41 1.1561e-05
12 *3695:B *3727:A 0
13 *3698:D *3699:B 1.34503e-05
14 *3699:A *251:21 0.000116853
15 *3726:A1 *251:21 0.000136182
16 *3728:A2 *3728:A1 1.08758e-05
17 *3728:B1 *3728:A1 1.47256e-05
18 *3:13 *3699:B 0.000139238
19 *3:13 *3727:A 0
20 *3:13 *251:21 0
21 *72:20 *3727:A 0
22 *73:12 *3727:A 4.18603e-06
23 *73:12 *251:21 0
24 *214:77 *3727:A 0
25 *214:77 *251:21 0
26 *214:88 *3727:A 0
27 *248:10 *251:21 0.000132842
28 *248:12 *251:21 0.000114492
29 *249:134 *3699:B 8.73389e-06
30 *250:8 *3699:B 5.34747e-05
*RES
1 *3698:Y *251:4 1.6 
2 *251:4 *3699:B 9.755 
3 *251:4 *251:21 8.225 
4 *251:21 *3728:A1 4.05 
5 *251:21 *3727:A 4.665 
*END

*D_NET *252 0.00479635
*CONN
*I *3705:A_N I *D sky130_fd_sc_hd__and2b_1
*I *3706:B I *D sky130_fd_sc_hd__xnor2_1
*I *3699:X O *D sky130_fd_sc_hd__and2_1
*CAP
1 *3705:A_N 0
2 *3706:B 7.26129e-05
3 *3699:X 0.00111808
4 *252:20 0.00119069
5 *3706:B *3706:A 0.000122331
6 *3706:B *3707:C 0.000160635
7 *252:20 *3697:A1 0.000272978
8 *252:20 *3700:A 8.01251e-05
9 *252:20 *3706:A 0.000152328
10 *252:20 *3707:C 8.65961e-05
11 *252:20 *3875:CLK 9.30717e-05
12 *252:20 *257:16 5.23672e-05
13 *252:20 *258:8 4.82863e-05
14 *252:20 *301:69 0.00049857
15 *252:20 *303:61 0.000272274
16 *3700:B *252:20 1.69632e-05
17 *3714:B *252:20 3.45679e-05
18 *3718:A *252:20 4.60584e-05
19 *3823:A0 *252:20 2.55587e-05
20 *3823:A1 *252:20 0.000162311
21 *55:26 *252:20 0.000201503
22 *61:16 *252:20 4.67945e-05
23 *168:16 *252:20 9.80943e-06
24 *170:14 *252:20 3.1835e-05
25 *249:134 *252:20 0
*RES
1 *3699:X *252:20 26.12 
2 *252:20 *3706:B 3.7 
3 *252:20 *3705:A_N 1.6 
*END

*D_NET *253 0.000340173
*CONN
*I *3704:A I *D sky130_fd_sc_hd__xnor2_1
*I *3700:Y O *D sky130_fd_sc_hd__nand2_1
*CAP
1 *3704:A 5.47061e-05
2 *3700:Y 5.47061e-05
3 *3704:A *3704:B 3.12319e-05
4 *3704:A *3709:A3 0
5 *3704:A *263:23 0
6 *3704:A *267:44 8.68441e-05
7 *249:16 *3704:A 0.000112685
*RES
1 *3700:Y *3704:A 8.835 
*END

*D_NET *254 0.00135127
*CONN
*I *3709:B1 I *D sky130_fd_sc_hd__a31o_1
*I *3703:A_N I *D sky130_fd_sc_hd__and2b_1
*I *3701:X O *D sky130_fd_sc_hd__and4_1
*CAP
1 *3709:B1 6.23409e-05
2 *3703:A_N 7.84089e-05
3 *3701:X 6.23252e-05
4 *254:6 0.000203075
5 *3703:A_N *3704:B 0
6 *3703:A_N *3709:A3 0.00013687
7 *3709:B1 *3709:A1 3.00381e-05
8 *3709:B1 *277:22 0
9 *254:6 *267:44 8.8266e-05
10 *254:6 *301:69 6.30674e-05
11 *209:16 *3709:B1 0.00014719
12 *209:16 *254:6 0.000352156
13 *243:26 *3703:A_N 0
14 *249:10 *3709:B1 9.80943e-06
15 *249:16 *3709:B1 4.41506e-05
16 *249:16 *254:6 7.35729e-05
*RES
1 *3701:X *254:6 4.81 
2 *254:6 *3703:A_N 7.235 
3 *254:6 *3709:B1 3.445 
*END

*D_NET *255 0.000967625
*CONN
*I *3709:A3 I *D sky130_fd_sc_hd__a31o_1
*I *3703:B I *D sky130_fd_sc_hd__and2b_1
*I *3702:X O *D sky130_fd_sc_hd__a22o_1
*CAP
1 *3709:A3 0.000104342
2 *3703:B 0
3 *3702:X 3.33795e-05
4 *255:6 0.000137722
5 *3709:A3 *3704:B 0
6 *3709:A3 *263:10 5.4003e-05
7 *3709:A3 *263:23 0.000149759
8 *3703:A_N *3709:A3 0.00013687
9 *3704:A *3709:A3 0
10 *214:6 *3709:A3 0.000153217
11 *214:6 *255:6 0.00012657
12 *243:26 *3709:A3 5.43769e-05
13 *243:26 *255:6 1.7386e-05
*RES
1 *3702:X *255:6 2.74 
2 *255:6 *3703:B 1.6 
3 *255:6 *3709:A3 9.485 
*END

*D_NET *256 0.000279704
*CONN
*I *3704:B I *D sky130_fd_sc_hd__xnor2_1
*I *3703:X O *D sky130_fd_sc_hd__and2b_1
*CAP
1 *3704:B 0.000104512
2 *3703:X 0.000104512
3 *3704:B *3702:B1 0
4 *3704:B *267:44 2.99445e-05
5 *3703:A_N *3704:B 0
6 *3704:A *3704:B 3.12319e-05
7 *3709:A3 *3704:B 0
8 *243:26 *3704:B 9.50342e-06
*RES
1 *3703:X *3704:B 8.835 
*END

*D_NET *257 0.00299098
*CONN
*I *3706:A I *D sky130_fd_sc_hd__xnor2_1
*I *3705:B I *D sky130_fd_sc_hd__and2b_1
*I *3704:Y O *D sky130_fd_sc_hd__xnor2_1
*CAP
1 *3706:A 0.00014088
2 *3705:B 0
3 *3704:Y 0.000915919
4 *257:16 0.0010568
5 *257:16 *267:44 4.63761e-05
6 *257:16 *302:71 0
7 *3706:B *3706:A 0.000122331
8 *3714:B *257:16 5.30673e-05
9 *3717:B *257:16 1.91597e-05
10 *3718:A *257:16 9.80943e-06
11 *3822:A2 *257:16 2.75145e-05
12 *3823:A0 *257:16 7.67345e-05
13 *55:26 *257:16 4.71433e-05
14 *61:16 *257:16 0.00015896
15 *168:16 *257:16 2.49909e-05
16 *170:14 *257:16 8.65961e-05
17 *252:20 *3706:A 0.000152328
18 *252:20 *257:16 5.23672e-05
*RES
1 *3704:Y *257:16 17.465 
2 *257:16 *3705:B 1.6 
3 *257:16 *3706:A 4.735 
*END

*D_NET *258 0.00110123
*CONN
*I *3719:A1 I *D sky130_fd_sc_hd__o21ai_1
*I *3720:B I *D sky130_fd_sc_hd__or3_1
*I *3705:X O *D sky130_fd_sc_hd__and2b_1
*CAP
1 *3719:A1 6.45898e-05
2 *3720:B 0.00022083
3 *3705:X 3.38751e-05
4 *258:8 0.000319295
5 *3719:A1 *3707:C 0
6 *3707:A *3719:A1 1.39525e-05
7 *3719:B1 *3720:B 3.45628e-05
8 *3720:A *3720:B 0.000164874
9 *3720:C *3720:B 0
10 *3721:B *3720:B 8.65905e-05
11 *170:14 *3719:A1 6.14983e-05
12 *170:14 *3720:B 5.28781e-05
13 *252:20 *258:8 4.82863e-05
*RES
1 *3705:X *258:8 4.05 
2 *258:8 *3720:B 7.845 
3 *258:8 *3719:A1 4.98 
*END

*D_NET *259 0.00189784
*CONN
*I *3707:C I *D sky130_fd_sc_hd__and3_1
*I *3731:B1 I *D sky130_fd_sc_hd__a21oi_1
*I *3706:Y O *D sky130_fd_sc_hd__xnor2_1
*CAP
1 *3707:C 0.000322921
2 *3731:B1 0.000213353
3 *3706:Y 0
4 *259:4 0.000536275
5 *3706:B *3707:C 0.000160635
6 *3707:A *3707:C 3.59531e-06
7 *3719:A1 *3707:C 0
8 *3719:A2 *3707:C 1.95128e-05
9 *3720:C *3707:C 4.75134e-05
10 *3731:A1 *3731:B1 4.22485e-05
11 *3731:A2 *3731:B1 0.000147176
12 *3732:A *3707:C 3.12319e-05
13 *3732:B *3731:B1 4.0066e-05
14 *3856:C *3731:B1 2.92147e-05
15 *3873:A1 *3731:B1 0.000186787
16 *214:25 *3731:B1 0
17 *243:43 *3707:C 3.07153e-05
18 *252:20 *3707:C 8.65961e-05
*RES
1 *3706:Y *259:4 1.6 
2 *259:4 *3731:B1 10.73 
3 *259:4 *3707:C 10.265 
*END

*D_NET *260 0.00357053
*CONN
*I *3889:A I *D sky130_fd_sc_hd__clkbuf_16
*I *3890:A I *D sky130_fd_sc_hd__clkbuf_16
*I *3888:X O *D sky130_fd_sc_hd__clkbuf_16
*CAP
1 *3889:A 0.000823729
2 *3890:A 3.95795e-05
3 *3888:X 0.000202252
4 *260:10 0.00106556
5 *3889:A *3874:CLK 0.000865025
6 *3889:A *266:45 0.000192382
7 *3889:A *277:22 0
8 *3890:A *263:23 1.79536e-05
9 *3890:A *302:52 2.49909e-05
10 *260:10 *263:23 0.000123333
11 *260:10 *266:35 0
12 *3718:B *3889:A 0
13 *3729:A_N *260:10 0.000116853
14 *3729:B *260:10 1.82563e-05
15 *3729:C *260:10 4.05358e-05
16 *3732:A *3889:A 1.92979e-05
17 *3745:B1_N *260:10 8.53113e-06
18 *214:25 *3889:A 1.22505e-05
*RES
1 *3888:X *260:10 7.8525 
2 *260:10 *3890:A 4.2825 
3 *260:10 *3889:A 7.1429 
*END

*D_NET *261 0.00698855
*CONN
*I *3876:CLK I *D sky130_fd_sc_hd__dfrtp_1
*I *3878:CLK I *D sky130_fd_sc_hd__dfrtp_1
*I *3877:CLK I *D sky130_fd_sc_hd__dfrtp_2
*I *3879:CLK I *D sky130_fd_sc_hd__dfrtp_1
*I *3887:CLK I *D sky130_fd_sc_hd__dfrtp_1
*I *3880:CLK I *D sky130_fd_sc_hd__dfrtp_1
*I *3886:CLK I *D sky130_fd_sc_hd__dfrtp_1
*I *3885:CLK I *D sky130_fd_sc_hd__dfrtp_1
*I *3889:X O *D sky130_fd_sc_hd__clkbuf_16
*CAP
1 *3876:CLK 0.00010072
2 *3878:CLK 0.000477972
3 *3877:CLK 2.8609e-05
4 *3879:CLK 0
5 *3887:CLK 6.81934e-05
6 *3880:CLK 2.16332e-05
7 *3886:CLK 0
8 *3885:CLK 0.000154667
9 *3889:X 2.51931e-05
10 *261:92 0.000715526
11 *261:79 0.000332283
12 *261:64 0.000410568
13 *261:33 0.00023763
14 *261:16 0.000751627
15 *261:10 0.000481713
16 *261:8 0.000301479
17 *3876:CLK *3855:A2 0.000154106
18 *3877:CLK *3877:RESET_B 1.34594e-05
19 *3878:CLK *3855:A2 4.80285e-05
20 *3878:CLK *3878:RESET_B 9.02174e-05
21 *3880:CLK *293:22 2.75145e-05
22 *261:16 *3869:A1 0
23 *261:33 *293:22 3.13457e-05
24 *261:92 *293:86 0
25 *3656:A *261:8 4.66108e-05
26 *3847:B1 *3878:CLK 0.000116151
27 *3847:B1 *261:92 5.30144e-05
28 *3855:B2 *261:92 2.97122e-05
29 *3856:A *261:64 9.68787e-05
30 *3870:A *3885:CLK 0
31 *3871:B1 *3885:CLK 0.000100544
32 *3871:B1 *261:16 6.02123e-05
33 *3874:D *261:10 0.000108329
34 *3874:D *261:16 0.000183043
35 *3874:D *261:64 0.000177561
36 *3876:D *3876:CLK 6.97202e-05
37 *3876:D *3878:CLK 3.90266e-05
38 *3876:D *261:92 5.39961e-05
39 *3877:D *3877:CLK 5.83121e-06
40 *3877:D *261:79 5.39961e-05
41 *3877:D *261:92 0.000118527
42 *3879:D *261:64 0
43 *3885:D *3885:CLK 0
44 *3886:D *3885:CLK 2.24423e-05
45 *3886:D *261:16 2.46007e-05
46 *3886:D *261:33 4.92062e-05
47 *3887:D *3887:CLK 2.49909e-05
48 *209:74 *261:16 0
49 *210:10 *261:16 2.03861e-05
50 *210:25 *261:16 6.22464e-05
51 *211:83 *261:64 1.22591e-05
52 *211:100 *261:64 0
53 *211:100 *261:79 5.33787e-05
54 *211:100 *261:92 5.30144e-05
55 *243:55 *261:16 2.12146e-07
56 *243:79 *261:10 0.000116158
57 *243:79 *261:16 0.000118534
58 *243:79 *261:64 0.000358243
59 *244:39 *261:64 0.000191316
60 *244:39 *261:79 0
61 *244:39 *261:92 3.14025e-05
62 *244:54 *261:92 6.45236e-05
*RES
1 *3889:X *261:8 4.05 
2 *261:8 *261:10 1.38 
3 *261:10 *261:16 6.78 
4 *261:16 *3885:CLK 6.255 
5 *261:16 *261:33 4.895 
6 *261:33 *3886:CLK 1.6 
7 *261:33 *3880:CLK 2.05 
8 *261:10 *3887:CLK 4.77 
9 *261:8 *261:64 8.93 
10 *261:64 *3879:CLK 1.6 
11 *261:64 *261:79 5.15 
12 *261:79 *3877:CLK 4.05 
13 *261:79 *261:92 6.185 
14 *261:92 *3878:CLK 12.29 
15 *261:92 *3876:CLK 4.12 
*END

*D_NET *262 0.0140548
*CONN
*I *3883:CLK I *D sky130_fd_sc_hd__dfrtp_1
*I *3882:CLK I *D sky130_fd_sc_hd__dfrtp_1
*I *3884:CLK I *D sky130_fd_sc_hd__dfrtp_2
*I *3881:CLK I *D sky130_fd_sc_hd__dfrtp_1
*I *3874:CLK I *D sky130_fd_sc_hd__dfrtp_1
*I *3875:CLK I *D sky130_fd_sc_hd__dfrtp_1
*I *3890:X O *D sky130_fd_sc_hd__clkbuf_16
*CAP
1 *3883:CLK 0.000309178
2 *3882:CLK 9.54152e-05
3 *3884:CLK 8.94138e-05
4 *3881:CLK 0.000132005
5 *3874:CLK 0.00215502
6 *3875:CLK 0.000343272
7 *3890:X 0
8 *262:62 0.000461708
9 *262:40 0.000302383
10 *262:38 0.00149663
11 *262:6 0.00249829
12 *262:4 0.00135855
13 *3874:CLK *3697:B1 1.0145e-05
14 *3874:CLK *266:45 4.28511e-05
15 *3874:CLK *277:22 0
16 *3875:CLK *3697:B1 0.000227157
17 *3875:CLK *265:14 8.6311e-05
18 *3875:CLK *277:22 0
19 *3881:CLK *3687:A1 9.50342e-06
20 *3881:CLK *3891:A 5.34747e-05
21 *3881:CLK *275:10 0.00033683
22 *3883:CLK *3865:A1 0
23 *3883:CLK *3867:A1 0
24 *262:38 *3666:A 1.56428e-05
25 *262:38 *3687:A1 2.20732e-05
26 *262:38 *301:94 0.000357936
27 *262:38 *302:50 0.000107424
28 *262:38 *303:34 0.00011837
29 *262:40 *3687:A1 0.000177568
30 *262:40 *3867:A1 0
31 *262:62 *3867:A1 0
32 *3666:B *262:38 5.30673e-05
33 *3667:B *262:38 0.000176511
34 *3669:B *262:38 4.66826e-05
35 *3683:B1 *3883:CLK 0
36 *3686:B1 *3883:CLK 1.37526e-05
37 *3699:B *3875:CLK 0.000139238
38 *3863:B1 *3883:CLK 0.000187766
39 *3863:B1 *262:40 8.53113e-06
40 *3863:B1 *262:62 0.000116853
41 *3865:A3 *3883:CLK 0.000169762
42 *3881:D *3881:CLK 2.30292e-05
43 *3883:D *3883:CLK 3.59997e-05
44 *3889:A *3874:CLK 0.000865025
45 *3:13 *3874:CLK 7.96104e-06
46 *3:13 *3875:CLK 0.000230907
47 *211:14 *3874:CLK 0
48 *211:73 *3874:CLK 0
49 *214:47 *3875:CLK 0.000146392
50 *220:8 *262:38 0.000195482
51 *223:10 *262:38 2.30324e-05
52 *243:26 *3875:CLK 0.000207896
53 *243:79 *3874:CLK 0.000106285
54 *243:117 *3881:CLK 0.000162916
55 *243:130 *3881:CLK 9.766e-05
56 *243:130 *262:40 0.000139843
57 *249:134 *3875:CLK 0
58 *252:20 *3875:CLK 9.30717e-05
*RES
1 *3890:X *262:4 1.6 
2 *262:4 *262:6 2 
3 *262:6 *3875:CLK 13.545 
4 *262:6 *3874:CLK 10.2017 
5 *262:4 *262:38 19.355 
6 *262:38 *262:40 2.91 
7 *262:40 *3881:CLK 8.67 
8 *262:40 *3884:CLK 4.74 
9 *262:38 *262:62 1.38 
10 *262:62 *3882:CLK 4.74 
11 *262:62 *3883:CLK 10.38 
*END

*D_NET *263 0.0171557
*CONN
*I *3768:B1 I *D sky130_fd_sc_hd__a22o_1
*I *3769:D I *D sky130_fd_sc_hd__nand4_1
*I *3785:D I *D sky130_fd_sc_hd__and4_1
*I *3660:A I *D sky130_fd_sc_hd__clkbuf_4
*I *3897:X O *D sky130_fd_sc_hd__clkbuf_2
*CAP
1 *3768:B1 3.8056e-05
2 *3769:D 1.09854e-05
3 *3785:D 3.41429e-05
4 *3660:A 0
5 *3897:X 0
6 *263:42 0.000433907
7 *263:23 0.00128901
8 *263:10 0.00225056
9 *263:6 0.00530884
10 *263:4 0.00392829
11 *3768:B1 *274:29 9.54399e-05
12 *3769:D *3769:C 2.05056e-05
13 *3769:D *274:21 7.00889e-06
14 *263:10 *265:14 0
15 *263:23 *3709:A1 0
16 *263:23 *265:14 0
17 *263:23 *266:35 4.10327e-05
18 *263:23 *266:45 1.00941e-05
19 *263:23 *267:44 7.03765e-05
20 *263:23 *267:59 4.40495e-05
21 *263:23 *277:22 0
22 *263:23 *301:69 0
23 *263:42 *3769:B 2.75229e-05
24 *263:42 *3769:C 5.83121e-06
25 *263:42 *266:22 0
26 *263:42 *267:59 0.000864592
27 *263:42 *267:68 9.50342e-06
28 *3704:A *263:23 0
29 *3709:A3 *263:10 5.4003e-05
30 *3709:A3 *263:23 0.000149759
31 *3729:A_N *263:23 0.000118513
32 *3745:B1_N *263:23 0.00021831
33 *3776:C_N *263:42 8.77073e-05
34 *3785:A *263:23 0.000116178
35 *3785:B *3785:D 2.49909e-05
36 *3785:C *3785:D 5.4155e-06
37 *3793:A2 *3785:D 2.72174e-06
38 *3890:A *263:23 1.79536e-05
39 *93:10 *263:23 0.000136877
40 *116:10 *263:42 2.75229e-05
41 *122:10 *263:42 0
42 *122:16 *263:42 0.000134807
43 *127:14 *263:23 9.20028e-05
44 *127:14 *263:42 0.000332114
45 *132:29 *3768:B1 0.000139245
46 *149:14 *3769:D 3.00381e-05
47 *149:14 *263:42 8.18626e-05
48 *213:51 *3785:D 4.66108e-05
49 *245:98 *3768:B1 2.60908e-05
50 *247:14 *263:23 4.92014e-05
51 *249:16 *263:23 0
52 *249:27 *263:23 6.15773e-05
53 *249:48 *263:23 0.000589148
54 *260:10 *263:23 0.000123333
*RES
1 *3897:X *263:4 1.6 
2 *263:4 *263:6 53.925 
3 *263:6 *263:10 25.055 
4 *263:10 *3660:A 3.6 
5 *263:10 *263:23 19.545 
6 *263:23 *3785:D 4.41 
7 *263:23 *263:42 14.405 
8 *263:42 *3769:D 2.05 
9 *263:42 *3768:B1 7.235 
*END

*D_NET *264 0.0208017
*CONN
*I *3750:A I *D sky130_fd_sc_hd__and2_1
*I *3692:A I *D sky130_fd_sc_hd__buf_2
*I *3708:A I *D sky130_fd_sc_hd__nand2_2
*I *3735:A I *D sky130_fd_sc_hd__and2_1
*I *3764:A I *D sky130_fd_sc_hd__and2_1
*I *3898:X O *D sky130_fd_sc_hd__buf_2
*CAP
1 *3750:A 0
2 *3692:A 0
3 *3708:A 0.000138358
4 *3735:A 0
5 *3764:A 0.000282508
6 *3898:X 0.00332103
7 *264:62 0.000517167
8 *264:51 0.00139841
9 *264:35 0.0014507
10 *264:18 0.00315592
11 *264:8 0.00576334
12 *3764:A *3764:B 0.000387408
13 *264:18 *3764:B 0.000456198
14 *264:18 *296:16 0.000861288
15 *264:35 *3750:B 4.66108e-05
16 *264:35 *296:34 0
17 *264:35 *296:141 6.52756e-05
18 *264:51 *3724:C 0
19 *264:51 *3724:D 0.000123905
20 *264:51 *3750:B 5.0128e-05
21 *264:62 *3735:B 0.000163199
22 *264:62 *272:20 2.85695e-05
23 *3712:A *3708:A 4.13092e-05
24 *3730:B *264:62 0.000344454
25 *3736:B *264:51 0.00022448
26 *3740:D *264:51 0
27 *3743:C *264:51 9.37644e-05
28 *3745:A2 *264:62 1.91597e-05
29 *3749:A *264:51 7.16251e-05
30 *3756:A1 *264:35 5.04256e-05
31 *3757:B1 *264:51 0
32 *3760:A1 *264:51 5.33874e-05
33 *3761:B *264:51 0
34 *3762:A1 *264:51 0
35 *3763:A *264:51 3.14025e-05
36 *3763:C *264:51 5.02217e-05
37 *3766:A1 *264:35 2.78732e-05
38 *3772:C *264:35 7.29847e-05
39 *3774:A2 *264:51 3.68862e-05
40 *3775:A *264:51 5.83121e-06
41 *3782:B *264:35 0.000112123
42 *70:10 *264:51 0.000105231
43 *77:6 *264:62 2.49909e-05
44 *82:10 *264:62 8.65905e-05
45 *82:19 *264:51 0
46 *96:8 *264:51 0
47 *97:10 *264:51 2.46007e-05
48 *102:8 *264:35 0.000114492
49 *102:8 *264:51 0
50 *102:23 *264:35 0.000154183
51 *106:12 *264:51 9.30787e-05
52 *110:12 *264:51 7.4027e-05
53 *111:10 *3764:A 3.82323e-06
54 *113:10 *264:35 3.48211e-05
55 *121:14 *264:51 3.57924e-05
56 *245:23 *3708:A 5.16418e-05
57 *246:10 *3708:A 0.000200706
58 *246:62 *264:51 7.60965e-05
59 *246:62 *264:62 1.34594e-05
60 *246:85 *264:51 0
61 *247:33 *3708:A 4.31189e-05
62 *247:99 *264:51 6.10014e-05
63 *247:99 *264:62 0
64 *249:48 *264:62 0.000158066
*RES
1 *3898:X *264:8 47.4325 
2 *264:8 *264:18 44.1925 
3 *264:18 *3764:A 5.77 
4 *264:18 *264:35 13.225 
5 *264:35 *264:51 24.745 
6 *264:51 *3735:A 1.6 
7 *264:51 *264:62 7.725 
8 *264:62 *3708:A 8.45 
9 *264:62 *3692:A 1.6 
10 *264:35 *3750:A 1.6 
*END

*D_NET *265 0.023976
*CONN
*I *3753:A I *D sky130_fd_sc_hd__and2_1
*I *3767:A I *D sky130_fd_sc_hd__and2_1
*I *3738:A I *D sky130_fd_sc_hd__and2_1
*I *3722:A I *D sky130_fd_sc_hd__and2_1
*I *3696:A I *D sky130_fd_sc_hd__buf_2
*I *3899:X O *D sky130_fd_sc_hd__buf_2
*CAP
1 *3753:A 2.44714e-05
2 *3767:A 5.37957e-05
3 *3738:A 0.000106319
4 *3722:A 0
5 *3696:A 0
6 *3899:X 0.00127765
7 *265:57 0.000497503
8 *265:42 0.000988745
9 *265:31 0.00150728
10 *265:16 0.00104409
11 *265:14 0.0038865
12 *265:12 0.00614476
13 *265:8 0.00353591
14 *3753:A *3767:B 2.49909e-05
15 *3767:A *3753:B 3.83041e-05
16 *3767:A *3767:B 2.05056e-05
17 *3767:A *296:22 8.8266e-05
18 *265:8 *3929:A 0.000467309
19 *265:12 *3929:A 0.000287865
20 *265:12 *3930:A 0.000428758
21 *265:12 *269:8 6.96579e-05
22 *265:14 *277:22 5.53249e-06
23 *265:31 *3750:B 9.50342e-06
24 *265:31 *3875:D 7.81829e-05
25 *265:31 *277:22 7.5245e-05
26 *265:31 *300:43 5.65627e-05
27 *265:31 *300:45 0.000129999
28 *265:31 *300:49 7.3664e-05
29 *265:31 *301:98 7.79023e-05
30 *265:31 *301:115 0.000466579
31 *265:42 *3750:B 0
32 *265:42 *296:66 0.000198945
33 *265:42 *300:43 0.000709163
34 *265:57 *3750:B 0
35 *265:57 *296:34 0
36 *265:57 *300:31 0.000893236
37 *265:57 *300:43 9.50342e-06
38 *3669:B *265:31 9.47454e-05
39 *3699:A *265:31 0.000163199
40 *3758:C *265:57 4.49585e-05
41 *3875:CLK *265:14 8.6311e-05
42 *3:13 *265:14 0
43 *100:6 *3767:A 4.99619e-05
44 *103:10 *265:57 0
45 *114:16 *265:57 0
46 *209:98 *265:31 0.00011379
47 *213:108 *265:31 0
48 *214:77 *265:31 0.000118735
49 *217:116 *265:42 2.75538e-05
50 *263:10 *265:14 0
51 *263:23 *265:14 0
*RES
1 *3899:X *265:8 21.9025 
2 *265:8 *265:12 39.1925 
3 *265:12 *265:14 65.13 
4 *265:14 *265:16 2 
5 *265:16 *3696:A 1.6 
6 *265:16 *265:31 24.49 
7 *265:31 *3722:A 1.6 
8 *265:31 *265:42 12.095 
9 *265:42 *3738:A 5.1 
10 *265:42 *265:57 12.305 
11 *265:57 *3767:A 3.085 
12 *265:57 *3753:A 2.05 
*END

*D_NET *266 0.0222618
*CONN
*I *3754:A1 I *D sky130_fd_sc_hd__a22o_1
*I *3769:B I *D sky130_fd_sc_hd__nand4_1
*I *3768:A1 I *D sky130_fd_sc_hd__a22o_1
*I *3697:A1 I *D sky130_fd_sc_hd__a22o_1
*I *3701:B I *D sky130_fd_sc_hd__and4_1
*I *3702:A1 I *D sky130_fd_sc_hd__a22o_1
*I *3694:A I *D sky130_fd_sc_hd__buf_2
*I *3900:X O *D sky130_fd_sc_hd__buf_2
*CAP
1 *3754:A1 0
2 *3769:B 6.37684e-05
3 *3768:A1 5.77131e-05
4 *3697:A1 0.000117004
5 *3701:B 0
6 *3702:A1 0.000113029
7 *3694:A 3.08113e-05
8 *3900:X 0.00284456
9 *266:88 0.000310044
10 *266:84 0.000249595
11 *266:45 0.000621645
12 *266:35 0.00106448
13 *266:22 0.00117855
14 *266:20 0.00161938
15 *266:18 0.00322058
16 *266:8 0.00521566
17 *3697:A1 *301:69 5.68933e-05
18 *3697:A1 *303:61 8.83343e-05
19 *3702:A1 *3702:A2 0.000184347
20 *3702:A1 *3702:B1 5.84209e-05
21 *3702:A1 *3702:B2 4.99619e-05
22 *3702:A1 *267:23 5.56717e-05
23 *3702:A1 *302:73 4.95846e-05
24 *3768:A1 *3754:B1 2.04101e-05
25 *3768:A1 *274:29 1.91597e-05
26 *3769:B *267:68 7.06865e-05
27 *266:8 *3921:A 0.000160342
28 *266:8 *301:8 0.000311774
29 *266:18 *272:10 0
30 *266:22 *267:68 0
31 *266:35 *3709:A1 1.5431e-05
32 *266:35 *3735:B 7.46385e-05
33 *266:35 *303:42 3.4222e-05
34 *266:45 *3709:A1 1.00941e-05
35 *266:45 *277:22 0.000207949
36 *266:45 *302:71 0.000200764
37 *266:45 *302:73 8.7152e-06
38 *266:88 *3754:B1 0.000197264
39 int4_out[2] *266:8 1.58529e-05
40 int4_out[2] *266:18 3.62258e-06
41 *3697:B2 *266:35 0
42 *3717:A *266:45 0
43 *3729:B *266:35 0.000164679
44 *3746:B *266:22 2.15594e-05
45 *3746:B *266:35 4.14369e-05
46 *3754:A2 *266:22 0.000341732
47 *3754:A2 *266:84 1.08758e-05
48 *3760:A2 *266:22 0
49 *3776:B *266:22 0.000141599
50 *3776:C_N *266:22 3.76596e-05
51 *3780:B *266:22 0.000139238
52 *3783:B *266:20 0
53 *3783:C *266:20 0.000103192
54 *3785:A *266:22 0.000179115
55 *3785:A *266:35 1.82563e-05
56 *3796:A_N *266:20 0
57 *3874:CLK *266:45 4.28511e-05
58 *3889:A *266:45 0.000192382
59 *3906:A *266:18 4.89395e-05
60 *3915:A *266:8 5.09431e-05
61 *61:16 *266:45 4.63605e-05
62 *74:25 *266:35 0.000176647
63 *76:8 *266:35 0.000307354
64 *76:19 *266:35 0.00010596
65 *91:12 *266:22 4.49876e-05
66 *96:8 *266:22 0
67 *108:32 *266:22 0.000206817
68 *114:16 *266:20 0
69 *116:10 *266:20 9.40025e-05
70 *116:10 *266:22 8.70923e-05
71 *122:16 *266:22 0.000196414
72 *127:14 *266:22 0
73 *130:10 *266:20 0.000260126
74 *132:29 *3769:B 7.06865e-05
75 *214:6 *3702:A1 2.26018e-05
76 *247:10 *3694:A 2.90599e-05
77 *247:14 *266:35 4.62396e-05
78 *249:134 *3697:A1 8.03844e-05
79 *252:20 *3697:A1 0.000272978
80 *260:10 *266:35 0
81 *263:23 *266:35 4.10327e-05
82 *263:23 *266:45 1.00941e-05
83 *263:42 *3769:B 2.75229e-05
84 *263:42 *266:22 0
*RES
1 *3900:X *266:8 35.185 
2 *266:8 *266:18 39.3125 
3 *266:18 *266:20 15.7275 
4 *266:20 *266:22 16.935 
5 *266:22 *3694:A 4.05 
6 *266:22 *266:35 10.245 
7 *266:35 *266:45 4.78853 
8 *266:45 *3702:A1 6.72 
9 *266:45 *3701:B 3.6 
10 *266:35 *3697:A1 7.44 
11 *266:20 *266:84 3.17 
12 *266:84 *266:88 2.79 
13 *266:88 *3768:A1 2.41 
14 *266:88 *3769:B 6.92 
15 *266:84 *3754:A1 1.6 
*END

*D_NET *267 0.0233496
*CONN
*I *3754:B2 I *D sky130_fd_sc_hd__a22o_1
*I *3768:B2 I *D sky130_fd_sc_hd__a22o_1
*I *3769:A I *D sky130_fd_sc_hd__nand4_1
*I *3693:A I *D sky130_fd_sc_hd__buf_2
*I *3701:A I *D sky130_fd_sc_hd__and4_1
*I *3702:B2 I *D sky130_fd_sc_hd__a22o_1
*I *3901:X O *D sky130_fd_sc_hd__buf_2
*CAP
1 *3754:B2 4.47717e-05
2 *3768:B2 0.000182958
3 *3769:A 0
4 *3693:A 1.17533e-05
5 *3701:A 0
6 *3702:B2 4.44344e-05
7 *3901:X 0
8 *267:68 0.000348881
9 *267:59 0.000576592
10 *267:44 0.00117266
11 *267:23 0.000783253
12 *267:10 0.00347955
13 *267:8 0.00335733
14 *267:6 0.00442113
15 *267:4 0.00442113
16 *3693:A *279:35 2.75145e-05
17 *3754:B2 *3754:B1 4.99619e-05
18 *3768:B2 *3754:B1 1.34503e-05
19 *3768:B2 *274:29 6.97202e-05
20 *267:44 *301:69 0.000156119
21 *267:44 *302:71 0
22 *267:44 *303:78 0.000540239
23 *3702:A1 *3702:B2 4.99619e-05
24 *3702:A1 *267:23 5.56717e-05
25 *3704:A *267:44 8.68441e-05
26 *3704:B *267:44 2.99445e-05
27 *3710:A *267:44 0.000130427
28 *3714:A *267:44 5.36442e-05
29 *3714:B *267:44 0
30 *3715:A *267:23 5.69248e-06
31 *3769:B *267:68 7.06865e-05
32 *56:8 *267:44 3.95409e-05
33 *93:10 *267:44 7.36562e-05
34 *93:10 *267:59 4.43871e-06
35 *93:14 *3693:A 4.82863e-05
36 *115:14 *3754:B2 2.11084e-05
37 *116:10 *3768:B2 0
38 *116:10 *267:68 0
39 *122:16 *267:68 0
40 *132:29 *3768:B2 2.42236e-05
41 *132:29 *267:59 0.000379391
42 *132:29 *267:68 5.55694e-05
43 *140:10 *267:59 0.000136182
44 *209:16 *267:10 4.55864e-06
45 *209:16 *267:23 5.10873e-05
46 *209:16 *267:44 0.000209827
47 *214:6 *3702:B2 5.0751e-05
48 *245:23 *267:44 2.75538e-05
49 *245:23 *267:59 6.34249e-05
50 *245:92 *267:59 2.0851e-06
51 *246:10 *267:44 0.00066249
52 *246:12 *267:44 5.16418e-05
53 *249:16 *267:44 1.7902e-05
54 *249:48 *267:44 0.000118438
55 *254:6 *267:44 8.8266e-05
56 *257:16 *267:44 4.63761e-05
57 *263:23 *267:44 7.03765e-05
58 *263:23 *267:59 4.40495e-05
59 *263:42 *267:59 0.000864592
60 *263:42 *267:68 9.50342e-06
61 *266:22 *267:68 0
*RES
1 *3901:X *267:4 1.6 
2 *267:4 *267:6 48.405 
3 *267:6 *267:8 2 
4 *267:8 *267:10 55.95 
5 *267:10 *3702:B2 4.74 
6 *267:10 *267:23 3.635 
7 *267:23 *3701:A 1.6 
8 *267:23 *267:44 20.975 
9 *267:44 *3693:A 4.05 
10 *267:44 *267:59 12.99 
11 *267:59 *3769:A 3.6 
12 *267:59 *267:68 2.145 
13 *267:68 *3768:B2 6.66 
14 *267:68 *3754:B2 4.5 
*END

*D_NET *268 0.0161121
*CONN
*I *3681:B1 I *D sky130_fd_sc_hd__a21oi_1
*I *3902:X O *D sky130_fd_sc_hd__buf_1
*CAP
1 *3681:B1 0.00137246
2 *3902:X 0
3 *268:6 0.00721204
4 *268:4 0.00583959
5 *3681:B1 *3681:A1 3.86607e-05
6 *3681:B1 *275:10 0.00164939
7 *3681:B1 *303:20 0
*RES
1 *3902:X *268:4 1.6 
2 *268:4 *268:6 63.93 
3 *268:6 *3681:B1 38.6 
*END

*D_NET *269 0.0117454
*CONN
*I *3682:B2 I *D sky130_fd_sc_hd__o2bb2a_1
*I *3681:A1 I *D sky130_fd_sc_hd__a21oi_1
*I *3903:X O *D sky130_fd_sc_hd__buf_1
*CAP
1 *3682:B2 6.54618e-05
2 *3681:A1 0.000257159
3 *3903:X 0.00127349
4 *269:10 0.00295917
5 *269:8 0.00391005
6 *3681:A1 *303:20 0
7 *3682:B2 *3891:A 4.43871e-06
8 *3682:B2 *276:14 6.28843e-05
9 *3682:B2 *302:18 0
10 *269:8 *302:6 0.000313852
11 *269:10 *276:14 0.000270681
12 *269:10 *302:16 0
13 *269:10 *302:18 0
14 *269:10 *303:16 0.000820873
15 *269:10 *303:20 0.00138776
16 *3681:B1 *3681:A1 3.86607e-05
17 *3:11 *269:10 0
18 *211:31 *3681:A1 0.000311288
19 *265:12 *269:8 6.96579e-05
*RES
1 *3903:X *269:8 18.54 
2 *269:8 *269:10 60.54 
3 *269:10 *3681:A1 11.335 
4 *269:10 *3682:B2 4.98 
*END

*D_NET *270 0.0143882
*CONN
*I *3678:A I *D sky130_fd_sc_hd__or2_1
*I *3683:A1 I *D sky130_fd_sc_hd__a21o_1
*I *3904:X O *D sky130_fd_sc_hd__dlymetal6s2s_1
*CAP
1 *3678:A 0
2 *3683:A1 0.000228143
3 *3904:X 0
4 *270:10 0.00280174
5 *270:6 0.006836
6 *270:4 0.0042624
7 *3683:A1 *271:12 1.61831e-05
8 *3683:A1 *271:20 0.000203178
9 *3683:A1 *273:10 0
10 *270:10 *273:10 0
11 *270:10 *300:18 0
12 *3683:A2 *3683:A1 0
13 *3684:B1 *3683:A1 4.05358e-05
*RES
1 *3904:X *270:4 1.6 
2 *270:4 *270:6 64.62 
3 *270:6 *270:10 44.945 
4 *270:10 *3683:A1 7.155 
5 *270:10 *3678:A 3.6 
*END

*D_NET *271 0.0161353
*CONN
*I *3684:A1 I *D sky130_fd_sc_hd__a22o_1
*I *3675:A I *D sky130_fd_sc_hd__or2_1
*I *3905:X O *D sky130_fd_sc_hd__clkbuf_2
*CAP
1 *3684:A1 0
2 *3675:A 8.39922e-05
3 *3905:X 0
4 *271:20 0.00017687
5 *271:12 0.00429127
6 *271:10 0.00419839
7 *271:8 0.00278138
8 *271:6 0.00278138
9 *3675:A *273:10 0
10 *271:8 *3920:A 0.000884375
11 int4_out[1] *271:8 6.24871e-05
12 *3683:A1 *271:12 1.61831e-05
13 *3683:A1 *271:20 0.000203178
14 *3683:A2 *271:20 1.85674e-05
15 *3683:B1 *3675:A 3.76518e-05
16 *3683:B1 *271:20 0.000104306
17 *3684:A2 *3675:A 0.000141606
18 *3684:A2 *271:20 5.22973e-05
19 *3684:B1 *271:20 5.37074e-05
20 *3684:B2 *271:20 4.99619e-05
21 *3685:B2 *3675:A 0.000160651
22 *3898:A *271:8 0
23 *3904:A *271:8 3.70147e-05
*RES
1 *3905:X *271:6 3.6 
2 *271:6 *271:8 50.595 
3 *271:8 *271:10 2 
4 *271:10 *271:12 63.24 
5 *271:12 *271:20 3.6 
6 *271:20 *3675:A 8.255 
7 *271:20 *3684:A1 1.6 
*END

*D_NET *272 0.0129838
*CONN
*I *3672:A I *D sky130_fd_sc_hd__or2_1
*I *3685:A1 I *D sky130_fd_sc_hd__a22o_1
*I *3906:X O *D sky130_fd_sc_hd__buf_1
*CAP
1 *3672:A 0.000136585
2 *3685:A1 0
3 *3906:X 0.00123959
4 *272:20 0.00178218
5 *272:14 0.00329377
6 *272:10 0.00288776
7 *272:20 *3723:A2 9.02723e-05
8 *272:20 *3723:B1 1.90662e-05
9 *272:20 *3735:B 6.42013e-05
10 *3670:A *272:20 3.42583e-05
11 *3672:B *3672:A 6.20787e-05
12 *3672:B *272:20 2.16917e-05
13 *3685:B2 *3672:A 4.82919e-05
14 *3723:B2 *272:20 0.000186388
15 *3730:A *272:20 0.00014673
16 *3730:B *272:20 3.50612e-05
17 *3745:A2 *272:20 4.41506e-05
18 *3778:B *272:14 7.67721e-05
19 *3788:B1 *272:14 2.87867e-05
20 *3792:A *272:14 0.000132842
21 *3793:B1 *272:14 4.13879e-05
22 *3793:B2 *272:14 0.000512451
23 *3796:B *272:14 1.92979e-05
24 *3797:A *272:14 0
25 *3804:C *272:14 0
26 *3820:A0 *272:14 0
27 *3820:A0 *272:20 4.66108e-05
28 *3840:A2 *272:14 0
29 *58:8 *272:14 5.53249e-06
30 *77:6 *272:20 3.96653e-05
31 *125:23 *272:14 0
32 *128:34 *272:14 5.02217e-05
33 *131:22 *272:14 0
34 *133:10 *272:14 0.000134058
35 *144:8 *272:14 0
36 *144:16 *272:14 0
37 *149:14 *272:14 0
38 *157:14 *272:14 0
39 *225:12 *272:20 0.000235573
40 *245:23 *272:14 0.000269454
41 *245:23 *272:20 3.74161e-05
42 *245:92 *272:14 1.01182e-05
43 *245:98 *272:14 0.000676105
44 *246:62 *272:20 0.000469637
45 *247:33 *272:14 7.06865e-05
46 *249:54 *272:14 6.56448e-06
47 *264:62 *272:20 2.85695e-05
48 *266:18 *272:10 0
*RES
1 *3906:X *272:10 24.5775 
2 *272:10 *272:14 37.1075 
3 *272:14 *272:20 22.38 
4 *272:20 *3685:A1 1.6 
5 *272:20 *3672:A 3.775 
*END

*D_NET *273 0.00892512
*CONN
*I *3686:A1 I *D sky130_fd_sc_hd__a22o_1
*I *3687:B2 I *D sky130_fd_sc_hd__o221a_1
*I *3907:X O *D sky130_fd_sc_hd__buf_1
*CAP
1 *3686:A1 3.55115e-05
2 *3687:B2 0.000223376
3 *3907:X 0.000271917
4 *273:10 0.00293117
5 *273:8 0.0029442
6 *273:8 *296:12 4.01894e-05
7 *273:10 *300:18 0.00146532
8 *3675:A *273:10 0
9 *3683:A1 *273:10 0
10 *3683:B1 *3687:B2 0
11 *3683:B1 *273:10 0
12 *3684:B1 *273:10 0
13 *3685:B1 *273:10 6.28843e-05
14 *3685:B2 *273:10 6.95335e-05
15 *3686:A2 *3686:A1 5.4155e-06
16 *3686:A2 *3687:B2 0.00016163
17 *3686:B1 *3686:A1 1.08758e-05
18 *3686:B2 *3687:B2 3.09233e-05
19 *3686:B2 *273:10 0.000116158
20 *3863:A1 *3686:A1 5.1232e-05
21 *212:10 *273:10 0.000422105
22 *212:12 *273:10 8.26783e-05
23 *212:16 *273:10 0
24 *212:24 *273:10 0
25 *217:97 *3687:B2 0
26 *270:10 *273:10 0
*RES
1 *3907:X *273:8 6.81 
2 *273:8 *273:10 56.46 
3 *273:10 *3687:B2 7.785 
4 *273:10 *3686:A1 4.41 
*END

*D_NET *274 0.0106698
*CONN
*I *3769:C I *D sky130_fd_sc_hd__nand4_1
*I *3768:A2 I *D sky130_fd_sc_hd__a22o_1
*I *3754:B1 I *D sky130_fd_sc_hd__a22o_1
*I *3659:A I *D sky130_fd_sc_hd__clkbuf_4
*I *3908:X O *D sky130_fd_sc_hd__clkbuf_2
*CAP
1 *3769:C 3.83211e-05
2 *3768:A2 0
3 *3754:B1 7.4602e-05
4 *3659:A 0
5 *3908:X 0.00278967
6 *274:29 0.00016214
7 *274:21 0.00119065
8 *274:12 0.0017593
9 *274:8 0.00348419
10 *274:12 *280:16 0
11 *3754:B2 *3754:B1 4.99619e-05
12 *3768:A1 *3754:B1 2.04101e-05
13 *3768:A1 *274:29 1.91597e-05
14 *3768:B1 *274:29 9.54399e-05
15 *3768:B2 *3754:B1 1.34503e-05
16 *3768:B2 *274:29 6.97202e-05
17 *3769:D *3769:C 2.05056e-05
18 *3769:D *274:21 7.00889e-06
19 *3800:A *274:21 1.17309e-05
20 *3800:B *274:21 0.000196381
21 *3804:C *274:21 7.89269e-05
22 *115:14 *3754:B1 1.33293e-05
23 *132:29 *274:29 1.1561e-05
24 *144:26 *274:12 5.13155e-05
25 *145:14 *274:12 0
26 *146:14 *274:21 2.05056e-05
27 *147:19 *274:21 8.87273e-05
28 *149:14 *274:21 8.11472e-05
29 *245:98 *274:29 0.00011852
30 *263:42 *3769:C 5.83121e-06
31 *266:88 *3754:B1 0.000197264
*RES
1 *3908:X *274:8 42 
2 *274:8 *274:12 13.58 
3 *274:12 *3659:A 1.6 
4 *274:12 *274:21 12.885 
5 *274:21 *274:29 6.52 
6 *274:29 *3754:B1 3.79 
7 *274:29 *3768:A2 1.6 
8 *274:21 *3769:C 2.05 
*END

*D_NET *275 0.0122954
*CONN
*I *3687:A1 I *D sky130_fd_sc_hd__o221a_1
*I *3667:A I *D sky130_fd_sc_hd__and2_1
*I *3909:X O *D sky130_fd_sc_hd__buf_1
*CAP
1 *3687:A1 0.000278802
2 *3667:A 0
3 *3909:X 0.000842304
4 *275:10 0.00357611
5 *275:8 0.00413961
6 *3687:A1 *3867:A1 5.98004e-06
7 *275:8 *303:12 0.000790002
8 *275:10 *3867:A1 5.72091e-05
9 *275:10 *303:16 0
10 *275:10 *303:20 0
11 *3667:B *3687:A1 0.000231977
12 *3679:B *275:10 0
13 *3681:B1 *275:10 0.00164939
14 *3683:B1 *275:10 0
15 *3861:B1 *275:10 0.000178034
16 *3881:CLK *3687:A1 9.50342e-06
17 *3881:CLK *275:10 0.00033683
18 *223:10 *3687:A1 0
19 *262:38 *3687:A1 2.20732e-05
20 *262:40 *3687:A1 0.000177568
*RES
1 *3909:X *275:8 15.435 
2 *275:8 *275:10 66.66 
3 *275:10 *3667:A 3.6 
4 *275:10 *3687:A1 9.33 
*END

*D_NET *276 0.015516
*CONN
*I *3689:A1 I *D sky130_fd_sc_hd__a21oi_4
*I *3688:A1 I *D sky130_fd_sc_hd__o22a_1
*I *3910:X O *D sky130_fd_sc_hd__clkbuf_2
*CAP
1 *3689:A1 0.000162504
2 *3688:A1 1.71066e-05
3 *3910:X 0.000309692
4 *276:14 0.00054832
5 *276:10 0.00650947
6 *276:8 0.00645045
7 *276:14 *3891:A 0
8 *276:14 *302:18 0
9 *276:14 *303:20 0.000794985
10 *3682:B2 *276:14 6.28843e-05
11 *3688:A2 *3689:A1 7.4027e-05
12 *3688:B1 *3688:A1 5.05521e-05
13 *3688:B2 *3688:A1 8.65961e-05
14 *3688:B2 *3689:A1 0
15 *3689:B1 *3689:A1 0
16 *218:12 *3689:A1 4.42213e-05
17 *234:10 *276:14 0.000134551
18 *243:14 *3689:A1 0
19 *243:14 *276:14 0
20 *269:10 *276:14 0.000270681
*RES
1 *3910:X *276:8 6.0325 
2 *276:8 *276:10 66.8625 
3 *276:10 *276:14 12.815 
4 *276:14 *3688:A1 4.395 
5 *276:14 *3689:A1 6.66 
*END

*D_NET *277 0.0200104
*CONN
*I *3875:D I *D sky130_fd_sc_hd__dfrtp_1
*I *3655:A I *D sky130_fd_sc_hd__clkbuf_4
*I *3911:X O *D sky130_fd_sc_hd__clkbuf_2
*CAP
1 *3875:D 0.000164953
2 *3655:A 0
3 *3911:X 0
4 *277:22 0.00396276
5 *277:8 0.00684019
6 *277:6 0.00304239
7 *3875:D *3875:RESET_B 0
8 *277:8 *3922:A 0.0022267
9 *277:22 *3709:A1 7.96104e-06
10 *277:22 *301:27 0.0022802
11 int4_out[0] *277:8 2.23342e-05
12 int4_out[3] *277:8 1.92979e-05
13 is_outlier *277:8 0
14 *3699:A *3875:D 7.00889e-06
15 *3699:A *277:22 9.91257e-05
16 *3709:B1 *277:22 0
17 *3718:B *277:22 0.000251192
18 *3874:CLK *277:22 0
19 *3875:CLK *277:22 0
20 *3889:A *277:22 0
21 *3908:A *277:8 0
22 *3:13 *3875:D 0
23 *209:16 *3875:D 0.000114912
24 *209:16 *277:22 0.000425312
25 *209:98 *3875:D 8.65905e-05
26 *214:77 *3875:D 0
27 *243:26 *277:22 8.76457e-05
28 *249:6 *277:22 4.9253e-06
29 *263:23 *277:22 0
30 *265:14 *277:22 5.53249e-06
31 *265:31 *3875:D 7.81829e-05
32 *265:31 *277:22 7.5245e-05
33 *266:45 *277:22 0.000207949
*RES
1 *3911:X *277:6 3.6 
2 *277:6 *277:8 64.4925 
3 *277:8 *277:22 17.283 
4 *277:22 *3655:A 1.6 
5 *277:22 *3875:D 9.32 
*END

*D_NET *278 0.00534571
*CONN
*I *3919:A I *D sky130_fd_sc_hd__clkbuf_4
*I *3893:A I *D sky130_fd_sc_hd__dlygate4sd3_1
*I *3876:Q O *D sky130_fd_sc_hd__dfrtp_1
*CAP
1 *3919:A 0.00218963
2 *3893:A 0
3 *3876:Q 0.000245323
4 *278:10 0.00243495
5 *3919:A *301:10 0.000181152
6 *278:10 *301:10 0.000178496
7 *3878:D *278:10 0.000116158
*RES
1 *3876:Q *278:10 8.415 
2 *278:10 *3893:A 3.6 
3 *278:10 *3919:A 35.325 
*END

*D_NET *279 0.0187563
*CONN
*I *3920:A I *D sky130_fd_sc_hd__buf_2
*I *3896:A I *D sky130_fd_sc_hd__dlygate4sd3_1
*I *3877:Q O *D sky130_fd_sc_hd__dfrtp_2
*CAP
1 *3920:A 0.00039181
2 *3896:A 0
3 *3877:Q 8.07348e-05
4 *279:37 0.00565548
5 *279:35 0.00702233
6 *279:12 0.0018394
7 *279:35 *296:36 2.4997e-05
8 *279:35 *296:38 7.18895e-05
9 *279:37 *296:98 3.1835e-05
10 *3677:A *279:37 2.49909e-05
11 *3683:A2 *279:37 8.31082e-05
12 *3693:A *279:35 2.75145e-05
13 *3742:A1 *279:35 0
14 *3748:B *279:35 3.90495e-05
15 *3780:A *279:35 1.7824e-05
16 *3780:B *279:35 5.85534e-05
17 *3807:B *279:12 2.7881e-05
18 *3807:B *279:35 0.000165346
19 *3814:A *279:35 0.00012657
20 *3845:A1 *279:35 9.27255e-06
21 *3849:A1 *279:35 1.47347e-05
22 *3849:A2 *279:12 8.23457e-05
23 *3849:A2 *279:35 0.000150672
24 *3849:B1 *279:35 5.90938e-05
25 *3849:B2 *279:35 2.75229e-05
26 *3850:A3 *279:12 8.23457e-05
27 *3850:A3 *279:35 7.57202e-05
28 *87:10 *279:37 0.000122337
29 *89:8 *279:35 0.000712091
30 *93:14 *279:35 0.000148524
31 *94:16 *279:35 2.75229e-05
32 *95:16 *279:35 3.37693e-05
33 *161:8 *279:35 1.03423e-05
34 *213:138 *279:35 1.47347e-05
35 *214:25 *279:12 0.00011379
36 *214:88 *279:35 5.16348e-05
37 *231:8 *279:37 0.000127485
38 *246:10 *279:35 8.40269e-05
39 *247:112 *279:35 0.000136877
40 *247:127 *279:35 9.78012e-05
41 *271:8 *3920:A 0.000884375
*RES
1 *3877:Q *279:12 7.775 
2 *279:12 *3896:A 1.6 
3 *279:12 *279:35 32.455 
4 *279:35 *279:37 73.935 
5 *279:37 *3920:A 15.65 
*END

*D_NET *280 0.00678827
*CONN
*I *3895:A I *D sky130_fd_sc_hd__dlygate4sd3_1
*I *3921:A I *D sky130_fd_sc_hd__clkbuf_4
*I *3878:Q O *D sky130_fd_sc_hd__dfrtp_1
*CAP
1 *3895:A 0
2 *3921:A 3.55032e-05
3 *3878:Q 0.000172904
4 *280:16 0.00266195
5 *280:8 0.00279935
6 *280:8 *3878:RESET_B 0
7 int4_out[2] *3921:A 4.9177e-05
8 *3829:A *280:16 0.000187409
9 *3847:B2 *280:16 9.37731e-05
10 *3854:A2 *280:16 3.50111e-05
11 *3854:A3 *280:8 0.000122331
12 *3854:B1 *280:16 1.1561e-05
13 *144:26 *280:16 0
14 *154:25 *280:16 0.000136877
15 *155:21 *280:16 0.000152405
16 *180:20 *280:8 8.65961e-05
17 *213:8 *280:16 8.30826e-05
18 *266:8 *3921:A 0.000160342
19 *274:12 *280:16 0
*RES
1 *3878:Q *280:8 4.825 
2 *280:8 *280:16 49.07 
3 *280:16 *3921:A 5.085 
4 *280:8 *3895:A 1.6 
*END

*D_NET *281 0.0110538
*CONN
*I *3894:A I *D sky130_fd_sc_hd__dlygate4sd3_1
*I *3922:A I *D sky130_fd_sc_hd__clkbuf_4
*I *3879:Q O *D sky130_fd_sc_hd__dfrtp_1
*CAP
1 *3894:A 0.000246397
2 *3922:A 0.00186249
3 *3879:Q 0
4 *281:8 0.00416714
5 *281:4 0.00255104
6 *3894:A *301:10 0
7 *277:8 *3922:A 0.0022267
*RES
1 *3879:Q *281:4 1.6 
2 *281:4 *281:8 27.29 
3 *281:8 *3922:A 48.075 
4 *281:4 *3894:A 9.26 
*END

*D_NET *282 0.00403881
*CONN
*I *3892:A I *D sky130_fd_sc_hd__dlygate4sd3_1
*I *3923:A I *D sky130_fd_sc_hd__clkbuf_4
*I *3874:Q O *D sky130_fd_sc_hd__dfrtp_1
*CAP
1 *3892:A 0.000230741
2 *3923:A 0.00178866
3 *3874:Q 0
4 *282:4 0.0020194
5 *3892:A *3874:RESET_B 0
*RES
1 *3874:Q *282:4 1.6 
2 *282:4 *3923:A 28.39 
3 *282:4 *3892:A 9.08 
*END

*D_NET *283 0.0076666
*CONN
*I *3858:B I *D sky130_fd_sc_hd__and2_1
*I *3924:A I *D sky130_fd_sc_hd__clkbuf_4
*I *3880:Q O *D sky130_fd_sc_hd__dfrtp_1
*CAP
1 *3858:B 7.86253e-05
2 *3924:A 0
3 *3880:Q 0
4 *283:10 0.00364764
5 *283:8 0.00368466
6 *283:4 0.000115641
7 *3858:B *3880:RESET_B 0.00012657
8 *3858:B *293:22 0
9 *283:8 *3880:RESET_B 1.34594e-05
10 *3858:A *283:10 0
*RES
1 *3880:Q *283:4 1.6 
2 *283:4 *283:8 2.45 
3 *283:8 *283:10 60.795 
4 *283:10 *3924:A 3.6 
5 *283:4 *3858:B 3.355 
*END

*D_NET *284 0.0137191
*CONN
*I *3925:A I *D sky130_fd_sc_hd__clkbuf_4
*I *3860:B I *D sky130_fd_sc_hd__and2_1
*I *3881:Q O *D sky130_fd_sc_hd__dfrtp_1
*CAP
1 *3925:A 0.00128807
2 *3860:B 0.000378701
3 *3881:Q 0.000162417
4 *284:23 0.00538478
5 *284:10 0.00463783
6 *3925:A *288:27 0
7 *284:23 *3932:A 0.00138308
8 *284:23 *292:22 0.000410651
9 *3860:A *3860:B 7.35729e-05
10 *211:31 *284:10 0
11 *211:42 *284:10 0
*RES
1 *3881:Q *284:10 7.745 
2 *284:10 *3860:B 7.255 
3 *284:10 *284:23 51.51 
4 *284:23 *3925:A 26.255 
*END

*D_NET *285 0.0109621
*CONN
*I *3658:A I *D sky130_fd_sc_hd__clkbuf_4
*I *3767:B I *D sky130_fd_sc_hd__and2_1
*I *3912:X O *D sky130_fd_sc_hd__buf_1
*CAP
1 *3658:A 0
2 *3767:B 0.000498808
3 *3912:X 0.00203882
4 *285:16 0.0032907
5 *285:10 0.00483071
6 *3767:B *3753:B 4.82919e-05
7 *3767:B *296:22 0.000157458
8 *3767:B *296:141 1.37328e-05
9 *3753:A *3767:B 2.49909e-05
10 *3767:A *3767:B 2.05056e-05
11 *212:10 *3767:B 3.80606e-05
*RES
1 *3912:X *285:10 39.62 
2 *285:10 *285:16 41.625 
3 *285:16 *3767:B 9.31 
4 *285:16 *3658:A 1.6 
*END

*D_NET *286 0.0127725
*CONN
*I *3926:A I *D sky130_fd_sc_hd__clkbuf_4
*I *3862:B I *D sky130_fd_sc_hd__and2_1
*I *3882:Q O *D sky130_fd_sc_hd__dfrtp_1
*CAP
1 *3926:A 0
2 *3862:B 0.000401517
3 *3882:Q 0
4 *286:27 0.0042512
5 *286:25 0.00596059
6 *286:4 0.00211091
7 *3862:B *304:28 0
8 *3862:A *3862:B 4.82863e-05
*RES
1 *3882:Q *286:4 1.6 
2 *286:4 *3862:B 11.69 
3 *286:4 *286:25 20.735 
4 *286:25 *286:27 70.995 
5 *286:27 *3926:A 3.6 
*END

*D_NET *287 0.0150681
*CONN
*I *3927:A I *D sky130_fd_sc_hd__clkbuf_4
*I *3864:B I *D sky130_fd_sc_hd__and2_1
*I *3883:Q O *D sky130_fd_sc_hd__dfrtp_1
*CAP
1 *3927:A 0.00122294
2 *3864:B 0.000263439
3 *3883:Q 8.76051e-05
4 *287:33 0.00392923
5 *287:23 0.00577494
6 *287:8 0.0034197
7 *3864:B *304:26 0.000120186
8 *287:8 *3883:RESET_B 5.0751e-05
9 sideband_out[3] *3927:A 2.70721e-05
10 *3864:A *3864:B 4.82919e-05
11 *3912:A *3927:A 0.00012398
*RES
1 *3883:Q *287:8 4.74 
2 *287:8 *3864:B 8.19 
3 *287:8 *287:23 51.105 
4 *287:23 *287:33 36.555 
5 *287:33 *3927:A 19.3 
*END

*D_NET *288 0.0172633
*CONN
*I *3928:A I *D sky130_fd_sc_hd__clkbuf_4
*I *3866:B I *D sky130_fd_sc_hd__and2_1
*I *3884:Q O *D sky130_fd_sc_hd__dfrtp_2
*CAP
1 *3928:A 3.1532e-05
2 *3866:B 0.000367222
3 *3884:Q 0
4 *288:27 0.00330865
5 *288:25 0.00327712
6 *288:23 0.00495576
7 *288:4 0.00532298
8 *3866:B *3867:A1 0
9 *3866:B *304:32 0
10 sideband_out[1] *288:27 0
11 valid_out *288:27 0
12 *3867:A2 *3866:B 0
13 *3925:A *288:27 0
*RES
1 *3884:Q *288:4 1.6 
2 *288:4 *3866:B 11 
3 *288:4 *288:23 54.27 
4 *288:23 *288:25 2 
5 *288:25 *288:27 54.675 
6 *288:27 *3928:A 4.05 
*END

*D_NET *289 0.0142441
*CONN
*I *3868:B I *D sky130_fd_sc_hd__and2_1
*I *3929:A I *D sky130_fd_sc_hd__clkbuf_4
*I *3885:Q O *D sky130_fd_sc_hd__dfrtp_1
*CAP
1 *3868:B 0.000159426
2 *3929:A 0.000965165
3 *3885:Q 0.000175042
4 *289:10 0.00271918
5 *289:8 0.00208848
6 *3868:B *290:8 6.45236e-05
7 *3868:B *290:10 0.000123242
8 *3868:B *291:12 0.0001805
9 *3868:B *293:38 0.000137968
10 *3929:A *3930:A 0.000393024
11 *289:10 *290:10 0.00514368
12 *289:10 *291:12 0.00131121
13 *3868:A *3868:B 2.75229e-05
14 *265:8 *3929:A 0.000467309
15 *265:12 *3929:A 0.000287865
*RES
1 *3885:Q *289:8 5.43 
2 *289:8 *289:10 59.01 
3 *289:10 *3929:A 21.645 
4 *289:8 *3868:B 9 
*END

*D_NET *290 0.0121835
*CONN
*I *3870:B I *D sky130_fd_sc_hd__and2_1
*I *3930:A I *D sky130_fd_sc_hd__clkbuf_4
*I *3886:Q O *D sky130_fd_sc_hd__dfrtp_1
*CAP
1 *3870:B 0.000514644
2 *3930:A 6.69626e-05
3 *3886:Q 3.74776e-05
4 *290:10 0.00240913
5 *290:8 0.00289429
6 *290:8 *3885:RESET_B 0
7 *290:8 *293:38 9.50342e-06
8 *290:10 *3885:RESET_B 0
9 *3868:B *290:8 6.45236e-05
10 *3868:B *290:10 0.000123242
11 *3871:B1 *3870:B 4.99619e-05
12 *3885:D *3870:B 4.82919e-05
13 *3929:A *3930:A 0.000393024
14 *265:12 *3930:A 0.000428758
15 *289:10 *290:10 0.00514368
*RES
1 *3886:Q *290:8 4.47 
2 *290:8 *290:10 60.03 
3 *290:10 *3930:A 7.5 
4 *290:8 *3870:B 10.05 
*END

*D_NET *291 0.0104273
*CONN
*I *3872:B I *D sky130_fd_sc_hd__and2_1
*I *3931:A I *D sky130_fd_sc_hd__clkbuf_4
*I *3887:Q O *D sky130_fd_sc_hd__dfrtp_1
*CAP
1 *3872:B 0.000431209
2 *3931:A 0.00187623
3 *3887:Q 0.000105657
4 *291:12 0.00380208
5 *291:8 0.00246271
6 *3872:B *3691:A1 5.93953e-05
7 *291:8 *293:38 0
8 *291:12 *293:38 0
9 *3691:A2 *3872:B 8.49205e-05
10 *3691:B1_N *3872:B 4.99619e-05
11 *3868:B *291:12 0.0001805
12 *3872:A *3872:B 3.00381e-05
13 *3874:D *3872:B 1.03423e-05
14 *210:25 *3872:B 2.30292e-05
15 *289:10 *291:12 0.00131121
*RES
1 *3887:Q *291:8 5.235 
2 *291:8 *291:12 44.435 
3 *291:12 *3931:A 27.58 
4 *291:8 *3872:B 10.29 
*END

*D_NET *292 0.0123534
*CONN
*I *3932:A I *D sky130_fd_sc_hd__buf_2
*I *3875:Q O *D sky130_fd_sc_hd__dfrtp_1
*CAP
1 *3932:A 0.00110486
2 *3875:Q 0.00399591
3 *292:22 0.00510078
4 *292:22 *302:18 6.06649e-05
5 *3861:A1 *292:22 0.000297498
6 *284:23 *3932:A 0.00138308
7 *284:23 *292:22 0.000410651
*RES
1 *3875:Q *292:22 39.6771 
2 *292:22 *3932:A 26.0275 
*END

*D_NET *293 0.012557
*CONN
*I *3875:RESET_B I *D sky130_fd_sc_hd__dfrtp_1
*I *3885:RESET_B I *D sky130_fd_sc_hd__dfrtp_1
*I *3878:RESET_B I *D sky130_fd_sc_hd__dfrtp_1
*I *3876:RESET_B I *D sky130_fd_sc_hd__dfrtp_1
*I *3877:RESET_B I *D sky130_fd_sc_hd__dfrtp_2
*I *3879:RESET_B I *D sky130_fd_sc_hd__dfrtp_1
*I *3874:RESET_B I *D sky130_fd_sc_hd__dfrtp_1
*I *3887:RESET_B I *D sky130_fd_sc_hd__dfrtp_1
*I *3886:RESET_B I *D sky130_fd_sc_hd__dfrtp_1
*I *3880:RESET_B I *D sky130_fd_sc_hd__dfrtp_1
*I *3891:X O *D sky130_fd_sc_hd__clkbuf_4
*CAP
1 *3875:RESET_B 8.5722e-05
2 *3885:RESET_B 8.01509e-05
3 *3878:RESET_B 0.000257005
4 *3876:RESET_B 0.000113517
5 *3877:RESET_B 0.000465459
6 *3879:RESET_B 0
7 *3874:RESET_B 0.00048192
8 *3887:RESET_B 3.02756e-05
9 *3886:RESET_B 3.61994e-06
10 *3880:RESET_B 0.00222818
11 *3891:X 0.000248063
12 *293:86 0.000498001
13 *293:68 0.000627086
14 *293:61 0.000305412
15 *293:38 0.000728244
16 *293:32 0.000802957
17 *293:22 0.00086146
18 *293:6 0.00193962
19 *3874:RESET_B *301:10 0.000147083
20 *3878:RESET_B *3855:A2 7.08455e-05
21 *3878:RESET_B *301:10 0.000223033
22 *293:38 *3869:A1 0
23 *293:38 *301:10 8.64067e-05
24 *293:61 *3857:A2 0.000121152
25 *293:61 *301:10 0.000411486
26 *293:68 *3857:A2 5.39718e-05
27 *293:68 *301:10 0.000110683
28 *293:86 *3855:A2 3.67779e-05
29 *293:86 *301:10 0.00033273
30 *3691:B1_N *293:61 0
31 *3847:B1 *3878:RESET_B 3.98952e-05
32 *3858:B *3880:RESET_B 0.00012657
33 *3858:B *293:22 0
34 *3868:B *293:38 0.000137968
35 *3875:D *3875:RESET_B 0
36 *3877:CLK *3877:RESET_B 1.34594e-05
37 *3877:D *3877:RESET_B 0.000124895
38 *3878:CLK *3878:RESET_B 9.02174e-05
39 *3880:CLK *293:22 2.75145e-05
40 *3880:D *293:22 9.91257e-05
41 *3885:D *3885:RESET_B 0
42 *3885:D *293:38 0
43 *3886:D *3886:RESET_B 2.65337e-05
44 *3886:D *293:22 9.14035e-05
45 *3886:D *293:32 1.86458e-05
46 *3892:A *3874:RESET_B 0
47 *211:83 *293:61 0
48 *211:100 *293:68 8.08153e-06
49 *211:100 *293:86 7.75412e-05
50 *214:57 *3875:RESET_B 7.06865e-05
51 *214:57 *293:6 0.000107704
52 *214:77 *3875:RESET_B 9.16314e-05
53 *261:33 *293:22 3.13457e-05
54 *261:92 *293:86 0
55 *280:8 *3878:RESET_B 0
56 *283:8 *3880:RESET_B 1.34594e-05
57 *290:8 *3885:RESET_B 0
58 *290:8 *293:38 9.50342e-06
59 *290:10 *3885:RESET_B 0
60 *291:8 *293:38 0
61 *291:12 *293:38 0
*RES
1 *3891:X *293:6 4.81 
2 *293:6 *3880:RESET_B 24.4875 
3 *3880:RESET_B *293:22 9.0675 
4 *293:22 *3886:RESET_B 0.3975 
5 *293:22 *293:32 2.88 
6 *293:32 *293:38 10.475 
7 *293:38 *3887:RESET_B 2.3975 
8 *293:38 *3874:RESET_B 6.185 
9 *3874:RESET_B *293:61 8.4875 
10 *293:61 *3879:RESET_B 2 
11 *293:61 *293:68 1.38 
12 *293:68 *3877:RESET_B 8.1575 
13 *293:68 *293:86 3.93 
14 *293:86 *3876:RESET_B 3.3575 
15 *293:86 *3878:RESET_B 7.8275 
16 *293:32 *3885:RESET_B 5.125 
17 *293:6 *3875:RESET_B 5.89 
*END

*D_NET *294 0.000938797
*CONN
*I *3691:A1 I *D sky130_fd_sc_hd__o21ba_1
*I *3892:X O *D sky130_fd_sc_hd__dlygate4sd3_1
*CAP
1 *3691:A1 0.000264437
2 *3892:X 0.000264437
3 *3691:A1 *301:10 0
4 *3691:A2 *3691:A1 8.49205e-05
5 *3691:B1_N *3691:A1 0.000265607
6 *3872:B *3691:A1 5.93953e-05
*RES
1 *3892:X *3691:A1 12.915 
*END

*D_NET *295 0.000213869
*CONN
*I *3847:A2 I *D sky130_fd_sc_hd__a22o_1
*I *3893:X O *D sky130_fd_sc_hd__dlygate4sd3_1
*CAP
1 *3847:A2 4.36495e-05
2 *3893:X 4.36495e-05
3 *3847:B1 *3847:A2 0.00012657
*RES
1 *3893:X *3847:A2 4.34 
*END

*D_NET *296 0.0223444
*CONN
*I *3753:B I *D sky130_fd_sc_hd__and2_1
*I *3795:B I *D sky130_fd_sc_hd__nand2_1
*I *3788:A2 I *D sky130_fd_sc_hd__a31o_1
*I *3739:A2 I *D sky130_fd_sc_hd__a22o_1
*I *3740:C I *D sky130_fd_sc_hd__nand4_1
*I *3724:D I *D sky130_fd_sc_hd__nand4_1
*I *3865:A1 I *D sky130_fd_sc_hd__a31o_1
*I *3674:A I *D sky130_fd_sc_hd__xnor2_1
*I *3723:B1 I *D sky130_fd_sc_hd__a22o_1
*I *3661:A I *D sky130_fd_sc_hd__or4_1
*I *3913:X O *D sky130_fd_sc_hd__clkbuf_4
*CAP
1 *3753:B 7.08675e-06
2 *3795:B 0
3 *3788:A2 9.28301e-05
4 *3739:A2 1.0917e-05
5 *3740:C 0
6 *3724:D 0.000329074
7 *3865:A1 0.000807863
8 *3674:A 2.08101e-05
9 *3723:B1 5.05561e-05
10 *3661:A 0.000130807
11 *3913:X 0.00156696
12 *296:141 0.000772353
13 *296:98 0.000505635
14 *296:66 0.00113737
15 *296:40 0.000216153
16 *296:38 0.000457923
17 *296:36 0.00036621
18 *296:34 0.000725225
19 *296:22 0.00139383
20 *296:16 0.00157093
21 *296:12 0.00305559
22 *3661:A *3671:A 1.85674e-05
23 *3661:A *301:115 0.000250623
24 *3723:B1 *3723:A2 0.00015639
25 *3865:A1 *304:26 0
26 *296:12 *300:12 0.00117161
27 *296:16 *300:31 0.000158101
28 *296:36 *3750:B 4.49076e-05
29 *296:38 *3750:B 0.000352775
30 *296:38 *301:115 3.09233e-05
31 *296:40 *301:115 0.000114492
32 *296:66 *300:43 1.33293e-05
33 *3675:B *3865:A1 2.05056e-05
34 *3723:B2 *3723:B1 1.61831e-05
35 *3737:B1 *3724:D 3.42142e-05
36 *3740:B *296:98 0.00015639
37 *3740:D *3724:D 3.00381e-05
38 *3743:A *3724:D 2.7441e-05
39 *3743:A *296:98 2.16833e-05
40 *3743:B *3724:D 0.000101945
41 *3743:C *3724:D 6.95753e-05
42 *3751:A *296:34 9.37479e-05
43 *3752:A1 *296:34 0.000244607
44 *3756:A1 *296:34 0.000132842
45 *3758:A *296:34 6.43126e-05
46 *3765:B *296:141 2.48097e-05
47 *3767:A *3753:B 3.83041e-05
48 *3767:A *296:22 8.8266e-05
49 *3767:B *3753:B 4.82919e-05
50 *3767:B *296:22 0.000157458
51 *3767:B *296:141 1.37328e-05
52 *3770:A2 *296:141 0.000122337
53 *3771:A1 *296:141 1.34594e-05
54 *3771:B1 *296:141 0.000194694
55 *3773:A1 *296:141 8.65961e-05
56 *3782:A *296:141 0.000230429
57 *3782:B *296:141 4.9292e-05
58 *3784:B1 *3788:A2 1.10085e-05
59 *3784:B1 *296:141 1.79364e-05
60 *3795:A *3788:A2 0.000128066
61 *3797:A *3788:A2 1.14914e-05
62 *3883:CLK *3865:A1 0
63 *3883:D *3865:A1 2.46089e-05
64 *3907:A *296:12 9.25087e-05
65 *72:20 *3661:A 0
66 *83:10 *3724:D 0.000136877
67 *85:21 *296:34 0.000118527
68 *87:10 *296:34 0.000114492
69 *87:10 *296:36 0.000139933
70 *87:10 *296:98 2.51419e-05
71 *88:8 *296:34 0
72 *90:6 *3724:D 2.65814e-06
73 *100:6 *296:22 0.000179225
74 *100:6 *296:141 6.07575e-06
75 *100:23 *296:141 5.57182e-05
76 *102:8 *296:34 0
77 *103:10 *296:34 0.000124632
78 *114:16 *296:34 7.06865e-05
79 *115:14 *296:141 3.83194e-05
80 *115:23 *296:141 0.000120655
81 *117:8 *296:141 0.000387891
82 *118:6 *296:141 2.70992e-05
83 *129:18 *296:16 0
84 *129:18 *296:141 6.28008e-05
85 *131:22 *296:141 4.66108e-05
86 *136:14 *3788:A2 0.000234685
87 *136:14 *296:141 2.97373e-05
88 *212:80 *3739:A2 2.0198e-05
89 *213:89 *3661:A 5.83121e-06
90 *213:108 *3661:A 3.83194e-05
91 *214:77 *3661:A 9.50342e-06
92 *214:88 *3661:A 0.000252282
93 *214:88 *296:38 0.000242779
94 *214:88 *296:40 0.000107627
95 *228:8 *3674:A 0
96 *228:8 *3865:A1 0.00024366
97 *246:85 *296:98 8.40269e-05
98 *247:112 *3723:B1 2.49909e-05
99 *247:127 *296:36 5.93674e-05
100 *264:18 *296:16 0.000861288
101 *264:35 *296:34 0
102 *264:35 *296:141 6.52756e-05
103 *264:51 *3724:D 0.000123905
104 *265:42 *296:66 0.000198945
105 *265:57 *296:34 0
106 *272:20 *3723:B1 1.90662e-05
107 *273:8 *296:12 4.01894e-05
108 *279:35 *296:36 2.4997e-05
109 *279:35 *296:38 7.18895e-05
110 *279:37 *296:98 3.1835e-05
*RES
1 *3913:X *296:12 25.9575 
2 *296:12 *296:16 31.4675 
3 *296:16 *296:22 2.985 
4 *296:22 *296:34 15.2 
5 *296:34 *296:36 2.4 
6 *296:36 *296:38 4.44 
7 *296:38 *296:40 1.38 
8 *296:40 *3661:A 7.665 
9 *296:40 *3723:B1 5.085 
10 *296:38 *296:66 6.59 
11 *296:66 *3674:A 1.96 
12 *296:66 *3865:A1 16.175 
13 *296:36 *296:98 5.585 
14 *296:98 *3724:D 11.555 
15 *296:98 *3740:C 1.6 
16 *296:34 *3739:A2 3.795 
17 *296:22 *296:141 18.97 
18 *296:141 *3788:A2 4.495 
19 *296:141 *3795:B 1.6 
20 *296:16 *3753:B 2.05 
*END

*D_NET *297 0.000625738
*CONN
*I *3857:A2 I *D sky130_fd_sc_hd__a21bo_1
*I *3894:X O *D sky130_fd_sc_hd__dlygate4sd3_1
*CAP
1 *3857:A2 7.52527e-05
2 *3894:X 7.52527e-05
3 *3857:A1 *3857:A2 1.42551e-05
4 *211:100 *3857:A2 0.000285854
5 *293:61 *3857:A2 0.000121152
6 *293:68 *3857:A2 5.39718e-05
*RES
1 *3894:X *3857:A2 10.62 
*END

*D_NET *298 0.00147845
*CONN
*I *3855:A2 I *D sky130_fd_sc_hd__a22o_1
*I *3895:X O *D sky130_fd_sc_hd__dlygate4sd3_1
*CAP
1 *3855:A2 0.000466368
2 *3895:X 0.000466368
3 *3847:A1 *3855:A2 3.86607e-05
4 *3847:B1 *3855:A2 0.000187759
5 *3850:A2 *3855:A2 0
6 *3855:A1 *3855:A2 9.53428e-06
7 *3876:CLK *3855:A2 0.000154106
8 *3878:CLK *3855:A2 4.80285e-05
9 *3878:RESET_B *3855:A2 7.08455e-05
10 *293:86 *3855:A2 3.67779e-05
*RES
1 *3895:X *3855:A2 18.73 
*END

*D_NET *299 0.0011047
*CONN
*I *3851:A2 I *D sky130_fd_sc_hd__a22o_1
*I *3896:X O *D sky130_fd_sc_hd__dlygate4sd3_1
*CAP
1 *3851:A2 0.000405593
2 *3896:X 0.000405593
3 *3850:A3 *3851:A2 0.000241483
4 *3851:B1 *3851:A2 2.0046e-05
5 *3851:B2 *3851:A2 2.11084e-05
6 *3855:A1 *3851:A2 0
7 *3855:B1 *3851:A2 0
8 *211:117 *3851:A2 1.08758e-05
*RES
1 *3896:X *3851:A2 8.87 
*END

*D_NET *300 0.0245745
*CONN
*I *3738:B I *D sky130_fd_sc_hd__and2_1
*I *3723:A2 I *D sky130_fd_sc_hd__a22o_1
*I *3671:A I *D sky130_fd_sc_hd__xor2_1
*I *3867:A1 I *D sky130_fd_sc_hd__a31o_1
*I *3662:B I *D sky130_fd_sc_hd__or3_1
*I *3668:A1 I *D sky130_fd_sc_hd__o21a_1
*I *3695:D I *D sky130_fd_sc_hd__nand4_1
*I *3724:C I *D sky130_fd_sc_hd__nand4_1
*I *3697:B1 I *D sky130_fd_sc_hd__a22o_1
*I *3764:B I *D sky130_fd_sc_hd__and2_1
*I *3914:X O *D sky130_fd_sc_hd__clkbuf_4
*CAP
1 *3738:B 0
2 *3723:A2 0.000332843
3 *3671:A 9.99365e-05
4 *3867:A1 0.000894144
5 *3662:B 4.74355e-05
6 *3668:A1 7.0542e-06
7 *3695:D 1.77753e-05
8 *3724:C 0.000359587
9 *3697:B1 0.000188223
10 *3764:B 0.000303158
11 *3914:X 0.00149531
12 *300:109 0.000973206
13 *300:96 9.59774e-05
14 *300:57 0.000680182
15 *300:51 0.000438135
16 *300:49 0.000417915
17 *300:45 0.000274078
18 *300:43 0.000955894
19 *300:31 0.00114193
20 *300:18 0.00257774
21 *300:12 0.00314951
22 *3697:B1 *3735:B 0
23 *3724:C *3735:B 0
24 *3867:A1 *3662:A 1.85674e-05
25 *300:43 *3750:B 1.01661e-05
26 *300:51 *3662:A 0.000158965
27 *300:96 *3662:A 9.27255e-06
28 *300:109 *3662:A 6.12198e-05
29 *3661:A *3671:A 1.85674e-05
30 *3661:B *3671:A 4.43566e-05
31 *3665:A *3867:A1 4.60584e-05
32 *3665:B *3662:B 5.29568e-05
33 *3665:B *3867:A1 0.00011966
34 *3667:B *3867:A1 0.000163992
35 *3668:A2 *3668:A1 3.39603e-05
36 *3668:A2 *300:96 2.16833e-05
37 *3668:A2 *300:109 1.16578e-05
38 *3670:B *300:45 7.16181e-05
39 *3677:B *300:43 0
40 *3683:B1 *3867:A1 0.000248291
41 *3687:A1 *3867:A1 5.98004e-06
42 *3688:B1 *3867:A1 7.4027e-05
43 *3695:A *300:57 8.49205e-05
44 *3695:B *300:57 0.000124007
45 *3697:B2 *3697:B1 0.000155315
46 *3723:A1 *3723:A2 9.53428e-06
47 *3723:B1 *3723:A2 0.00015639
48 *3724:A *3724:C 1.23392e-05
49 *3724:B *3724:C 1.08758e-05
50 *3725:A2 *3724:C 2.45351e-05
51 *3736:A *3724:C 5.59676e-05
52 *3736:C *3724:C 2.75145e-05
53 *3745:A2 *3724:C 0
54 *3764:A *3764:B 0.000387408
55 *3782:B *3764:B 0.00010269
56 *3818:A2 *300:57 1.08758e-05
57 *3866:B *3867:A1 0
58 *3867:A2 *3867:A1 1.33293e-05
59 *3867:A3 *3867:A1 0.000122331
60 *3874:CLK *3697:B1 1.0145e-05
61 *3875:CLK *3697:B1 0.000227157
62 *3883:CLK *3867:A1 0
63 *3884:D *3867:A1 0.0001249
64 *3913:A *300:12 4.90291e-05
65 *3914:A *300:12 3.33839e-05
66 *3:13 *3697:B1 1.33707e-05
67 *70:10 *3724:C 4.94326e-05
68 *76:19 *3724:C 0
69 *82:10 *3724:C 9.30787e-05
70 *111:10 *3764:B 2.66586e-05
71 *209:115 *3867:A1 6.91965e-05
72 *212:10 *300:31 0
73 *212:10 *300:43 0
74 *212:12 *300:43 0
75 *212:16 *300:43 0
76 *213:108 *3671:A 4.80285e-05
77 *213:108 *300:45 1.70935e-05
78 *213:108 *300:49 7.09999e-05
79 *215:8 *3671:A 0.000120655
80 *217:27 *300:51 0.000130903
81 *217:27 *300:57 6.74457e-05
82 *217:43 *3697:B1 1.44259e-05
83 *217:85 *300:51 0.00027209
84 *217:95 *3662:B 0
85 *217:95 *300:51 9.27255e-06
86 *217:95 *300:96 0.00017985
87 *217:95 *300:109 2.30292e-05
88 *217:116 *300:43 7.63204e-05
89 *217:116 *300:45 0
90 *246:42 *3697:B1 7.06865e-05
91 *246:62 *3697:B1 4.31106e-05
92 *246:62 *3724:C 0.000267591
93 *247:89 *3724:C 0.00023301
94 *247:99 *3723:A2 1.83756e-05
95 *247:112 *3723:A2 1.19928e-05
96 *262:40 *3867:A1 0
97 *262:62 *3867:A1 0
98 *264:18 *3764:B 0.000456198
99 *264:51 *3724:C 0
100 *265:31 *300:43 5.65627e-05
101 *265:31 *300:45 0.000129999
102 *265:31 *300:49 7.3664e-05
103 *265:42 *300:43 0.000709163
104 *265:57 *300:31 0.000893236
105 *265:57 *300:43 9.50342e-06
106 *270:10 *300:18 0
107 *272:20 *3723:A2 9.02723e-05
108 *273:10 *300:18 0.00146532
109 *275:10 *3867:A1 5.72091e-05
110 *296:12 *300:12 0.00117161
111 *296:16 *300:31 0.000158101
112 *296:66 *300:43 1.33293e-05
*RES
1 *3914:X *300:12 29.355 
2 *300:12 *300:18 37.295 
3 *300:18 *3764:B 10 
4 *300:18 *300:31 16.895 
5 *300:31 *300:43 15.235 
6 *300:43 *300:45 2.91 
7 *300:45 *300:49 3.635 
8 *300:49 *300:51 5.97 
9 *300:51 *300:57 4.88 
10 *300:57 *3697:B1 8.295 
11 *300:57 *3724:C 11.895 
12 *300:51 *3695:D 1.96 
13 *300:49 *300:96 2.34 
14 *300:96 *3668:A1 2.185 
15 *300:96 *300:109 1.275 
16 *300:109 *3662:B 2.665 
17 *300:109 *3867:A1 22.775 
18 *300:45 *3671:A 6.15 
19 *300:43 *3723:A2 7.77 
20 *300:31 *3738:B 3.6 
*END

*D_NET *301 0.0263556
*CONN
*I *3695:C I *D sky130_fd_sc_hd__nand4_1
*I *3669:A I *D sky130_fd_sc_hd__xnor2_1
*I *3750:B I *D sky130_fd_sc_hd__and2_1
*I *3722:B I *D sky130_fd_sc_hd__and2_1
*I *3662:A I *D sky130_fd_sc_hd__or3_1
*I *3697:A2 I *D sky130_fd_sc_hd__a22o_1
*I *3701:D I *D sky130_fd_sc_hd__and4_1
*I *3702:B1 I *D sky130_fd_sc_hd__a22o_1
*I *3869:A1 I *D sky130_fd_sc_hd__a31o_1
*I *3915:X O *D sky130_fd_sc_hd__clkbuf_4
*CAP
1 *3695:C 7.46378e-05
2 *3669:A 0
3 *3750:B 0.00102239
4 *3722:B 0
5 *3662:A 0.00026843
6 *3697:A2 0
7 *3701:D 0
8 *3702:B1 0.000138758
9 *3869:A1 0.000121942
10 *3915:X 0.00032771
11 *301:115 0.00118647
12 *301:98 0.00050883
13 *301:94 0.000222354
14 *301:82 0.000344102
15 *301:69 0.000724327
16 *301:42 0.000616647
17 *301:27 0.000955331
18 *301:12 0.000951382
19 *301:10 0.00350412
20 *301:8 0.00380321
21 *3702:B1 *3702:A2 5.86739e-05
22 *3702:B1 *302:73 4.69661e-05
23 *301:27 *3871:A1 0.00138424
24 *301:42 *302:71 8.7152e-06
25 *301:42 *302:73 1.05827e-05
26 *301:94 *3663:A 9.53428e-06
27 *301:94 *302:50 0.00020591
28 *301:94 *303:34 0.00022108
29 *301:94 *303:42 4.00504e-05
30 *3661:A *301:115 0.000250623
31 *3668:A2 *3662:A 4.66742e-05
32 *3669:B *301:94 4.66108e-05
33 *3669:B *301:98 9.47454e-05
34 *3691:A1 *301:10 0
35 *3691:A2 *3869:A1 5.50167e-05
36 *3691:A2 *301:10 5.08304e-06
37 *3691:B1_N *301:10 0
38 *3697:A1 *301:69 5.68933e-05
39 *3699:B *301:69 1.08758e-05
40 *3699:B *301:82 1.6418e-05
41 *3702:A1 *3702:B1 5.84209e-05
42 *3704:B *3702:B1 0
43 *3726:B2 *301:82 0.000136877
44 *3752:A1 *3750:B 2.15594e-05
45 *3758:A *3750:B 3.3972e-05
46 *3758:C *3750:B 0.000114492
47 *3775:A *3750:B 0
48 *3847:B1 *301:10 0
49 *3867:A1 *3662:A 1.85674e-05
50 *3874:RESET_B *301:10 0.000147083
51 *3878:D *301:10 7.24779e-05
52 *3878:RESET_B *301:10 0.000223033
53 *3894:A *301:10 0
54 *3919:A *301:10 0.000181152
55 *3:13 *3695:C 5.72829e-05
56 *3:13 *301:82 6.86819e-05
57 *56:8 *301:69 0.000268749
58 *86:8 *3750:B 0.00011852
59 *86:21 *3750:B 0.000204456
60 *87:10 *3750:B 9.766e-05
61 *103:10 *3750:B 0.000115847
62 *214:6 *3702:B1 2.11084e-05
63 *214:77 *301:98 0.000247567
64 *214:77 *301:115 4.29069e-05
65 *243:26 *3702:B1 0
66 *243:26 *301:27 1.41896e-05
67 *243:55 *3869:A1 0
68 *248:10 *3695:C 4.75576e-05
69 *248:10 *301:82 2.23407e-05
70 *249:16 *301:69 0.00014041
71 *249:134 *301:69 7.68414e-06
72 *249:134 *301:82 0.000160635
73 *250:8 *301:69 3.17194e-05
74 *250:8 *301:82 9.36815e-05
75 *251:21 *3695:C 2.66852e-05
76 *252:20 *301:69 0.00049857
77 *254:6 *301:69 6.30674e-05
78 *261:16 *3869:A1 0
79 *262:38 *301:94 0.000357936
80 *263:23 *301:69 0
81 *264:35 *3750:B 4.66108e-05
82 *264:51 *3750:B 5.0128e-05
83 *265:31 *3750:B 9.50342e-06
84 *265:31 *301:98 7.79023e-05
85 *265:31 *301:115 0.000466579
86 *265:42 *3750:B 0
87 *265:57 *3750:B 0
88 *266:8 *301:8 0.000311774
89 *267:44 *301:69 0.000156119
90 *277:22 *301:27 0.0022802
91 *278:10 *301:10 0.000178496
92 *293:38 *3869:A1 0
93 *293:38 *301:10 8.64067e-05
94 *293:61 *301:10 0.000411486
95 *293:68 *301:10 0.000110683
96 *293:86 *301:10 0.00033273
97 *296:36 *3750:B 4.49076e-05
98 *296:38 *3750:B 0.000352775
99 *296:38 *301:115 3.09233e-05
100 *296:40 *301:115 0.000114492
101 *300:43 *3750:B 1.01661e-05
102 *300:51 *3662:A 0.000158965
103 *300:96 *3662:A 9.27255e-06
104 *300:109 *3662:A 6.12198e-05
*RES
1 *3915:X *301:8 10.605 
2 *301:8 *301:10 65.7675 
3 *301:10 *301:12 0.45 
4 *301:12 *3869:A1 5.6175 
5 *301:12 *301:27 4.41747 
6 *301:27 *3702:B1 5.8125 
7 *301:27 *301:42 2.2325 
8 *301:42 *3701:D 1.6 
9 *301:42 *301:69 15.52 
10 *301:69 *3697:A2 1.6 
11 *301:69 *301:82 5.99 
12 *301:82 *301:94 7.865 
13 *301:94 *301:98 4.91 
14 *301:98 *3662:A 7.53 
15 *301:98 *301:115 5.91 
16 *301:115 *3722:B 3.6 
17 *301:115 *3750:B 24.105 
18 *301:94 *3669:A 1.6 
19 *301:82 *3695:C 5.49 
*END

*D_NET *302 0.0320639
*CONN
*I *3666:A I *D sky130_fd_sc_hd__xor2_1
*I *3664:A I *D sky130_fd_sc_hd__or3b_2
*I *3735:B I *D sky130_fd_sc_hd__and2_1
*I *3710:B I *D sky130_fd_sc_hd__nand2_1
*I *3701:C I *D sky130_fd_sc_hd__and4_1
*I *3871:A1 I *D sky130_fd_sc_hd__a31o_1
*I *3702:A2 I *D sky130_fd_sc_hd__a22o_1
*I *3817:A I *D sky130_fd_sc_hd__nand2_1
*I *3726:A2 I *D sky130_fd_sc_hd__a22o_1
*I *3698:B I *D sky130_fd_sc_hd__nand4_1
*I *3916:X O *D sky130_fd_sc_hd__buf_4
*CAP
1 *3666:A 6.92606e-05
2 *3664:A 0
3 *3735:B 0.000334421
4 *3710:B 1.92958e-05
5 *3701:C 0
6 *3871:A1 0.00074506
7 *3702:A2 0.000174867
8 *3817:A 0.000403079
9 *3726:A2 0
10 *3698:B 3.53889e-05
11 *3916:X 0
12 *302:73 0.000947624
13 *302:71 0.000231634
14 *302:54 0.000724437
15 *302:52 0.000309707
16 *302:50 0.000726576
17 *302:41 0.000290173
18 *302:28 0.000507129
19 *302:20 0.000400732
20 *302:18 0.00178642
21 *302:16 0.00402019
22 *302:6 0.00615023
23 *302:4 0.00384719
24 *3666:A *303:34 0.000172852
25 *302:6 *303:12 0.00245023
26 *302:18 *3891:A 0
27 *302:18 *303:34 0.000315132
28 *302:50 *3663:A 4.00541e-06
29 *302:50 *303:42 0.000186686
30 *302:52 *303:42 1.83847e-05
31 sideband_out[2] *302:6 0.0001249
32 *3664:B *3666:A 0.000181383
33 *3664:B *302:18 5.39961e-05
34 *3664:C_N *302:28 0.000389572
35 *3664:C_N *302:41 0
36 *3682:B2 *302:18 0
37 *3697:B1 *3735:B 0
38 *3697:B2 *3735:B 2.36212e-05
39 *3698:A *3698:B 1.46828e-05
40 *3698:A *302:28 4.99619e-05
41 *3702:A1 *3702:A2 0.000184347
42 *3702:A1 *302:73 4.95846e-05
43 *3702:B1 *3702:A2 5.86739e-05
44 *3702:B1 *302:73 4.69661e-05
45 *3712:B *3710:B 9.03508e-06
46 *3712:B *302:52 1.91597e-05
47 *3712:B *302:54 6.97034e-05
48 *3714:A *302:54 0.000120655
49 *3714:B *302:71 0.000200832
50 *3719:B1 *3817:A 0
51 *3724:C *3735:B 0
52 *3726:A1 *302:41 9.30787e-05
53 *3726:B1 *302:50 4.66108e-05
54 *3730:A *3735:B 0
55 *3733:A *3817:A 0
56 *3745:A2 *3735:B 9.30787e-05
57 *3819:A3 *3817:A 7.4027e-05
58 *3820:A0 *3817:A 0
59 *3859:A2 *3871:A1 0
60 *3859:A3 *3871:A1 9.26907e-06
61 *3861:A1 *302:18 0
62 *3868:A *3871:A1 0.000163966
63 *3871:A2 *3871:A1 4.61268e-05
64 *3890:A *302:52 2.49909e-05
65 *3909:A *302:6 0.0001249
66 *3916:A *302:6 0.000163204
67 *3:11 *302:16 0
68 *55:18 *3817:A 0
69 *55:26 *3817:A 0
70 *55:26 *302:71 0
71 *68:14 *3817:A 0
72 *76:8 *3735:B 9.34333e-05
73 *170:14 *3817:A 0
74 *209:31 *3871:A1 8.57226e-05
75 *209:33 *3871:A1 5.75066e-05
76 *211:14 *3871:A1 0
77 *213:108 *302:18 1.15688e-05
78 *214:6 *3702:A2 5.062e-06
79 *214:25 *3871:A1 0
80 *217:43 *3735:B 0.000111459
81 *217:43 *3817:A 0.000427094
82 *217:43 *302:50 2.75229e-05
83 *217:43 *302:52 0.00023983
84 *217:43 *302:54 0.000153144
85 *218:12 *302:28 4.41506e-05
86 *223:10 *3666:A 4.66108e-05
87 *234:10 *302:18 0
88 *243:14 *302:18 0
89 *243:26 *3871:A1 0.00076442
90 *243:43 *3871:A1 2.90542e-05
91 *249:134 *3698:B 1.08758e-05
92 *249:134 *302:28 1.92617e-05
93 *251:21 *302:41 1.1561e-05
94 *257:16 *302:71 0
95 *262:38 *3666:A 1.56428e-05
96 *262:38 *302:50 0.000107424
97 *264:62 *3735:B 0.000163199
98 *266:35 *3735:B 7.46385e-05
99 *266:45 *302:71 0.000200764
100 *266:45 *302:73 8.7152e-06
101 *267:44 *302:71 0
102 *269:8 *302:6 0.000313852
103 *269:10 *302:16 0
104 *269:10 *302:18 0
105 *272:20 *3735:B 6.42013e-05
106 *276:14 *302:18 0
107 *292:22 *302:18 6.06649e-05
108 *301:27 *3871:A1 0.00138424
109 *301:42 *302:71 8.7152e-06
110 *301:42 *302:73 1.05827e-05
111 *301:94 *302:50 0.00020591
*RES
1 *3916:X *302:4 1.6 
2 *302:4 *302:6 67.38 
3 *302:6 *302:16 40.8875 
4 *302:16 *302:18 29.9025 
5 *302:18 *302:20 2 
6 *302:20 *302:28 7.74 
7 *302:28 *3698:B 2.05 
8 *302:28 *302:41 5.38 
9 *302:41 *3726:A2 1.6 
10 *302:41 *302:50 5.64 
11 *302:50 *302:52 3.9 
12 *302:52 *302:54 2.865 
13 *302:54 *3817:A 13.43 
14 *302:54 *302:71 6.44 
15 *302:71 *302:73 0.7425 
16 *302:73 *3702:A2 6.4425 
17 *302:73 *3871:A1 13.8944 
18 *302:71 *3701:C 3.6 
19 *302:52 *3710:B 1.96 
20 *302:50 *3735:B 13.415 
21 *302:20 *3664:A 1.6 
22 *302:18 *3666:A 6.195 
*END

*D_NET *303 0.0253238
*CONN
*I *3679:A I *D sky130_fd_sc_hd__nand2_1
*I *3663:A I *D sky130_fd_sc_hd__buf_2
*I *3713:A I *D sky130_fd_sc_hd__and3_1
*I *3708:B I *D sky130_fd_sc_hd__nand2_2
*I *3700:A I *D sky130_fd_sc_hd__nand2_1
*I *3709:A1 I *D sky130_fd_sc_hd__a31o_1
*I *3917:X O *D sky130_fd_sc_hd__buf_2
*CAP
1 *3679:A 3.10502e-05
2 *3663:A 1.68577e-05
3 *3713:A 0.000268346
4 *3708:B 2.37509e-05
5 *3700:A 3.54509e-05
6 *3709:A1 0.00015518
7 *3917:X 0.00192646
8 *303:78 0.000540054
9 *303:61 0.00051911
10 *303:42 0.00100139
11 *303:34 0.00108062
12 *303:20 0.00252363
13 *303:16 0.00276205
14 *303:12 0.00264919
15 *3666:A *303:34 0.000172852
16 *3669:B *303:34 2.76781e-05
17 *3679:B *303:20 0.00019541
18 *3680:B *3679:A 4.66108e-05
19 *3680:B *303:34 9.07709e-05
20 *3681:A1 *303:20 0
21 *3681:B1 *303:20 0
22 *3697:A1 *303:61 8.83343e-05
23 *3697:B2 *303:42 2.16389e-05
24 *3700:B *3700:A 4.87465e-06
25 *3700:B *303:61 0
26 *3709:B1 *3709:A1 3.00381e-05
27 *3713:B *3713:A 5.46798e-05
28 *3726:B1 *303:42 2.49909e-05
29 *3817:B *3708:B 0
30 *3817:B *3713:A 4.21973e-05
31 *3820:A0 *3713:A 9.71067e-05
32 *3820:S *3713:A 8.49205e-05
33 *3861:A1 *3679:A 0
34 *3861:A2 *303:20 7.21296e-06
35 *3861:B1 *3679:A 0
36 *3909:A *303:12 0.0001249
37 *55:18 *3713:A 3.18137e-05
38 *55:66 *3713:A 2.97473e-05
39 *55:66 *303:78 4.23612e-05
40 *58:8 *3713:A 3.50033e-05
41 *59:14 *3713:A 9.50342e-06
42 *209:16 *3709:A1 3.23663e-05
43 *213:108 *303:34 0.000695276
44 *223:10 *303:34 0.000202945
45 *243:26 *303:34 0.000198939
46 *243:104 *303:34 0.000263884
47 *247:18 *3713:A 8.49205e-05
48 *247:18 *303:78 5.74791e-05
49 *249:10 *3709:A1 0.000124895
50 *249:16 *303:78 7.32599e-05
51 *249:27 *303:78 0.000105537
52 *249:48 *303:78 0.000361435
53 *249:134 *3709:A1 0.000201127
54 *249:134 *303:42 8.53113e-06
55 *252:20 *3700:A 8.01251e-05
56 *252:20 *303:61 0.000272274
57 *262:38 *303:34 0.00011837
58 *263:23 *3709:A1 0
59 *266:35 *3709:A1 1.5431e-05
60 *266:35 *303:42 3.4222e-05
61 *266:45 *3709:A1 1.00941e-05
62 *267:44 *303:78 0.000540239
63 *269:10 *303:16 0.000820873
64 *269:10 *303:20 0.00138776
65 *275:8 *303:12 0.000790002
66 *275:10 *303:16 0
67 *275:10 *303:20 0
68 *276:14 *303:20 0.000794985
69 *277:22 *3709:A1 7.96104e-06
70 *301:94 *3663:A 9.53428e-06
71 *301:94 *303:34 0.00022108
72 *301:94 *303:42 4.00504e-05
73 *302:6 *303:12 0.00245023
74 *302:18 *303:34 0.000315132
75 *302:50 *3663:A 4.00541e-06
76 *302:50 *303:42 0.000186686
77 *302:52 *303:42 1.83847e-05
*RES
1 *3917:X *303:12 49.02 
2 *303:12 *303:16 17.1225 
3 *303:16 *303:20 49.0325 
4 *303:20 *303:34 19.705 
5 *303:34 *303:42 9.89 
6 *303:42 *3709:A1 7.395 
7 *303:42 *303:61 6.53 
8 *303:61 *3700:A 2.41 
9 *303:61 *303:78 11.62 
10 *303:78 *3708:B 1.96 
11 *303:78 *3713:A 11.075 
12 *303:34 *3663:A 1.96 
13 *303:20 *3679:A 2.41 
*END

*D_NET *304 0.0135089
*CONN
*I *3882:RESET_B I *D sky130_fd_sc_hd__dfrtp_1
*I *3884:RESET_B I *D sky130_fd_sc_hd__dfrtp_2
*I *3881:RESET_B I *D sky130_fd_sc_hd__dfrtp_1
*I *3891:A I *D sky130_fd_sc_hd__clkbuf_4
*I *3883:RESET_B I *D sky130_fd_sc_hd__dfrtp_1
*I *3918:X O *D sky130_fd_sc_hd__buf_2
*CAP
1 *3882:RESET_B 3.02626e-05
2 *3884:RESET_B 3.02626e-05
3 *3881:RESET_B 2.49061e-05
4 *3891:A 0.00117271
5 *3883:RESET_B 0.00112643
6 *3918:X 7.4327e-05
7 *304:32 0.00146147
8 *304:28 0.000553902
9 *304:26 0.000640503
10 *304:14 0.00408639
11 *304:10 0.00338474
12 *3680:B *3891:A 0.000109377
13 *3682:B2 *3891:A 4.43871e-06
14 *3861:A2 *3891:A 0.000198939
15 *3862:B *304:28 0
16 *3864:A *304:26 6.52734e-05
17 *3864:A *304:28 0
18 *3864:B *304:26 0.000120186
19 *3865:A1 *304:26 0
20 *3866:B *304:32 0
21 *3881:CLK *3891:A 5.34747e-05
22 *3881:D *3891:A 1.5186e-05
23 *211:42 *304:32 0
24 *211:51 *304:28 0
25 *211:51 *304:32 0
26 *214:57 *3891:A 0.000239813
27 *234:10 *3891:A 4.1978e-05
28 *243:104 *3891:A 1.32765e-05
29 *243:117 *3891:A 1.03423e-05
30 *276:14 *3891:A 0
31 *287:8 *3883:RESET_B 5.0751e-05
32 *302:18 *3891:A 0
*RES
1 *3918:X *304:10 6.725 
2 *304:10 *304:14 45.8325 
3 *304:14 *3883:RESET_B 11.955 
4 *3883:RESET_B *304:26 8.525 
5 *304:26 *304:28 4.185 
6 *304:28 *304:32 6.185 
7 *304:32 *3891:A 21.425 
8 *304:32 *3881:RESET_B 0.3975 
9 *304:28 *3884:RESET_B 2.3975 
10 *304:26 *3882:RESET_B 2.3975 
*END
