*SPEF "ieee 1481-1999"
*DESIGN "gear_quantizer"
*DATE "11:11:11 Fri 11 11, 1111"
*VENDOR "OpenRCX"
*PROGRAM "Parallel Extraction"
*VERSION "1.0"
*DESIGN_FLOW "NAME_SCOPE LOCAL" "PIN_CAP NONE"
*DIVIDER /
*DELIMITER :
*BUS_DELIMITER []
*T_UNIT 1 NS
*C_UNIT 1 PF
*R_UNIT 1 OHM
*L_UNIT 1 HENRY

*NAME_MAP
*3 clk
*4 data_in[0]
*5 data_in[1]
*6 data_in[2]
*7 data_in[3]
*8 data_in[4]
*9 data_in[5]
*10 data_in[6]
*11 data_in[7]
*12 int4_out[0]
*13 int4_out[1]
*14 int4_out[2]
*15 int4_out[3]
*16 is_outlier
*17 round_mode
*18 rst_n
*19 scale[0]
*20 scale[1]
*21 scale[2]
*22 scale[3]
*23 sideband_out[0]
*24 sideband_out[1]
*25 sideband_out[2]
*26 sideband_out[3]
*27 sideband_out[4]
*28 sideband_out[5]
*29 sideband_out[6]
*30 sideband_out[7]
*31 threshold[0]
*32 threshold[1]
*33 threshold[2]
*34 threshold[3]
*35 threshold[4]
*36 threshold[5]
*37 threshold[6]
*38 threshold[7]
*39 valid_in
*40 valid_out
*41 _000_
*42 _001_
*43 _002_
*44 _003_
*45 _004_
*46 _005_
*47 _006_
*48 _007_
*49 _008_
*50 _009_
*51 _010_
*52 _011_
*53 _012_
*54 _013_
*55 _014_
*56 _015_
*57 _016_
*58 _017_
*59 _018_
*60 _019_
*61 _020_
*62 _021_
*63 _022_
*64 _023_
*65 _024_
*66 _025_
*67 _026_
*68 _027_
*69 _028_
*70 _029_
*71 _030_
*72 _031_
*73 _032_
*74 _033_
*75 _034_
*76 _035_
*77 _036_
*78 _037_
*79 _038_
*80 _039_
*81 _040_
*82 _041_
*83 _042_
*84 _043_
*85 _044_
*86 _045_
*87 _046_
*88 _047_
*89 _048_
*90 _049_
*91 _050_
*92 _051_
*93 _052_
*94 _053_
*95 _054_
*96 _055_
*97 _056_
*98 _057_
*99 _058_
*100 _059_
*101 _060_
*102 _061_
*103 _062_
*104 _063_
*105 _064_
*106 _065_
*107 _066_
*108 _067_
*109 _068_
*110 _069_
*111 _070_
*112 _071_
*113 _072_
*114 _073_
*115 _074_
*116 _075_
*117 _076_
*118 _077_
*119 _078_
*120 _079_
*121 _080_
*122 _081_
*123 _082_
*124 _083_
*125 _084_
*126 _085_
*127 _086_
*128 _087_
*129 _088_
*130 _089_
*131 _090_
*132 _091_
*133 _092_
*134 _093_
*135 _094_
*136 _095_
*137 _096_
*138 _097_
*139 _098_
*140 _099_
*141 _100_
*142 _101_
*143 _102_
*144 _103_
*145 _104_
*146 _105_
*147 _106_
*148 _107_
*149 _108_
*150 _109_
*151 _110_
*152 _111_
*153 _112_
*154 _113_
*155 _114_
*156 _115_
*157 _116_
*158 _117_
*159 _118_
*160 _119_
*161 _120_
*162 _121_
*163 _122_
*164 _123_
*165 _124_
*166 _125_
*167 _126_
*168 _127_
*169 _128_
*170 _129_
*171 _130_
*172 _131_
*173 _132_
*174 _133_
*175 _134_
*176 _135_
*177 _136_
*178 _137_
*179 _138_
*180 _139_
*181 _140_
*182 _141_
*183 _142_
*184 _143_
*185 _144_
*186 _145_
*187 _146_
*188 _147_
*189 _148_
*190 _149_
*191 _150_
*192 _151_
*193 _152_
*194 _153_
*195 _154_
*196 _155_
*197 _156_
*198 _157_
*199 _158_
*200 _159_
*201 _160_
*202 _161_
*203 _162_
*204 _163_
*205 _164_
*206 _165_
*207 _166_
*208 _167_
*209 _168_
*210 _169_
*211 _170_
*212 _171_
*213 _172_
*214 _173_
*215 _174_
*216 _175_
*217 _176_
*218 _177_
*219 _178_
*220 _179_
*221 _180_
*222 _181_
*223 _182_
*224 _183_
*225 _184_
*226 _185_
*227 _186_
*228 _187_
*229 _188_
*230 _189_
*231 _190_
*232 _191_
*233 _192_
*234 _193_
*235 _194_
*236 _195_
*237 _196_
*238 _197_
*239 _198_
*240 _199_
*241 _200_
*242 _201_
*243 _202_
*244 _203_
*245 _204_
*246 _205_
*247 _206_
*248 _207_
*249 _208_
*250 _209_
*251 _210_
*252 _211_
*253 _212_
*254 _213_
*255 _214_
*256 _215_
*257 _216_
*258 _217_
*259 _218_
*260 clknet_0_clk
*261 clknet_1_0__leaf_clk
*262 clknet_1_1__leaf_clk
*263 net1
*264 net10
*265 net11
*266 net12
*267 net13
*268 net14
*269 net15
*270 net16
*271 net17
*272 net18
*273 net19
*274 net2
*275 net20
*276 net21
*277 net22
*278 net23
*279 net24
*280 net25
*281 net26
*282 net27
*283 net28
*284 net29
*285 net3
*286 net30
*287 net31
*288 net32
*289 net33
*290 net34
*291 net35
*292 net36
*293 net37
*294 net38
*295 net39
*296 net4
*297 net40
*298 net41
*299 net42
*300 net43
*301 net44
*302 net45
*303 net46
*304 net47
*305 net48
*306 net49
*307 net5
*308 net50
*309 net6
*310 net7
*311 net8
*312 net9
*313 FILLER_0_0_109
*314 FILLER_0_0_113
*315 FILLER_0_0_118
*316 FILLER_0_0_130
*317 FILLER_0_0_141
*318 FILLER_0_0_149
*319 FILLER_0_0_161
*320 FILLER_0_0_19
*321 FILLER_0_0_27
*322 FILLER_0_0_35
*323 FILLER_0_0_47
*324 FILLER_0_0_57
*325 FILLER_0_0_69
*326 FILLER_0_0_76
*327 FILLER_0_0_85
*328 FILLER_0_0_97
*329 FILLER_0_10_101
*330 FILLER_0_10_111
*331 FILLER_0_10_126
*332 FILLER_0_10_132
*333 FILLER_0_10_141
*334 FILLER_0_10_153
*335 FILLER_0_10_157
*336 FILLER_0_10_26
*337 FILLER_0_10_50
*338 FILLER_0_10_82
*339 FILLER_0_10_95
*340 FILLER_0_11_105
*341 FILLER_0_11_111
*342 FILLER_0_11_113
*343 FILLER_0_11_145
*344 FILLER_0_11_157
*345 FILLER_0_11_161
*346 FILLER_0_11_28
*347 FILLER_0_11_34
*348 FILLER_0_11_50
*349 FILLER_0_11_66
*350 FILLER_0_11_70
*351 FILLER_0_11_87
*352 FILLER_0_11_94
*353 FILLER_0_12_107
*354 FILLER_0_12_122
*355 FILLER_0_12_134
*356 FILLER_0_12_141
*357 FILLER_0_12_153
*358 FILLER_0_12_161
*359 FILLER_0_12_3
*360 FILLER_0_12_41
*361 FILLER_0_12_48
*362 FILLER_0_12_56
*363 FILLER_0_12_63
*364 FILLER_0_12_67
*365 FILLER_0_12_7
*366 FILLER_0_12_85
*367 FILLER_0_13_120
*368 FILLER_0_13_127
*369 FILLER_0_13_139
*370 FILLER_0_13_15
*371 FILLER_0_13_151
*372 FILLER_0_13_159
*373 FILLER_0_13_26
*374 FILLER_0_13_3
*375 FILLER_0_13_47
*376 FILLER_0_13_72
*377 FILLER_0_13_81
*378 FILLER_0_13_93
*379 FILLER_0_14_108
*380 FILLER_0_14_119
*381 FILLER_0_14_147
*382 FILLER_0_14_155
*383 FILLER_0_14_26
*384 FILLER_0_14_35
*385 FILLER_0_14_47
*386 FILLER_0_14_54
*387 FILLER_0_14_67
*388 FILLER_0_14_85
*389 FILLER_0_14_95
*390 FILLER_0_15_108
*391 FILLER_0_15_113
*392 FILLER_0_15_137
*393 FILLER_0_15_149
*394 FILLER_0_15_161
*395 FILLER_0_15_23
*396 FILLER_0_15_45
*397 FILLER_0_15_53
*398 FILLER_0_15_57
*399 FILLER_0_15_70
*400 FILLER_0_15_87
*401 FILLER_0_15_99
*402 FILLER_0_16_100
*403 FILLER_0_16_133
*404 FILLER_0_16_139
*405 FILLER_0_16_149
*406 FILLER_0_16_161
*407 FILLER_0_16_29
*408 FILLER_0_16_3
*409 FILLER_0_16_51
*410 FILLER_0_16_7
*411 FILLER_0_16_92
*412 FILLER_0_17_104
*413 FILLER_0_17_121
*414 FILLER_0_17_133
*415 FILLER_0_17_145
*416 FILLER_0_17_15
*417 FILLER_0_17_157
*418 FILLER_0_17_3
*419 FILLER_0_17_32
*420 FILLER_0_17_36
*421 FILLER_0_17_41
*422 FILLER_0_17_54
*423 FILLER_0_17_57
*424 FILLER_0_17_66
*425 FILLER_0_17_75
*426 FILLER_0_17_83
*427 FILLER_0_18_109
*428 FILLER_0_18_121
*429 FILLER_0_18_133
*430 FILLER_0_18_139
*431 FILLER_0_18_141
*432 FILLER_0_18_153
*433 FILLER_0_18_16
*434 FILLER_0_18_161
*435 FILLER_0_18_22
*436 FILLER_0_18_29
*437 FILLER_0_18_41
*438 FILLER_0_18_49
*439 FILLER_0_18_58
*440 FILLER_0_18_79
*441 FILLER_0_18_97
*442 FILLER_0_19_106
*443 FILLER_0_19_113
*444 FILLER_0_19_125
*445 FILLER_0_19_137
*446 FILLER_0_19_149
*447 FILLER_0_19_15
*448 FILLER_0_19_161
*449 FILLER_0_19_3
*450 FILLER_0_19_35
*451 FILLER_0_19_42
*452 FILLER_0_19_55
*453 FILLER_0_19_57
*454 FILLER_0_19_67
*455 FILLER_0_19_79
*456 FILLER_0_19_89
*457 FILLER_0_19_94
*458 FILLER_0_1_105
*459 FILLER_0_1_111
*460 FILLER_0_1_113
*461 FILLER_0_1_125
*462 FILLER_0_1_137
*463 FILLER_0_1_149
*464 FILLER_0_1_161
*465 FILLER_0_1_19
*466 FILLER_0_1_31
*467 FILLER_0_1_43
*468 FILLER_0_1_55
*469 FILLER_0_1_57
*470 FILLER_0_1_69
*471 FILLER_0_1_7
*472 FILLER_0_1_81
*473 FILLER_0_1_93
*474 FILLER_0_20_103
*475 FILLER_0_20_115
*476 FILLER_0_20_127
*477 FILLER_0_20_139
*478 FILLER_0_20_141
*479 FILLER_0_20_15
*480 FILLER_0_20_153
*481 FILLER_0_20_161
*482 FILLER_0_20_24
*483 FILLER_0_20_29
*484 FILLER_0_20_3
*485 FILLER_0_20_38
*486 FILLER_0_20_46
*487 FILLER_0_20_53
*488 FILLER_0_20_71
*489 FILLER_0_20_80
*490 FILLER_0_20_85
*491 FILLER_0_21_10
*492 FILLER_0_21_107
*493 FILLER_0_21_111
*494 FILLER_0_21_113
*495 FILLER_0_21_125
*496 FILLER_0_21_137
*497 FILLER_0_21_149
*498 FILLER_0_21_155
*499 FILLER_0_21_18
*500 FILLER_0_21_26
*501 FILLER_0_21_43
*502 FILLER_0_21_47
*503 FILLER_0_21_52
*504 FILLER_0_21_6
*505 FILLER_0_21_84
*506 FILLER_0_22_104
*507 FILLER_0_22_116
*508 FILLER_0_22_128
*509 FILLER_0_22_141
*510 FILLER_0_22_153
*511 FILLER_0_22_16
*512 FILLER_0_22_161
*513 FILLER_0_22_25
*514 FILLER_0_22_29
*515 FILLER_0_22_3
*516 FILLER_0_22_42
*517 FILLER_0_22_46
*518 FILLER_0_22_59
*519 FILLER_0_22_63
*520 FILLER_0_22_70
*521 FILLER_0_22_79
*522 FILLER_0_23_109
*523 FILLER_0_23_113
*524 FILLER_0_23_125
*525 FILLER_0_23_137
*526 FILLER_0_23_149
*527 FILLER_0_23_15
*528 FILLER_0_23_161
*529 FILLER_0_23_3
*530 FILLER_0_23_31
*531 FILLER_0_23_53
*532 FILLER_0_23_67
*533 FILLER_0_23_79
*534 FILLER_0_23_97
*535 FILLER_0_24_107
*536 FILLER_0_24_119
*537 FILLER_0_24_131
*538 FILLER_0_24_139
*539 FILLER_0_24_141
*540 FILLER_0_24_15
*541 FILLER_0_24_153
*542 FILLER_0_24_161
*543 FILLER_0_24_3
*544 FILLER_0_24_35
*545 FILLER_0_24_47
*546 FILLER_0_24_58
*547 FILLER_0_24_64
*548 FILLER_0_24_72
*549 FILLER_0_24_95
*550 FILLER_0_25_111
*551 FILLER_0_25_113
*552 FILLER_0_25_125
*553 FILLER_0_25_137
*554 FILLER_0_25_149
*555 FILLER_0_25_157
*556 FILLER_0_25_21
*557 FILLER_0_25_33
*558 FILLER_0_25_41
*559 FILLER_0_25_48
*560 FILLER_0_25_65
*561 FILLER_0_25_77
*562 FILLER_0_25_87
*563 FILLER_0_25_9
*564 FILLER_0_25_99
*565 FILLER_0_26_100
*566 FILLER_0_26_112
*567 FILLER_0_26_124
*568 FILLER_0_26_136
*569 FILLER_0_26_141
*570 FILLER_0_26_15
*571 FILLER_0_26_153
*572 FILLER_0_26_27
*573 FILLER_0_26_29
*574 FILLER_0_26_3
*575 FILLER_0_26_60
*576 FILLER_0_26_88
*577 FILLER_0_27_100
*578 FILLER_0_27_113
*579 FILLER_0_27_121
*580 FILLER_0_27_133
*581 FILLER_0_27_139
*582 FILLER_0_27_14
*583 FILLER_0_27_141
*584 FILLER_0_27_153
*585 FILLER_0_27_161
*586 FILLER_0_27_26
*587 FILLER_0_27_29
*588 FILLER_0_27_41
*589 FILLER_0_27_49
*590 FILLER_0_27_55
*591 FILLER_0_27_57
*592 FILLER_0_27_69
*593 FILLER_0_27_76
*594 FILLER_0_27_85
*595 FILLER_0_27_93
*596 FILLER_0_2_109
*597 FILLER_0_2_121
*598 FILLER_0_2_133
*599 FILLER_0_2_139
*600 FILLER_0_2_141
*601 FILLER_0_2_153
*602 FILLER_0_2_157
*603 FILLER_0_2_21
*604 FILLER_0_2_27
*605 FILLER_0_2_29
*606 FILLER_0_2_41
*607 FILLER_0_2_53
*608 FILLER_0_2_65
*609 FILLER_0_2_77
*610 FILLER_0_2_83
*611 FILLER_0_2_85
*612 FILLER_0_2_9
*613 FILLER_0_2_97
*614 FILLER_0_3_105
*615 FILLER_0_3_111
*616 FILLER_0_3_113
*617 FILLER_0_3_125
*618 FILLER_0_3_137
*619 FILLER_0_3_149
*620 FILLER_0_3_15
*621 FILLER_0_3_161
*622 FILLER_0_3_27
*623 FILLER_0_3_3
*624 FILLER_0_3_39
*625 FILLER_0_3_51
*626 FILLER_0_3_55
*627 FILLER_0_3_57
*628 FILLER_0_3_69
*629 FILLER_0_3_81
*630 FILLER_0_3_93
*631 FILLER_0_4_109
*632 FILLER_0_4_121
*633 FILLER_0_4_133
*634 FILLER_0_4_139
*635 FILLER_0_4_141
*636 FILLER_0_4_153
*637 FILLER_0_4_161
*638 FILLER_0_4_23
*639 FILLER_0_4_27
*640 FILLER_0_4_36
*641 FILLER_0_4_42
*642 FILLER_0_4_50
*643 FILLER_0_4_62
*644 FILLER_0_4_74
*645 FILLER_0_4_82
*646 FILLER_0_4_85
*647 FILLER_0_4_97
*648 FILLER_0_5_101
*649 FILLER_0_5_105
*650 FILLER_0_5_111
*651 FILLER_0_5_117
*652 FILLER_0_5_130
*653 FILLER_0_5_142
*654 FILLER_0_5_154
*655 FILLER_0_5_3
*656 FILLER_0_5_55
*657 FILLER_0_5_57
*658 FILLER_0_5_69
*659 FILLER_0_5_81
*660 FILLER_0_5_9
*661 FILLER_0_5_93
*662 FILLER_0_6_114
*663 FILLER_0_6_136
*664 FILLER_0_6_149
*665 FILLER_0_6_157
*666 FILLER_0_6_17
*667 FILLER_0_6_26
*668 FILLER_0_6_29
*669 FILLER_0_6_46
*670 FILLER_0_6_7
*671 FILLER_0_6_71
*672 FILLER_0_6_83
*673 FILLER_0_6_85
*674 FILLER_0_6_92
*675 FILLER_0_6_98
*676 FILLER_0_7_105
*677 FILLER_0_7_111
*678 FILLER_0_7_113
*679 FILLER_0_7_117
*680 FILLER_0_7_125
*681 FILLER_0_7_137
*682 FILLER_0_7_149
*683 FILLER_0_7_15
*684 FILLER_0_7_161
*685 FILLER_0_7_21
*686 FILLER_0_7_3
*687 FILLER_0_7_40
*688 FILLER_0_7_47
*689 FILLER_0_7_7
*690 FILLER_0_7_77
*691 FILLER_0_7_85
*692 FILLER_0_7_98
*693 FILLER_0_8_113
*694 FILLER_0_8_131
*695 FILLER_0_8_139
*696 FILLER_0_8_141
*697 FILLER_0_8_153
*698 FILLER_0_8_161
*699 FILLER_0_8_23
*700 FILLER_0_8_36
*701 FILLER_0_8_51
*702 FILLER_0_8_63
*703 FILLER_0_8_78
*704 FILLER_0_9_118
*705 FILLER_0_9_147
*706 FILLER_0_9_159
*707 FILLER_0_9_3
*708 FILLER_0_9_50
*709 FILLER_0_9_57
*710 FILLER_0_9_7
*711 FILLER_0_9_72
*712 FILLER_0_9_98
*713 PHY_0
*714 PHY_1
*715 PHY_10
*716 PHY_11
*717 PHY_12
*718 PHY_13
*719 PHY_14
*720 PHY_15
*721 PHY_16
*722 PHY_17
*723 PHY_18
*724 PHY_19
*725 PHY_2
*726 PHY_20
*727 PHY_21
*728 PHY_22
*729 PHY_23
*730 PHY_24
*731 PHY_25
*732 PHY_26
*733 PHY_27
*734 PHY_28
*735 PHY_29
*736 PHY_3
*737 PHY_30
*738 PHY_31
*739 PHY_32
*740 PHY_33
*741 PHY_34
*742 PHY_35
*743 PHY_36
*744 PHY_37
*745 PHY_38
*746 PHY_39
*747 PHY_4
*748 PHY_40
*749 PHY_41
*750 PHY_42
*751 PHY_43
*752 PHY_44
*753 PHY_45
*754 PHY_46
*755 PHY_47
*756 PHY_48
*757 PHY_49
*758 PHY_5
*759 PHY_50
*760 PHY_51
*761 PHY_52
*762 PHY_53
*763 PHY_54
*764 PHY_55
*765 PHY_6
*766 PHY_7
*767 PHY_8
*768 PHY_9
*769 TAP_100
*770 TAP_101
*771 TAP_102
*772 TAP_103
*773 TAP_104
*774 TAP_105
*775 TAP_106
*776 TAP_107
*777 TAP_108
*778 TAP_109
*779 TAP_110
*780 TAP_111
*781 TAP_112
*782 TAP_113
*783 TAP_114
*784 TAP_115
*785 TAP_116
*786 TAP_117
*787 TAP_118
*788 TAP_119
*789 TAP_120
*790 TAP_121
*791 TAP_122
*792 TAP_123
*793 TAP_124
*794 TAP_125
*795 TAP_126
*796 TAP_127
*797 TAP_128
*798 TAP_129
*799 TAP_130
*800 TAP_56
*801 TAP_57
*802 TAP_58
*803 TAP_59
*804 TAP_60
*805 TAP_61
*806 TAP_62
*807 TAP_63
*808 TAP_64
*809 TAP_65
*810 TAP_66
*811 TAP_67
*812 TAP_68
*813 TAP_69
*814 TAP_70
*815 TAP_71
*816 TAP_72
*817 TAP_73
*818 TAP_74
*819 TAP_75
*820 TAP_76
*821 TAP_77
*822 TAP_78
*823 TAP_79
*824 TAP_80
*825 TAP_81
*826 TAP_82
*827 TAP_83
*828 TAP_84
*829 TAP_85
*830 TAP_86
*831 TAP_87
*832 TAP_88
*833 TAP_89
*834 TAP_90
*835 TAP_91
*836 TAP_92
*837 TAP_93
*838 TAP_94
*839 TAP_95
*840 TAP_96
*841 TAP_97
*842 TAP_98
*843 TAP_99
*844 _219_
*845 _220_
*846 _221_
*847 _222_
*848 _223_
*849 _224_
*850 _225_
*851 _226_
*852 _227_
*853 _228_
*854 _229_
*855 _230_
*856 _231_
*857 _232_
*858 _233_
*859 _234_
*860 _235_
*861 _236_
*862 _237_
*863 _238_
*864 _239_
*865 _240_
*866 _241_
*867 _242_
*868 _243_
*869 _244_
*870 _245_
*871 _246_
*872 _247_
*873 _248_
*874 _249_
*875 _250_
*876 _251_
*877 _252_
*878 _253_
*879 _254_
*880 _255_
*881 _256_
*882 _257_
*883 _258_
*884 _259_
*885 _260_
*886 _261_
*887 _262_
*888 _263_
*889 _264_
*890 _265_
*891 _266_
*892 _267_
*893 _268_
*894 _269_
*895 _270_
*896 _271_
*897 _272_
*898 _273_
*899 _274_
*900 _275_
*901 _276_
*902 _277_
*903 _278_
*904 _279_
*905 _280_
*906 _281_
*907 _282_
*908 _283_
*909 _284_
*910 _285_
*911 _286_
*912 _287_
*913 _288_
*914 _289_
*915 _290_
*916 _291_
*917 _292_
*918 _293_
*919 _294_
*920 _295_
*921 _296_
*922 _297_
*923 _298_
*924 _299_
*925 _300_
*926 _301_
*927 _302_
*928 _303_
*929 _304_
*930 _305_
*931 _306_
*932 _307_
*933 _308_
*934 _309_
*935 _310_
*936 _311_
*937 _312_
*938 _313_
*939 _314_
*940 _315_
*941 _316_
*942 _317_
*943 _318_
*944 _319_
*945 _320_
*946 _321_
*947 _322_
*948 _323_
*949 _324_
*950 _325_
*951 _326_
*952 _327_
*953 _328_
*954 _329_
*955 _330_
*956 _331_
*957 _332_
*958 _333_
*959 _334_
*960 _335_
*961 _336_
*962 _337_
*963 _338_
*964 _339_
*965 _340_
*966 _341_
*967 _342_
*968 _343_
*969 _344_
*970 _345_
*971 _346_
*972 _347_
*973 _348_
*974 _349_
*975 _350_
*976 _351_
*977 _352_
*978 _353_
*979 _354_
*980 _355_
*981 _356_
*982 _357_
*983 _358_
*984 _359_
*985 _360_
*986 _361_
*987 _362_
*988 _363_
*989 _364_
*990 _365_
*991 _366_
*992 _367_
*993 _368_
*994 _369_
*995 _370_
*996 _371_
*997 _372_
*998 _373_
*999 _374_
*1000 _375_
*1001 _376_
*1002 _377_
*1003 _378_
*1004 _379_
*1005 _380_
*1006 _381_
*1007 _382_
*1008 _383_
*1009 _384_
*1010 _385_
*1011 _386_
*1012 _387_
*1013 _388_
*1014 _389_
*1015 _390_
*1016 _391_
*1017 _392_
*1018 _393_
*1019 _394_
*1020 _395_
*1021 _396_
*1022 _397_
*1023 _398_
*1024 _399_
*1025 _400_
*1026 _401_
*1027 _402_
*1028 _403_
*1029 _404_
*1030 _405_
*1031 _406_
*1032 _407_
*1033 _408_
*1034 _409_
*1035 _410_
*1036 _411_
*1037 _412_
*1038 _413_
*1039 _414_
*1040 _415_
*1041 _416_
*1042 _417_
*1043 _418_
*1044 _419_
*1045 _420_
*1046 _421_
*1047 _422_
*1048 _423_
*1049 _424_
*1050 _425_
*1051 _426_
*1052 _427_
*1053 _428_
*1054 _429_
*1055 _430_
*1056 _431_
*1057 _432_
*1058 _433_
*1059 _434_
*1060 _435_
*1061 _436_
*1062 _437_
*1063 _438_
*1064 _439_
*1065 _440_
*1066 _441_
*1067 _442_
*1068 _443_
*1069 _444_
*1070 _445_
*1071 _446_
*1072 _447_
*1073 _448_
*1074 _449_
*1075 _450_
*1076 _451_
*1077 clkbuf_0_clk
*1078 clkbuf_1_0__f_clk
*1079 clkbuf_1_1__f_clk
*1080 fanout37
*1081 hold1
*1082 hold10
*1083 hold11
*1084 hold12
*1085 hold13
*1086 hold2
*1087 hold3
*1088 hold4
*1089 hold5
*1090 hold6
*1091 hold7
*1092 hold8
*1093 hold9
*1094 input1
*1095 input10
*1096 input11
*1097 input12
*1098 input13
*1099 input14
*1100 input15
*1101 input16
*1102 input17
*1103 input18
*1104 input19
*1105 input2
*1106 input20
*1107 input21
*1108 input22
*1109 input3
*1110 input4
*1111 input5
*1112 input6
*1113 input7
*1114 input8
*1115 input9
*1116 output23
*1117 output24
*1118 output25
*1119 output26
*1120 output27
*1121 output28
*1122 output29
*1123 output30
*1124 output31
*1125 output32
*1126 output33
*1127 output34
*1128 output35
*1129 output36

*PORTS
clk I
data_in[0] I
data_in[1] I
data_in[2] I
data_in[3] I
data_in[4] I
data_in[5] I
data_in[6] I
data_in[7] I
int4_out[0] O
int4_out[1] O
int4_out[2] O
int4_out[3] O
is_outlier O
round_mode I
rst_n I
scale[0] I
scale[1] I
scale[2] I
scale[3] I
sideband_out[0] O
sideband_out[1] O
sideband_out[2] O
sideband_out[3] O
sideband_out[4] O
sideband_out[5] O
sideband_out[6] O
sideband_out[7] O
threshold[0] I
threshold[1] I
threshold[2] I
threshold[3] I
threshold[4] I
threshold[5] I
threshold[6] I
threshold[7] I
valid_in I
valid_out O

*D_NET *3 0.00517241
*CONN
*P clk I
*I *1077:A I *D sky130_fd_sc_hd__clkbuf_16
*CAP
1 clk 0.00204944
2 *1077:A 0
3 *3:27 0.00204944
4 *3:27 *1013:A 3.18948e-05
5 *3:27 *1013:B 8.49023e-05
6 *3:27 *66:10 7.69776e-06
7 *3:27 *68:10 0.00017183
8 *3:27 *167:8 0.000272338
9 *3:27 *213:93 3.90796e-05
10 *3:27 *214:55 0
11 *3:27 *215:16 0.000253172
12 *3:27 *217:8 0
13 *3:27 *217:17 4.08894e-05
14 *3:27 *311:32 0.000171726
*RES
1 clk *3:27 47.067 
2 *3:27 *1077:A 9.3 
*END

*D_NET *4 0.000533521
*CONN
*P data_in[0] I
*I *1094:A I *D sky130_fd_sc_hd__clkbuf_2
*CAP
1 data_in[0] 0.00026676
2 *1094:A 0.00026676
3 *1094:A *1061:A 0
*RES
1 data_in[0] *1094:A 18.4985 
*END

*D_NET *5 0.000599404
*CONN
*P data_in[1] I
*I *1105:A I *D sky130_fd_sc_hd__buf_1
*CAP
1 data_in[1] 0.000252301
2 *1105:A 0.000252301
3 *1105:A *263:29 9.48025e-05
*RES
1 data_in[1] *1105:A 19.0336 
*END

*D_NET *6 0.000942356
*CONN
*P data_in[2] I
*I *1109:A I *D sky130_fd_sc_hd__buf_1
*CAP
1 data_in[2] 0.000471178
2 *1109:A 0.000471178
*RES
1 data_in[2] *1109:A 22.6571 
*END

*D_NET *7 0.000888052
*CONN
*P data_in[3] I
*I *1110:A I *D sky130_fd_sc_hd__clkbuf_4
*CAP
1 data_in[3] 0.000415876
2 *1110:A 0.000415876
3 *1110:A *307:14 5.62995e-05
*RES
1 data_in[3] *1110:A 21.9429 
*END

*D_NET *8 0.000888052
*CONN
*P data_in[4] I
*I *1111:A I *D sky130_fd_sc_hd__clkbuf_4
*CAP
1 data_in[4] 0.000415876
2 *1111:A 0.000415876
3 *1111:A *307:14 5.62995e-05
*RES
1 data_in[4] *1111:A 21.9429 
*END

*D_NET *9 0.000848451
*CONN
*P data_in[5] I
*I *1112:A I *D sky130_fd_sc_hd__buf_2
*CAP
1 data_in[5] 0.000408292
2 *1112:A 0.000408292
3 *1112:A *266:10 3.18676e-05
*RES
1 data_in[5] *1112:A 21.8357 
*END

*D_NET *10 0.00189643
*CONN
*P data_in[6] I
*I *1113:A I *D sky130_fd_sc_hd__clkbuf_4
*CAP
1 data_in[6] 0.000876789
2 *1113:A 0.000876789
3 *1113:A *1114:A 0.000142856
*RES
1 data_in[6] *1113:A 30.8893 
*END

*D_NET *11 0.00102012
*CONN
*P data_in[7] I
*I *1114:A I *D sky130_fd_sc_hd__clkbuf_2
*CAP
1 data_in[7] 0.000438631
2 *1114:A 0.000438631
3 *1113:A *1114:A 0.000142856
*RES
1 data_in[7] *1114:A 22.3536 
*END

*D_NET *12 0.000708965
*CONN
*P int4_out[0] O
*I *1116:X O *D sky130_fd_sc_hd__clkbuf_4
*CAP
1 int4_out[0] 0.000354482
2 *1116:X 0.000354482
3 int4_out[0] *263:10 0
*RES
1 *1116:X int4_out[0] 22.0661 
*END

*D_NET *13 0.000643057
*CONN
*P int4_out[1] O
*I *1117:X O *D sky130_fd_sc_hd__clkbuf_4
*CAP
1 int4_out[1] 0.000301328
2 *1117:X 0.000301328
3 int4_out[1] *271:12 4.04012e-05
*RES
1 *1117:X int4_out[1] 19.3378 
*END

*D_NET *14 0.000961763
*CONN
*P int4_out[2] O
*I *1118:X O *D sky130_fd_sc_hd__clkbuf_4
*CAP
1 int4_out[2] 0.00047221
2 *1118:X 0.00047221
3 int4_out[2] *972:C 6.05161e-06
4 int4_out[2] *309:14 1.12926e-05
*RES
1 *1118:X int4_out[2] 22.05 
*END

*D_NET *15 0.000673324
*CONN
*P int4_out[3] O
*I *1119:X O *D sky130_fd_sc_hd__clkbuf_4
*CAP
1 int4_out[3] 0.000336662
2 *1119:X 0.000336662
3 int4_out[3] *1119:A 0
*RES
1 *1119:X int4_out[3] 20.9589 
*END

*D_NET *16 0.00294015
*CONN
*P is_outlier O
*I *1120:X O *D sky130_fd_sc_hd__clkbuf_4
*CAP
1 is_outlier 0.00134073
2 *1120:X 0.00134073
3 is_outlier *249:62 4.32309e-05
4 is_outlier *249:83 6.98302e-05
5 is_outlier *265:51 3.04001e-06
6 is_outlier *307:62 7.83659e-05
7 is_outlier *307:89 5.53561e-05
8 is_outlier *307:108 8.87461e-06
*RES
1 *1120:X is_outlier 21.4991 
*END

*D_NET *18 0.000608773
*CONN
*P rst_n I
*I *1115:A I *D sky130_fd_sc_hd__clkbuf_2
*CAP
1 rst_n 0.000304387
2 *1115:A 0.000304387
*RES
1 rst_n *1115:A 20.3888 
*END

*D_NET *19 0.000719612
*CONN
*P scale[0] I
*I *1095:A I *D sky130_fd_sc_hd__clkbuf_2
*CAP
1 scale[0] 0.000359806
2 *1095:A 0.000359806
*RES
1 scale[0] *1095:A 21.6031 
*END

*D_NET *20 0.00143417
*CONN
*P scale[1] I
*I *1096:A I *D sky130_fd_sc_hd__dlymetal6s2s_1
*CAP
1 scale[1] 0.000717087
2 *1096:A 0.000717087
*RES
1 scale[1] *1096:A 27.5857 
*END

*D_NET *21 0.0016344
*CONN
*P scale[2] I
*I *1097:A I *D sky130_fd_sc_hd__clkbuf_2
*CAP
1 scale[2] 0.000679094
2 *1097:A 0.000679094
3 *1097:A *1108:A 0.000276211
*RES
1 scale[2] *1097:A 28.1214 
*END

*D_NET *22 0.00122849
*CONN
*P scale[3] I
*I *1098:A I *D sky130_fd_sc_hd__clkbuf_2
*CAP
1 scale[3] 0.000614245
2 *1098:A 0.000614245
3 *1098:A sideband_out[5] 0
*RES
1 scale[3] *1098:A 24.7705 
*END

*D_NET *23 0.000700258
*CONN
*P sideband_out[0] O
*I *1121:X O *D sky130_fd_sc_hd__clkbuf_4
*CAP
1 sideband_out[0] 0.000350129
2 *1121:X 0.000350129
*RES
1 *1121:X sideband_out[0] 20.6929 
*END

*D_NET *24 0.000622676
*CONN
*P sideband_out[1] O
*I *1122:X O *D sky130_fd_sc_hd__buf_2
*CAP
1 sideband_out[1] 0.00029484
2 *1122:X 0.00029484
3 sideband_out[1] *1122:A 3.29959e-05
*RES
1 *1122:X sideband_out[1] 18.8741 
*END

*D_NET *25 0.000700258
*CONN
*P sideband_out[2] O
*I *1123:X O *D sky130_fd_sc_hd__clkbuf_4
*CAP
1 sideband_out[2] 0.000350129
2 *1123:X 0.000350129
*RES
1 *1123:X sideband_out[2] 20.6929 
*END

*D_NET *26 0.00103419
*CONN
*P sideband_out[3] O
*I *1124:X O *D sky130_fd_sc_hd__buf_2
*CAP
1 sideband_out[3] 0.000444709
2 *1124:X 0.000444709
3 sideband_out[3] *1101:A 0.000144773
*RES
1 *1124:X sideband_out[3] 22.05 
*END

*D_NET *27 0.000762941
*CONN
*P sideband_out[4] O
*I *1125:X O *D sky130_fd_sc_hd__buf_2
*CAP
1 sideband_out[4] 0.00038147
2 *1125:X 0.00038147
*RES
1 *1125:X sideband_out[4] 21.1209 
*END

*D_NET *28 0.00101837
*CONN
*P sideband_out[5] O
*I *1126:X O *D sky130_fd_sc_hd__clkbuf_4
*CAP
1 sideband_out[5] 0.000458082
2 *1126:X 0.000458082
3 sideband_out[5] *265:10 0.000102207
4 *1098:A sideband_out[5] 0
*RES
1 *1126:X sideband_out[5] 22.7643 
*END

*D_NET *29 0.000700258
*CONN
*P sideband_out[6] O
*I *1127:X O *D sky130_fd_sc_hd__clkbuf_4
*CAP
1 sideband_out[6] 0.000350129
2 *1127:X 0.000350129
*RES
1 *1127:X sideband_out[6] 20.6929 
*END

*D_NET *30 0.000498701
*CONN
*P sideband_out[7] O
*I *1128:X O *D sky130_fd_sc_hd__clkbuf_4
*CAP
1 sideband_out[7] 0.000249351
2 *1128:X 0.000249351
*RES
1 *1128:X sideband_out[7] 19.9411 
*END

*D_NET *31 0.000584057
*CONN
*P threshold[0] I
*I *1099:A I *D sky130_fd_sc_hd__clkbuf_1
*CAP
1 threshold[0] 0.000292028
2 *1099:A 0.000292028
3 *1099:A *870:B1 0
*RES
1 threshold[0] *1099:A 20.7453 
*END

*D_NET *32 0.000813598
*CONN
*P threshold[1] I
*I *1100:A I *D sky130_fd_sc_hd__buf_1
*CAP
1 threshold[1] 0.000406799
2 *1100:A 0.000406799
*RES
1 threshold[1] *1100:A 21.9607 
*END

*D_NET *33 0.0011372
*CONN
*P threshold[2] I
*I *1101:A I *D sky130_fd_sc_hd__buf_1
*CAP
1 threshold[2] 0.000496212
2 *1101:A 0.000496212
3 sideband_out[3] *1101:A 0.000144773
*RES
1 threshold[2] *1101:A 23.7294 
*END

*D_NET *34 0.00173853
*CONN
*P threshold[3] I
*I *1102:A I *D sky130_fd_sc_hd__buf_1
*CAP
1 threshold[3] 0.000869265
2 *1102:A 0.000869265
*RES
1 threshold[3] *1102:A 30.7286 
*END

*D_NET *35 0.000866759
*CONN
*P threshold[4] I
*I *1103:A I *D sky130_fd_sc_hd__buf_1
*CAP
1 threshold[4] 0.000418929
2 *1103:A 0.000418929
3 *1103:A *309:14 2.89016e-05
*RES
1 threshold[4] *1103:A 21.9607 
*END

*D_NET *36 0.00088481
*CONN
*P threshold[5] I
*I *1104:A I *D sky130_fd_sc_hd__buf_1
*CAP
1 threshold[5] 0.000413831
2 *1104:A 0.000413831
3 *1104:A *307:14 5.71472e-05
*RES
1 threshold[5] *1104:A 21.9607 
*END

*D_NET *37 0.000941071
*CONN
*P threshold[6] I
*I *1106:A I *D sky130_fd_sc_hd__clkbuf_1
*CAP
1 threshold[6] 0.000470535
2 *1106:A 0.000470535
*RES
1 threshold[6] *1106:A 22.6571 
*END

*D_NET *38 0.000585565
*CONN
*P threshold[7] I
*I *1107:A I *D sky130_fd_sc_hd__dlymetal6s2s_1
*CAP
1 threshold[7] 0.000292783
2 *1107:A 0.000292783
3 *1107:A *263:10 0
*RES
1 threshold[7] *1107:A 21.1554 
*END

*D_NET *39 0.00112914
*CONN
*P valid_in I
*I *1108:A I *D sky130_fd_sc_hd__buf_1
*CAP
1 valid_in 0.000415092
2 *1108:A 0.000415092
3 *1108:A *266:10 2.27416e-05
4 *1097:A *1108:A 0.000276211
*RES
1 valid_in *1108:A 24.1375 
*END

*D_NET *40 0.000808823
*CONN
*P valid_out O
*I *1129:X O *D sky130_fd_sc_hd__clkbuf_4
*CAP
1 valid_out 0.000404411
2 *1129:X 0.000404411
*RES
1 *1129:X valid_out 21.7632 
*END

*D_NET *41 0.000311057
*CONN
*I *1063:D I *D sky130_fd_sc_hd__dfrtp_1
*I *880:X O *D sky130_fd_sc_hd__o21ba_1
*CAP
1 *1063:D 0.000103041
2 *880:X 0.000103041
3 *1063:D *1119:A 0.000104974
4 *1063:D *293:66 0
*RES
1 *880:X *1063:D 29.475 
*END

*D_NET *42 0.0014178
*CONN
*I *1065:D I *D sky130_fd_sc_hd__dfrtp_1
*I *1036:X O *D sky130_fd_sc_hd__a22o_1
*CAP
1 *1065:D 0.000372999
2 *1036:X 0.000372999
3 *1065:D *1036:A2 7.89362e-05
4 *1065:D *1036:B2 4.86056e-05
5 *1065:D *266:22 0.000451195
6 *1065:D *277:24 1.50787e-05
7 *1065:D *293:62 7.79859e-05
*RES
1 *1036:X *1065:D 35.6893 
*END

*D_NET *43 0.000668057
*CONN
*I *1066:D I *D sky130_fd_sc_hd__dfrtp_1
*I *1040:X O *D sky130_fd_sc_hd__a22o_1
*CAP
1 *1066:D 0.000211463
2 *1040:X 0.000211463
3 *1066:D *1066:CLK 2.84026e-05
4 *1066:D *273:16 0.00016606
5 *1066:D *293:44 5.06672e-05
*RES
1 *1040:X *1066:D 31.3321 
*END

*D_NET *44 0.000632083
*CONN
*I *1067:D I *D sky130_fd_sc_hd__dfrtp_1
*I *1044:X O *D sky130_fd_sc_hd__a22o_1
*CAP
1 *1067:D 0.000228759
2 *1044:X 0.000228759
3 *1067:D *266:22 0.000126278
4 *1067:D *267:79 5.54817e-06
5 *1067:D *293:62 4.27381e-05
*RES
1 *1044:X *1067:D 31.8321 
*END

*D_NET *45 0.000581885
*CONN
*I *1068:D I *D sky130_fd_sc_hd__dfrtp_1
*I *1046:X O *D sky130_fd_sc_hd__a21bo_1
*CAP
1 *1068:D 0.000206713
2 *1046:X 0.000206713
3 *1068:D *265:51 7.74135e-05
4 *1068:D *267:79 1.21084e-05
5 *1068:D *293:66 7.89362e-05
*RES
1 *1046:X *1068:D 30.9571 
*END

*D_NET *46 0.000752161
*CONN
*I *1069:D I *D sky130_fd_sc_hd__dfrtp_1
*I *1048:X O *D sky130_fd_sc_hd__a31o_1
*CAP
1 *1069:D 0.000243022
2 *1048:X 0.000243022
3 *1069:D *1060:B1 4.07505e-05
4 *1069:D *243:24 0.000225367
*RES
1 *1048:X *1069:D 31.4214 
*END

*D_NET *47 0.000544601
*CONN
*I *1070:D I *D sky130_fd_sc_hd__dfrtp_1
*I *1050:X O *D sky130_fd_sc_hd__a31o_1
*CAP
1 *1070:D 0.000156109
2 *1050:X 0.000156109
3 *1070:D *1050:A2 2.89114e-05
4 *1070:D *1050:A3 2.95726e-05
5 *1070:D *209:14 0.000128154
6 *1070:D *211:128 4.57445e-05
*RES
1 *1050:X *1070:D 30.6 
*END

*D_NET *48 0.00038887
*CONN
*I *1071:D I *D sky130_fd_sc_hd__dfrtp_1
*I *1052:X O *D sky130_fd_sc_hd__a31o_1
*CAP
1 *1071:D 8.97117e-05
2 *1052:X 8.97117e-05
3 *1071:D *1052:A3 1.84865e-05
4 *1071:D *1054:A3 0.000126416
5 *1071:D *209:10 6.45442e-05
*RES
1 *1052:X *1071:D 29.7786 
*END

*D_NET *49 0.00026833
*CONN
*I *1072:D I *D sky130_fd_sc_hd__dfrtp_1
*I *1054:X O *D sky130_fd_sc_hd__a31o_1
*CAP
1 *1072:D 8.1612e-05
2 *1054:X 8.1612e-05
3 *1072:D *1054:A3 5.2478e-05
4 *1072:D *1066:RESET_B 5.26283e-05
*RES
1 *1054:X *1072:D 29.475 
*END

*D_NET *50 0.000419687
*CONN
*I *1073:D I *D sky130_fd_sc_hd__dfrtp_1
*I *1056:X O *D sky130_fd_sc_hd__a31o_1
*CAP
1 *1073:D 8.61079e-05
2 *1056:X 8.61079e-05
3 *1073:D *1056:A1 5.52238e-05
4 *1073:D *1073:CLK 6.65302e-05
5 *1073:D *310:28 0.000125717
*RES
1 *1056:X *1073:D 29.7786 
*END

*D_NET *51 0.000345318
*CONN
*I *1074:D I *D sky130_fd_sc_hd__dfrtp_1
*I *1058:X O *D sky130_fd_sc_hd__a31o_1
*CAP
1 *1074:D 0.000126958
2 *1058:X 0.000126958
3 *1074:D *210:8 3.5707e-05
4 *1074:D *263:10 5.56943e-05
*RES
1 *1058:X *1074:D 29.8857 
*END

*D_NET *52 0.000966167
*CONN
*I *1075:D I *D sky130_fd_sc_hd__dfrtp_1
*I *1060:X O *D sky130_fd_sc_hd__a31o_1
*CAP
1 *1075:D 0.000317996
2 *1060:X 0.000317996
3 *1075:D *1061:B 6.05161e-06
4 *1075:D *1069:CLK 9.69399e-05
5 *1075:D *1076:RESET_B 0.000123352
6 *1075:D *261:33 0.000103832
*RES
1 *1060:X *1075:D 33.8857 
*END

*D_NET *53 0.000805784
*CONN
*I *1076:D I *D sky130_fd_sc_hd__dfrtp_1
*I *1062:X O *D sky130_fd_sc_hd__a31o_1
*CAP
1 *1076:D 0.00022596
2 *1062:X 0.00022596
3 *1076:D *1061:A 0.00015136
4 *1076:D *1076:CLK 0.000100074
5 *1076:D *209:32 0.00010243
*RES
1 *1062:X *1076:D 33.4393 
*END

*D_NET *54 0.00229249
*CONN
*I *921:A I *D sky130_fd_sc_hd__nor2_1
*I *908:A2 I *D sky130_fd_sc_hd__o21ai_2
*I *909:C I *D sky130_fd_sc_hd__or3_1
*I *896:X O *D sky130_fd_sc_hd__and3_1
*CAP
1 *921:A 5.07314e-06
2 *908:A2 0.000165904
3 *909:C 1.26189e-05
4 *896:X 0.000137714
5 *54:18 0.000471155
6 *54:10 0.000435419
7 *908:A2 *908:A1 4.88637e-05
8 *908:A2 *908:B1 0.000186669
9 *908:A2 *910:B 0.000276211
10 *908:A2 *65:8 2.42516e-05
11 *908:A2 *66:10 5.30637e-06
12 *909:C *906:A 3.50166e-05
13 *909:C *65:8 5.7661e-06
14 *921:A *55:20 0
15 *54:10 *921:B 0.00014489
16 *54:10 *79:12 0.000100639
17 *54:18 *906:A 0.000230155
18 *54:18 *55:20 0
19 *54:18 *65:8 6.8377e-06
*RES
1 *896:X *54:10 16.4339 
2 *54:10 *54:18 9.00893 
3 *54:18 *909:C 9.72857 
4 *54:18 *908:A2 13.9607 
5 *54:10 *921:A 14.0768 
*END

*D_NET *55 0.00603033
*CONN
*I *934:B1_N I *D sky130_fd_sc_hd__a21bo_1
*I *1021:A I *D sky130_fd_sc_hd__and2_1
*I *918:A_N I *D sky130_fd_sc_hd__nand3b_1
*I *1009:A1 I *D sky130_fd_sc_hd__mux2_1
*I *1011:A1 I *D sky130_fd_sc_hd__o21ai_1
*I *907:A I *D sky130_fd_sc_hd__xnor2_1
*I *897:Y O *D sky130_fd_sc_hd__nand2_2
*CAP
1 *934:B1_N 0.000432945
2 *1021:A 0
3 *918:A_N 0.000236417
4 *1009:A1 0
5 *1011:A1 0.000172291
6 *907:A 0
7 *897:Y 0
8 *55:53 0.000299473
9 *55:20 0.000707497
10 *55:10 0.00067341
11 *55:6 0.000338105
12 *55:4 0.000569791
13 *918:A_N *924:B 0.000413081
14 *918:A_N *1021:B 9.84729e-05
15 *918:A_N *179:37 9.7497e-05
16 *918:A_N *272:26 0.000221186
17 *934:B1_N *919:B 0
18 *934:B1_N *76:21 0
19 *934:B1_N *245:10 0.000126871
20 *934:B1_N *245:51 0.00030397
21 *934:B1_N *264:30 0
22 *934:B1_N *311:46 6.68359e-05
23 *934:B1_N *311:62 2.976e-05
24 *1011:A1 *906:A 0.000111895
25 *1011:A1 *906:B 0.000188048
26 *1011:A1 *907:B 5.33005e-05
27 *1011:A1 *1010:B 0.000221302
28 *1011:A1 *1011:A2 1.98839e-05
29 *1011:A1 *1012:A0 3.99614e-06
30 *1011:A1 *1012:A1 6.05161e-06
31 *1011:A1 *63:12 6.05161e-06
32 *1011:A1 *211:105 2.14757e-05
33 *1011:A1 *258:10 2.25844e-05
34 *55:6 *881:A 6.92966e-06
35 *55:6 *264:30 3.09985e-05
36 *55:6 *311:62 2.78576e-05
37 *55:10 *179:37 9.15842e-06
38 *55:10 *311:62 5.66064e-05
39 *55:20 *896:B 0
40 *55:20 *903:A 0
41 *55:20 *906:A 0.000130794
42 *55:20 *924:B 0
43 *55:20 *1010:B 0.000127138
44 *55:20 *1078:A 0
45 *55:20 *61:14 0
46 *55:20 *61:21 0.000144773
47 *55:20 *79:12 0
48 *55:20 *258:10 4.06606e-05
49 *55:20 *310:135 0
50 *55:53 *264:30 1.32293e-05
51 *921:A *55:20 0
52 *54:18 *55:20 0
*RES
1 *897:Y *55:4 9.3 
2 *55:4 *55:6 1.76786 
3 *55:6 *55:10 7.05357 
4 *55:10 *55:20 14.5402 
5 *55:20 *907:A 9.3 
6 *55:20 *1011:A1 23.2955 
7 *55:10 *1009:A1 13.8 
8 *55:6 *55:53 1.26786 
9 *55:53 *918:A_N 25.3536 
10 *55:53 *1021:A 9.3 
11 *55:4 *934:B1_N 25.6571 
*END

*D_NET *56 0.00380359
*CONN
*I *905:A I *D sky130_fd_sc_hd__nor2_1
*I *904:A I *D sky130_fd_sc_hd__and2_1
*I *1010:A I *D sky130_fd_sc_hd__nand2_1
*I *898:X O *D sky130_fd_sc_hd__a31o_1
*CAP
1 *905:A 0
2 *904:A 0
3 *1010:A 0.000864992
4 *898:X 0.000337043
5 *56:16 0.000910563
6 *56:12 0.000382613
7 *1010:A *906:B 4.66856e-05
8 *1010:A *1012:A1 4.92796e-05
9 *1010:A *217:40 0
10 *1010:A *217:44 0
11 *56:12 *892:A_N 0.000241926
12 *56:12 *892:B 4.0708e-05
13 *56:12 *894:A_N 5.71472e-05
14 *56:12 *894:B 8.37335e-05
15 *56:12 *1058:A1 8.00806e-05
16 *56:12 *61:14 0.000144773
17 *56:12 *257:8 4.35336e-05
18 *56:12 *258:10 0.000171023
19 *56:12 *267:10 1.46717e-05
20 *56:16 *1010:B 0
21 *56:16 *61:14 4.7194e-05
22 *56:16 *61:21 9.90367e-05
23 *56:16 *258:10 0.000188586
*RES
1 *898:X *56:12 27.4607 
2 *56:12 *56:16 2.19643 
3 *56:16 *1010:A 29.5847 
4 *56:16 *904:A 9.3 
5 *56:12 *905:A 9.3 
*END

*D_NET *57 0.000425096
*CONN
*I *903:A I *D sky130_fd_sc_hd__xnor2_1
*I *899:Y O *D sky130_fd_sc_hd__nand2_1
*CAP
1 *903:A 0.000101663
2 *899:Y 0.000101663
3 *903:A *903:B 4.48113e-05
4 *903:A *259:14 0
5 *903:A *309:117 0.00010096
6 *903:A *310:47 3.67142e-05
7 *903:A *310:135 3.92854e-05
8 *55:20 *903:A 0
*RES
1 *899:Y *903:A 30.4929 
*END

*D_NET *58 0.00156668
*CONN
*I *902:B I *D sky130_fd_sc_hd__and3_1
*I *1006:B I *D sky130_fd_sc_hd__nand2_1
*I *900:Y O *D sky130_fd_sc_hd__nand2_1
*CAP
1 *902:B 0
2 *1006:B 0.000303741
3 *900:Y 0.000140163
4 *58:6 0.000443904
5 *1006:B *884:A 9.58689e-05
6 *1006:B *900:A 4.11486e-05
7 *1006:B *915:A2 8.6229e-06
8 *1006:B *1007:B1 0.000143285
9 *1006:B *246:21 0.000136727
10 *1006:B *310:100 0.000143222
11 *58:6 *900:A 5.49894e-05
12 *58:6 *900:B 5.50052e-05
*RES
1 *900:Y *58:6 11.0679 
2 *58:6 *1006:B 23.2464 
3 *58:6 *902:B 9.3 
*END

*D_NET *59 0.00155864
*CONN
*I *1007:A2 I *D sky130_fd_sc_hd__o21ai_1
*I *1008:A2 I *D sky130_fd_sc_hd__a31o_1
*I *902:C I *D sky130_fd_sc_hd__and3_1
*I *901:X O *D sky130_fd_sc_hd__or2_1
*CAP
1 *1007:A2 0.000135635
2 *1008:A2 0
3 *902:C 7.93276e-05
4 *901:X 7.03678e-05
5 *59:25 0.000249498
6 *59:6 0.000263558
7 *902:C *899:A 7.89362e-05
8 *902:C *1045:C 2.83493e-05
9 *902:C *246:23 4.15618e-05
10 *902:C *249:8 0.000111369
11 *902:C *249:14 5.56047e-05
12 *902:C *311:62 2.66502e-05
13 *1007:A2 *165:14 0.000126187
14 *1007:A2 *246:36 0
15 *1007:A2 *249:14 4.44838e-05
16 *59:6 *1008:A3 9.67754e-05
17 *59:25 *1008:A3 9.41642e-05
18 *59:25 *1009:S 2.53112e-06
19 *59:25 *249:14 5.36422e-05
*RES
1 *901:X *59:6 10.2464 
2 *59:6 *902:C 20.8179 
3 *59:6 *59:25 6.17857 
4 *59:25 *1008:A2 13.8 
5 *59:25 *1007:A2 16.3536 
*END

*D_NET *60 0.00101369
*CONN
*I *903:B I *D sky130_fd_sc_hd__xnor2_1
*I *902:X O *D sky130_fd_sc_hd__and3_1
*CAP
1 *903:B 0.000305966
2 *902:X 0.000305966
3 *903:B *891:B1 1.48119e-05
4 *903:B *900:B 1.00887e-05
5 *903:B *924:B 0
6 *903:B *249:8 0.000167813
7 *903:B *259:14 0.000164235
8 *903:B *310:135 0
9 *903:A *903:B 4.48113e-05
*RES
1 *902:X *903:B 33.5464 
*END

*D_NET *61 0.00236561
*CONN
*I *904:B I *D sky130_fd_sc_hd__and2_1
*I *1010:B I *D sky130_fd_sc_hd__nand2_1
*I *905:B I *D sky130_fd_sc_hd__nor2_1
*I *903:Y O *D sky130_fd_sc_hd__xnor2_1
*CAP
1 *904:B 0
2 *1010:B 0.000320701
3 *905:B 0
4 *903:Y 0.000201613
5 *61:21 0.00035252
6 *61:14 0.000233432
7 *1010:B *906:B 9.1631e-05
8 *1010:B *1012:A1 9.76435e-06
9 *1010:B *63:12 0
10 *1010:B *168:6 5.02381e-05
11 *1010:B *211:105 0.000136416
12 *1010:B *258:10 0.000143651
13 *61:14 *1060:A1 0
14 *61:21 *258:10 4.14279e-05
15 *1011:A1 *1010:B 0.000221302
16 *55:20 *1010:B 0.000127138
17 *55:20 *61:14 0
18 *55:20 *61:21 0.000144773
19 *56:12 *61:14 0.000144773
20 *56:16 *1010:B 0
21 *56:16 *61:14 4.7194e-05
22 *56:16 *61:21 9.90367e-05
*RES
1 *903:Y *61:14 22.2464 
2 *61:14 *905:B 9.3 
3 *61:14 *61:21 1.76786 
4 *61:21 *1010:B 25.3089 
5 *61:21 *904:B 9.3 
*END

*D_NET *62 0.000967511
*CONN
*I *906:A I *D sky130_fd_sc_hd__nor2_1
*I *904:X O *D sky130_fd_sc_hd__and2_1
*CAP
1 *906:A 0.000155825
2 *904:X 0.000155825
3 *906:A *906:B 9.83442e-05
4 *906:A *907:B 3.50327e-05
5 *906:A *65:8 1.46231e-05
6 *909:C *906:A 3.50166e-05
7 *1011:A1 *906:A 0.000111895
8 *54:18 *906:A 0.000230155
9 *55:20 *906:A 0.000130794
*RES
1 *904:X *906:A 23.2607 
*END

*D_NET *63 0.00237307
*CONN
*I *1011:A2 I *D sky130_fd_sc_hd__o21ai_1
*I *906:B I *D sky130_fd_sc_hd__nor2_1
*I *905:Y O *D sky130_fd_sc_hd__nor2_1
*CAP
1 *1011:A2 4.43007e-05
2 *906:B 0.000394308
3 *905:Y 0.00033687
4 *63:12 0.000775479
5 *906:B *907:B 9.83442e-05
6 *906:B *1012:A1 0
7 *906:B *1092:A 0
8 *63:12 *849:A 0.000232123
9 *63:12 *211:105 4.10026e-05
10 *906:A *906:B 9.83442e-05
11 *1010:A *906:B 4.66856e-05
12 *1010:B *906:B 9.1631e-05
13 *1010:B *63:12 0
14 *1011:A1 *906:B 0.000188048
15 *1011:A1 *1011:A2 1.98839e-05
16 *1011:A1 *63:12 6.05161e-06
*RES
1 *905:Y *63:12 23.1571 
2 *63:12 *906:B 25.7107 
3 *63:12 *1011:A2 9.83571 
*END

*D_NET *64 0.000480922
*CONN
*I *907:B I *D sky130_fd_sc_hd__xnor2_1
*I *906:Y O *D sky130_fd_sc_hd__nor2_1
*CAP
1 *907:B 6.52985e-05
2 *906:Y 6.52985e-05
3 *907:B *65:8 9.83388e-05
4 *907:B *258:10 6.53092e-05
5 *906:A *907:B 3.50327e-05
6 *906:B *907:B 9.83442e-05
7 *1011:A1 *907:B 5.33005e-05
*RES
1 *906:Y *907:B 20.7786 
*END

*D_NET *65 0.00107162
*CONN
*I *908:B1 I *D sky130_fd_sc_hd__o21ai_2
*I *909:A I *D sky130_fd_sc_hd__or3_1
*I *907:Y O *D sky130_fd_sc_hd__xnor2_1
*CAP
1 *908:B1 2.7609e-05
2 *909:A 0
3 *907:Y 0.000106172
4 *65:8 0.000133781
5 *908:B1 *908:A1 0.000155067
6 *65:8 *908:A1 0.000129901
7 *65:8 *258:10 0.0001826
8 *906:A *65:8 1.46231e-05
9 *907:B *65:8 9.83388e-05
10 *908:A2 *908:B1 0.000186669
11 *908:A2 *65:8 2.42516e-05
12 *909:C *65:8 5.7661e-06
13 *54:18 *65:8 6.8377e-06
*RES
1 *907:Y *65:8 12.6214 
2 *65:8 *909:A 9.3 
3 *65:8 *908:B1 11.0679 
*END

*D_NET *66 0.00422327
*CONN
*I *910:A I *D sky130_fd_sc_hd__nand2_2
*I *1012:S I *D sky130_fd_sc_hd__mux2_1
*I *908:Y O *D sky130_fd_sc_hd__o21ai_2
*CAP
1 *910:A 7.38924e-05
2 *1012:S 0.000309646
3 *908:Y 0.000379355
4 *66:10 0.000762893
5 *910:A *213:93 0.000245349
6 *910:A *215:16 0.000233677
7 *1012:S *858:A 5.33005e-05
8 *1012:S *223:16 0.00018024
9 *1012:S *309:117 0.000528978
10 *1012:S *310:30 5.33005e-05
11 *1012:S *310:43 0.0006201
12 *66:10 *851:B 5.71472e-05
13 *66:10 *858:B 1.32552e-05
14 *66:10 *910:B 2.65105e-05
15 *66:10 *213:93 0.000193833
16 *66:10 *215:16 0.000123288
17 *66:10 *217:8 0
18 *66:10 *217:17 0
19 *66:10 *307:114 0.000229211
20 *66:10 *307:123 0.000126294
21 *908:A2 *66:10 5.30637e-06
22 *3:27 *66:10 7.69776e-06
*RES
1 *908:Y *66:10 21.8179 
2 *66:10 *1012:S 24.6393 
3 *66:10 *910:A 16.9607 
*END

*D_NET *67 0.00215231
*CONN
*I *910:B I *D sky130_fd_sc_hd__nand2_2
*I *909:X O *D sky130_fd_sc_hd__or3_1
*CAP
1 *910:B 0.000641651
2 *909:X 0.000641651
3 *910:B *858:B 7.50601e-05
4 *910:B *217:23 0.00022266
5 *910:B *262:6 5.52302e-05
6 *910:B *276:22 0.000154305
7 *910:B *307:114 5.90322e-05
8 *910:B *311:46 0
9 *908:A2 *910:B 0.000276211
10 *66:10 *910:B 2.65105e-05
*RES
1 *909:X *910:B 39.2071 
*END

*D_NET *68 0.00340303
*CONN
*I *1005:A0 I *D sky130_fd_sc_hd__mux2_1
*I *1015:A1 I *D sky130_fd_sc_hd__o211ai_2
*I *923:A I *D sky130_fd_sc_hd__xor2_1
*I *1014:A1 I *D sky130_fd_sc_hd__o22a_1
*I *910:Y O *D sky130_fd_sc_hd__nand2_2
*CAP
1 *1005:A0 0
2 *1015:A1 0
3 *923:A 0.00015357
4 *1014:A1 0
5 *910:Y 0.000200868
6 *68:41 0.000363609
7 *68:29 0.000626058
8 *68:10 0.000616888
9 *923:A *923:B 7.25873e-06
10 *923:A *1005:S 0
11 *923:A *311:46 1.47872e-05
12 *68:10 *215:16 1.50223e-05
13 *68:10 *217:17 1.52978e-05
14 *68:10 *217:81 0.000100088
15 *68:10 *276:22 0.000137983
16 *68:29 *859:A 2.85321e-05
17 *68:29 *859:B 0
18 *68:29 *1005:S 9.75679e-05
19 *68:29 *1014:A2 0.000175707
20 *68:29 *1015:B1 8.81984e-05
21 *68:29 *215:16 2.11693e-05
22 *68:29 *217:81 2.86367e-05
23 *68:29 *217:98 3.39833e-05
24 *68:41 *1015:B1 6.54227e-05
25 *68:41 *1015:C1 7.58841e-05
26 *68:41 *80:12 0.000224575
27 *68:41 *163:10 3.54498e-05
28 *68:41 *272:26 0.000104643
29 *3:27 *68:10 0.00017183
*RES
1 *910:Y *68:10 18.0143 
2 *68:10 *1014:A1 13.8 
3 *68:10 *68:29 12.1607 
4 *68:29 *68:41 14 
5 *68:41 *923:A 20.9071 
6 *68:41 *1015:A1 9.3 
7 *68:29 *1005:A0 9.3 
*END

*D_NET *69 0.00162662
*CONN
*I *925:A I *D sky130_fd_sc_hd__nand3_1
*I *926:B1 I *D sky130_fd_sc_hd__a21o_1
*I *914:A1 I *D sky130_fd_sc_hd__a21bo_1
*I *911:X O *D sky130_fd_sc_hd__and2_1
*CAP
1 *925:A 7.6604e-05
2 *926:B1 0.000101227
3 *914:A1 0
4 *911:X 7.70325e-05
5 *69:14 0.00018289
6 *69:8 0.0002353
7 *925:A *925:B 9.69726e-05
8 *925:A *309:43 9.96553e-05
9 *926:B1 *912:B1 3.14948e-05
10 *926:B1 *912:B2 0.000161775
11 *926:B1 *1044:B2 1.62025e-05
12 *926:B1 *70:10 7.25873e-06
13 *926:B1 *84:12 5.19293e-05
14 *926:B1 *246:78 9.25014e-06
15 *926:B1 *309:49 1.18451e-05
16 *69:8 *1044:B2 9.41642e-05
17 *69:14 *911:B 5.33005e-05
18 *69:14 *912:B1 0.000138432
19 *69:14 *925:B 7.33024e-05
20 *69:14 *1044:B2 3.46799e-05
21 *69:14 *309:43 4.28123e-05
22 *69:14 *309:49 3.04901e-05
*RES
1 *911:X *69:8 14.7464 
2 *69:8 *69:14 6.89286 
3 *69:14 *914:A1 9.3 
4 *69:14 *926:B1 21.2107 
5 *69:8 *925:A 15.8268 
*END

*D_NET *70 0.00152898
*CONN
*I *926:A2 I *D sky130_fd_sc_hd__a21o_1
*I *914:A2 I *D sky130_fd_sc_hd__a21bo_1
*I *925:C I *D sky130_fd_sc_hd__nand3_1
*I *912:X O *D sky130_fd_sc_hd__a22o_1
*CAP
1 *926:A2 0.000147983
2 *914:A2 0
3 *925:C 0.000166418
4 *912:X 1.23733e-05
5 *70:10 0.000212365
6 *70:6 0.000206303
7 *925:C *83:20 3.12781e-05
8 *925:C *84:12 0.000110078
9 *925:C *247:94 3.10819e-05
10 *925:C *293:44 3.471e-05
11 *926:A2 *912:B2 0.000126258
12 *926:A2 *926:A1 1.7859e-05
13 *926:A2 *72:12 0.000100228
14 *926:A2 *84:12 0
15 *926:A2 *246:97 0
16 *926:A2 *247:73 1.39726e-05
17 *926:A2 *247:86 2.32059e-05
18 *926:A2 *293:44 1.90936e-05
19 *70:6 *912:B2 4.25684e-05
20 *70:6 *1044:B2 5.33005e-05
21 *70:10 *912:B1 5.74499e-06
22 *70:10 *912:B2 6.50728e-05
23 *70:10 *1044:B2 0.000101824
24 *926:B1 *70:10 7.25873e-06
*RES
1 *912:X *70:6 9.83571 
2 *70:6 *70:10 1.375 
3 *70:10 *925:C 21.6929 
4 *70:10 *914:A2 9.3 
5 *70:6 *926:A2 21.9429 
*END

*D_NET *71 0.00200943
*CONN
*I *925:B I *D sky130_fd_sc_hd__nand3_1
*I *914:B1_N I *D sky130_fd_sc_hd__a21bo_1
*I *926:A1 I *D sky130_fd_sc_hd__a21o_1
*I *913:Y O *D sky130_fd_sc_hd__nand4_2
*CAP
1 *925:B 0.000260787
2 *914:B1_N 0
3 *926:A1 0.000107738
4 *913:Y 0
5 *71:19 0.000312938
6 *71:4 0.000159889
7 *925:B *193:20 1.03565e-05
8 *925:B *246:97 0.000249972
9 *925:B *309:43 2.5329e-05
10 *925:B *309:49 2.2918e-05
11 *926:A1 *246:78 9.71197e-05
12 *926:A1 *246:97 5.30479e-05
13 *926:A1 *247:73 0.000349875
14 *71:19 *246:97 7.95153e-05
15 *71:19 *247:65 1.02504e-05
16 *71:19 *249:83 1.5942e-05
17 *71:19 *309:49 6.562e-05
18 *925:A *925:B 9.69726e-05
19 *926:A2 *926:A1 1.7859e-05
20 *69:14 *925:B 7.33024e-05
*RES
1 *913:Y *71:4 9.3 
2 *71:4 *926:A1 13.1571 
3 *71:4 *71:19 6.14286 
4 *71:19 *914:B1_N 13.8 
5 *71:19 *925:B 19.5812 
*END

*D_NET *72 0.00174431
*CONN
*I *916:B I *D sky130_fd_sc_hd__nand3_1
*I *917:B1 I *D sky130_fd_sc_hd__a21o_1
*I *914:X O *D sky130_fd_sc_hd__a21bo_1
*CAP
1 *916:B 2.61562e-05
2 *917:B1 5.45559e-05
3 *914:X 0.000292586
4 *72:12 0.000373298
5 *916:B *916:A 2.44318e-05
6 *917:B1 *916:A 0.000191409
7 *917:B1 *916:C 0.00014183
8 *917:B1 *917:A1 0
9 *917:B1 *74:14 5.7661e-06
10 *72:12 *912:B1 5.33005e-05
11 *72:12 *912:B2 7.13656e-05
12 *72:12 *924:B 0
13 *72:12 *246:70 0.000170368
14 *72:12 *247:73 0.000195673
15 *72:12 *272:26 0
16 *72:12 *307:50 4.33438e-05
17 *926:A2 *72:12 0.000100228
*RES
1 *914:X *72:12 25.3357 
2 *72:12 *917:B1 11.4964 
3 *72:12 *916:B 9.83571 
*END

*D_NET *73 0.000713603
*CONN
*I *916:C I *D sky130_fd_sc_hd__nand3_1
*I *917:A2 I *D sky130_fd_sc_hd__a21o_1
*I *915:X O *D sky130_fd_sc_hd__a22o_1
*CAP
1 *916:C 0.000154396
2 *917:A2 0
3 *915:X 5.86017e-05
4 *73:8 0.000212998
5 *916:C *915:A1 3.99614e-06
6 *916:C *916:A 4.43256e-05
7 *916:C *917:A1 1.04232e-05
8 *916:C *251:27 7.49387e-06
9 *73:8 *915:A2 6.05161e-06
10 *73:8 *917:A1 2.53134e-05
11 *73:8 *251:27 4.81734e-05
12 *917:B1 *916:C 0.00014183
*RES
1 *915:X *73:8 10.5679 
2 *73:8 *917:A2 9.3 
3 *73:8 *916:C 12.3179 
*END

*D_NET *74 0.00175054
*CONN
*I *934:A1 I *D sky130_fd_sc_hd__a21bo_1
*I *919:A I *D sky130_fd_sc_hd__and2_1
*I *918:B I *D sky130_fd_sc_hd__nand3b_1
*I *916:Y O *D sky130_fd_sc_hd__nand3_1
*CAP
1 *934:A1 3.49967e-05
2 *919:A 7.8096e-05
3 *918:B 1.23609e-05
4 *916:Y 0.000239618
5 *74:29 0.000162232
6 *74:14 0.000301118
7 *918:B *918:C 1.11677e-05
8 *918:B *934:A2 5.83767e-05
9 *919:A *919:B 0.000125241
10 *919:A *76:21 6.98302e-05
11 *919:A *264:30 9.82841e-05
12 *934:A1 *934:A2 4.08637e-05
13 *934:A1 *179:37 9.58181e-05
14 *74:14 *916:A 7.43578e-06
15 *74:14 *918:C 2.07683e-05
16 *74:14 *934:A2 8.43708e-06
17 *74:14 *75:6 7.47136e-05
18 *74:29 *934:A2 0.000167436
19 *74:29 *179:37 0.000137983
20 *917:B1 *74:14 5.7661e-06
*RES
1 *916:Y *74:14 14.1571 
2 *74:14 *918:B 10.3089 
3 *74:14 *74:29 1.76786 
4 *74:29 *919:A 20.8536 
5 *74:29 *934:A1 10.2464 
*END

*D_NET *75 0.00143595
*CONN
*I *934:A2 I *D sky130_fd_sc_hd__a21bo_1
*I *918:C I *D sky130_fd_sc_hd__nand3b_1
*I *917:X O *D sky130_fd_sc_hd__a21o_1
*CAP
1 *934:A2 0.000144837
2 *918:C 4.73368e-05
3 *917:X 0.000196511
4 *75:6 0.000388685
5 *918:C *916:A 0
6 *934:A2 *76:8 9.0145e-05
7 *75:6 *916:A 0.000186669
8 *918:B *918:C 1.11677e-05
9 *918:B *934:A2 5.83767e-05
10 *934:A1 *934:A2 4.08637e-05
11 *74:14 *918:C 2.07683e-05
12 *74:14 *934:A2 8.43708e-06
13 *74:14 *75:6 7.47136e-05
14 *74:29 *934:A2 0.000167436
*RES
1 *917:X *75:6 13.1214 
2 *75:6 *918:C 10.6929 
3 *75:6 *934:A2 13.2643 
*END

*D_NET *76 0.00186931
*CONN
*I *968:A1 I *D sky130_fd_sc_hd__a21oi_1
*I *935:B I *D sky130_fd_sc_hd__and3_1
*I *919:B I *D sky130_fd_sc_hd__and2_1
*I *918:Y O *D sky130_fd_sc_hd__nand3b_1
*CAP
1 *968:A1 0.000104652
2 *935:B 0.000183393
3 *919:B 0.000109504
4 *918:Y 0.000147071
5 *76:21 0.000400685
6 *76:8 0.000369215
7 *919:B *264:30 9.10877e-06
8 *919:B *272:26 5.68713e-05
9 *935:B *968:B1 5.33334e-05
10 *935:B *92:12 5.41797e-06
11 *935:B *245:51 0
12 *935:B *264:24 4.46186e-06
13 *935:B *264:30 3.9718e-05
14 *968:A1 *93:18 5.49544e-05
15 *76:21 *92:12 3.38578e-05
16 *76:21 *245:51 0
17 *76:21 *264:30 1.18451e-05
18 *919:A *919:B 0.000125241
19 *919:A *76:21 6.98302e-05
20 *934:A2 *76:8 9.0145e-05
21 *934:B1_N *919:B 0
22 *934:B1_N *76:21 0
*RES
1 *918:Y *76:8 15.5679 
2 *76:8 *919:B 16.2821 
3 *76:8 *76:21 2.40179 
4 *76:21 *935:B 16.5411 
5 *76:21 *968:A1 15.1482 
*END

*D_NET *77 0.000997875
*CONN
*I *922:A I *D sky130_fd_sc_hd__or2b_1
*I *936:B I *D sky130_fd_sc_hd__xnor2_1
*I *919:X O *D sky130_fd_sc_hd__and2_1
*CAP
1 *922:A 9.7197e-05
2 *936:B 7.39315e-05
3 *919:X 0.000143847
4 *77:6 0.000314975
5 *922:A *272:26 0.000127651
6 *936:B *936:A 7.70035e-05
7 *936:B *245:51 7.83659e-05
8 *77:6 *272:26 8.49048e-05
*RES
1 *919:X *77:6 11.0679 
2 *77:6 *936:B 20.0679 
3 *77:6 *922:A 10.6571 
*END

*D_NET *78 0.000321449
*CONN
*I *921:B I *D sky130_fd_sc_hd__nor2_1
*I *920:Y O *D sky130_fd_sc_hd__a21oi_1
*CAP
1 *921:B 8.82795e-05
2 *920:Y 8.82795e-05
3 *54:10 *921:B 0.00014489
*RES
1 *920:Y *921:B 29.5464 
*END

*D_NET *79 0.00251424
*CONN
*I *936:A I *D sky130_fd_sc_hd__xnor2_1
*I *922:B_N I *D sky130_fd_sc_hd__or2b_1
*I *921:Y O *D sky130_fd_sc_hd__nor2_1
*CAP
1 *936:A 0.000204443
2 *922:B_N 7.36559e-05
3 *921:Y 0.000468798
4 *79:12 0.000746897
5 *922:B_N *272:26 8.40314e-05
6 *936:A *245:51 8.80385e-05
7 *79:12 *896:B 4.28249e-05
8 *79:12 *217:40 6.68305e-05
9 *79:12 *245:10 0.000242461
10 *79:12 *245:16 0.000144732
11 *79:12 *245:51 0.000100478
12 *79:12 *309:117 2.84109e-05
13 *79:12 *310:43 4.5001e-05
14 *79:12 *311:46 0
15 *936:B *936:A 7.70035e-05
16 *54:10 *79:12 0.000100639
17 *55:20 *79:12 0
*RES
1 *921:Y *79:12 23.6929 
2 *79:12 *922:B_N 15.175 
3 *79:12 *936:A 17.6214 
*END

*D_NET *80 0.00261343
*CONN
*I *1014:A2 I *D sky130_fd_sc_hd__o22a_1
*I *923:B I *D sky130_fd_sc_hd__xor2_1
*I *922:X O *D sky130_fd_sc_hd__or2b_1
*CAP
1 *1014:A2 0.000327663
2 *923:B 0.000140009
3 *922:X 0.000290546
4 *80:12 0.000758218
5 *923:B *1005:A1 9.84673e-05
6 *923:B *311:46 1.24368e-05
7 *1014:A2 *859:A 3.61656e-05
8 *1014:A2 *1005:A1 0.000183711
9 *1014:A2 *1005:S 1.4796e-05
10 *1014:A2 *217:81 0.000125542
11 *1014:A2 *217:98 1.00887e-05
12 *80:12 *1005:S 0.000121891
13 *80:12 *163:10 7.58841e-05
14 *80:12 *272:26 1.04766e-05
15 *923:A *923:B 7.25873e-06
16 *68:29 *1014:A2 0.000175707
17 *68:41 *80:12 0.000224575
*RES
1 *922:X *80:12 23.1393 
2 *80:12 *923:B 11.9071 
3 *80:12 *1014:A2 25.0143 
*END

*D_NET *81 0.000530267
*CONN
*I *1005:A1 I *D sky130_fd_sc_hd__mux2_1
*I *923:X O *D sky130_fd_sc_hd__xor2_1
*CAP
1 *1005:A1 6.40602e-05
2 *923:X 6.40602e-05
3 *1005:A1 *1005:S 0.000119969
4 *923:B *1005:A1 9.84673e-05
5 *1014:A2 *1005:A1 0.000183711
*RES
1 *923:X *1005:A1 21.1893 
*END

*D_NET *82 0.00302453
*CONN
*I *949:B1 I *D sky130_fd_sc_hd__a21o_1
*I *933:A1 I *D sky130_fd_sc_hd__a21bo_1
*I *938:B I *D sky130_fd_sc_hd__nand3_1
*I *924:X O *D sky130_fd_sc_hd__and2_1
*CAP
1 *949:B1 0.000120027
2 *933:A1 3.09751e-05
3 *938:B 8.12275e-05
4 *924:X 0.000467411
5 *82:10 0.000112203
6 *82:8 0.000587438
7 *933:A1 *933:A2 2.69219e-05
8 *933:A1 *96:10 5.33005e-05
9 *933:A1 *212:61 2.38501e-05
10 *938:B *933:A2 9.46152e-05
11 *938:B *933:B1_N 5.50052e-05
12 *938:B *89:15 9.58689e-05
13 *938:B *90:18 3.18652e-05
14 *938:B *96:10 2.19818e-05
15 *938:B *212:61 3.49456e-06
16 *949:B1 *950:A 6.05161e-06
17 *949:B1 *96:10 0.00019536
18 *949:B1 *132:19 0.000186217
19 *82:8 *982:A2 5.59687e-05
20 *82:8 *982:B1 0.000166063
21 *82:8 *96:10 3.14003e-05
22 *82:8 *132:19 0.00012342
23 *82:8 *272:26 0.00021314
24 *82:8 *307:42 0.000137172
25 *82:8 *307:50 0.000103557
*RES
1 *924:X *82:8 25.1571 
2 *82:8 *82:10 4.5 
3 *82:10 *938:B 11.8 
4 *82:10 *933:A1 10.2464 
5 *82:8 *949:B1 16.8893 
*END

*D_NET *83 0.00222943
*CONN
*I *932:B I *D sky130_fd_sc_hd__nand3_1
*I *931:A1 I *D sky130_fd_sc_hd__a21o_1
*I *925:Y O *D sky130_fd_sc_hd__nand3_1
*CAP
1 *932:B 0
2 *931:A1 0.000114013
3 *925:Y 0.000291376
4 *83:20 0.000405389
5 *931:A1 *931:A2 5.49995e-05
6 *931:A1 *931:B1 5.49995e-05
7 *931:A1 *932:A 0.000175905
8 *931:A1 *309:43 0.00021298
9 *83:20 *931:A2 1.30833e-05
10 *83:20 *974:D 0.0001802
11 *83:20 *193:20 0.000182811
12 *83:20 *213:30 4.19497e-05
13 *83:20 *247:86 9.92439e-06
14 *83:20 *247:94 0.000177407
15 *83:20 *247:111 0.000172039
16 *83:20 *249:91 0.000100986
17 *83:20 *293:44 1.00887e-05
18 *925:C *83:20 3.12781e-05
*RES
1 *925:Y *83:20 26.0857 
2 *83:20 *931:A1 21.6929 
3 *83:20 *932:B 9.3 
*END

*D_NET *84 0.00214806
*CONN
*I *931:A2 I *D sky130_fd_sc_hd__a21o_1
*I *932:C I *D sky130_fd_sc_hd__nand3_1
*I *926:X O *D sky130_fd_sc_hd__a21o_1
*CAP
1 *931:A2 0.000213811
2 *932:C 0
3 *926:X 0.000266055
4 *84:12 0.000479867
5 *931:A2 *931:B1 2.33784e-05
6 *931:A2 *212:61 0.000178503
7 *931:A2 *213:30 2.00682e-05
8 *931:A2 *247:94 5.54817e-06
9 *931:A2 *309:43 0.000200177
10 *84:12 *912:B2 6.14702e-06
11 *84:12 *247:94 5.65862e-05
12 *84:12 *309:43 0.000321905
13 *84:12 *309:49 0.000145923
14 *925:C *84:12 0.000110078
15 *926:A2 *84:12 0
16 *926:B1 *84:12 5.19293e-05
17 *931:A1 *931:A2 5.49995e-05
18 *83:20 *931:A2 1.30833e-05
*RES
1 *926:X *84:12 20.6571 
2 *84:12 *932:C 13.8 
3 *84:12 *931:A2 18.8536 
*END

*D_NET *85 0.0013369
*CONN
*I *930:A1 I *D sky130_fd_sc_hd__a21bo_1
*I *940:B I *D sky130_fd_sc_hd__nand3_1
*I *941:B1 I *D sky130_fd_sc_hd__a21o_1
*I *927:X O *D sky130_fd_sc_hd__and2_1
*CAP
1 *930:A1 9.73823e-05
2 *940:B 7.14278e-05
3 *941:B1 0
4 *927:X 5.63773e-05
5 *85:15 0.000216458
6 *85:6 0.000104026
7 *930:A1 *1118:A 0.000117369
8 *930:A1 *86:26 0.000129868
9 *930:A1 *265:68 2.58997e-05
10 *930:A1 *265:85 1.69115e-05
11 *940:B *940:C 5.33005e-05
12 *940:B *941:A1 0.000182419
13 *940:B *86:26 4.43256e-05
14 *940:B *87:23 5.49489e-05
15 *940:B *98:14 8.43535e-06
16 *85:6 *927:A 9.60939e-05
17 *85:6 *86:26 1.33343e-05
18 *85:6 *99:12 2.89016e-05
19 *85:15 *86:26 1.94202e-05
*RES
1 *927:X *85:6 10.6571 
2 *85:6 *941:B1 9.3 
3 *85:6 *85:15 0.964286 
4 *85:15 *940:B 11.4786 
5 *85:15 *930:A1 21.1571 
*END

*D_NET *86 0.0011871
*CONN
*I *930:A2 I *D sky130_fd_sc_hd__a21bo_1
*I *941:A2 I *D sky130_fd_sc_hd__a21o_1
*I *940:C I *D sky130_fd_sc_hd__nand3_1
*I *928:X O *D sky130_fd_sc_hd__a22o_1
*CAP
1 *930:A2 0
2 *941:A2 0
3 *940:C 2.17922e-05
4 *928:X 0.000141425
5 *86:26 0.000183413
6 *86:14 0.000303046
7 *940:C *98:14 6.05161e-06
8 *86:14 *932:A 2.04825e-05
9 *86:14 *88:8 2.94055e-05
10 *86:14 *212:61 1.29975e-05
11 *86:14 *265:68 7.83659e-05
12 *86:26 *265:68 0.000129868
13 *930:A1 *86:26 0.000129868
14 *940:B *940:C 5.33005e-05
15 *940:B *86:26 4.43256e-05
16 *85:6 *86:26 1.33343e-05
17 *85:15 *86:26 1.94202e-05
*RES
1 *928:X *86:14 20.9071 
2 *86:14 *86:26 13.1607 
3 *86:26 *940:C 9.83571 
4 *86:26 *941:A2 9.3 
5 *86:14 *930:A2 9.3 
*END

*D_NET *87 0.00218344
*CONN
*I *941:A1 I *D sky130_fd_sc_hd__a21o_1
*I *940:A I *D sky130_fd_sc_hd__nand3_1
*I *930:B1_N I *D sky130_fd_sc_hd__a21bo_1
*I *929:Y O *D sky130_fd_sc_hd__nand4_1
*CAP
1 *941:A1 0.000194593
2 *940:A 0
3 *930:B1_N 0
4 *929:Y 0.000308855
5 *87:23 0.000358677
6 *87:10 0.00047294
7 *87:10 *928:A1 0.000146398
8 *87:10 *974:D 0.00018265
9 *87:10 *1118:A 6.0064e-05
10 *87:10 *212:14 0
11 *87:10 *246:103 3.97863e-05
12 *87:23 *1118:A 0.000119441
13 *87:23 *98:14 6.26673e-05
14 *87:23 *212:14 0
15 *940:B *941:A1 0.000182419
16 *940:B *87:23 5.49489e-05
*RES
1 *929:Y *87:10 19.0321 
2 *87:10 *930:B1_N 13.8 
3 *87:10 *87:23 8.91071 
4 *87:23 *940:A 9.3 
5 *87:23 *941:A1 12.2107 
*END

*D_NET *88 0.00112831
*CONN
*I *931:B1 I *D sky130_fd_sc_hd__a21o_1
*I *932:A I *D sky130_fd_sc_hd__nand3_1
*I *930:X O *D sky130_fd_sc_hd__a21bo_1
*CAP
1 *931:B1 9.86915e-05
2 *932:A 0.000198066
3 *930:X 2.88607e-05
4 *88:8 0.000325618
5 *931:B1 *89:15 0
6 *931:B1 *309:43 1.21859e-05
7 *932:A *246:97 4.27842e-06
8 *932:A *265:68 0.000107404
9 *932:A *265:85 0
10 *932:A *309:43 1.44986e-05
11 *88:8 *309:43 3.454e-05
12 *931:A1 *931:B1 5.49995e-05
13 *931:A1 *932:A 0.000175905
14 *931:A2 *931:B1 2.33784e-05
15 *86:14 *932:A 2.04825e-05
16 *86:14 *88:8 2.94055e-05
*RES
1 *930:X *88:8 14.6839 
2 *88:8 *932:A 18.6125 
3 *88:8 *931:B1 15.8804 
*END

*D_NET *89 0.00144183
*CONN
*I *933:A2 I *D sky130_fd_sc_hd__a21bo_1
*I *949:A2 I *D sky130_fd_sc_hd__a21o_1
*I *938:C I *D sky130_fd_sc_hd__nand3_1
*I *931:X O *D sky130_fd_sc_hd__a21o_1
*CAP
1 *933:A2 0.000206552
2 *949:A2 7.02697e-05
3 *938:C 0
4 *931:X 4.20165e-05
5 *89:15 0.00043632
6 *89:6 0.000201515
7 *933:A2 *212:61 7.94364e-06
8 *949:A2 *949:A1 8.3071e-06
9 *949:A2 *132:19 9.91086e-05
10 *949:A2 *307:42 0.000100831
11 *89:6 *212:61 3.73361e-05
12 *89:15 *212:61 1.42299e-05
13 *931:B1 *89:15 0
14 *933:A1 *933:A2 2.69219e-05
15 *938:B *933:A2 9.46152e-05
16 *938:B *89:15 9.58689e-05
*RES
1 *931:X *89:6 10.2464 
2 *89:6 *938:C 9.3 
3 *89:6 *89:15 2.19643 
4 *89:15 *949:A2 20.108 
5 *89:15 *933:A2 12.2107 
*END

*D_NET *90 0.00181431
*CONN
*I *949:A1 I *D sky130_fd_sc_hd__a21o_1
*I *933:B1_N I *D sky130_fd_sc_hd__a21bo_1
*I *938:A I *D sky130_fd_sc_hd__nand3_1
*I *932:Y O *D sky130_fd_sc_hd__nand3_1
*CAP
1 *949:A1 0.000250688
2 *933:B1_N 1.24279e-05
3 *938:A 0
4 *932:Y 0.000252389
5 *90:18 6.3745e-05
6 *90:10 0.000554394
7 *933:B1_N *96:10 2.24804e-05
8 *949:A1 *307:42 0.000169329
9 *949:A1 *309:43 0
10 *90:10 *974:D 0.000211147
11 *90:10 *213:30 4.20726e-05
12 *90:10 *307:42 9.79125e-05
13 *90:18 *96:10 1.24368e-05
14 *90:18 *212:61 3.0114e-05
15 *938:B *933:B1_N 5.50052e-05
16 *938:B *90:18 3.18652e-05
17 *949:A2 *949:A1 8.3071e-06
*RES
1 *932:Y *90:10 17.7286 
2 *90:10 *90:18 5.89286 
3 *90:18 *938:A 9.3 
4 *90:18 *933:B1_N 9.83571 
5 *90:10 *949:A1 17.4071 
*END

*D_NET *91 0.00262396
*CONN
*I *968:B1 I *D sky130_fd_sc_hd__a21oi_1
*I *935:A I *D sky130_fd_sc_hd__and3_1
*I *933:X O *D sky130_fd_sc_hd__a21bo_1
*CAP
1 *968:B1 0.000181453
2 *935:A 0
3 *933:X 0.000438704
4 *91:12 0.000620157
5 *968:B1 *924:A 6.09899e-05
6 *968:B1 *924:B 0
7 *968:B1 *968:A2 0.000127314
8 *968:B1 *969:B 3.3682e-05
9 *968:B1 *92:12 5.7993e-06
10 *968:B1 *93:18 0.000122027
11 *91:12 *924:A 1.39841e-05
12 *91:12 *1038:A1 0.000118095
13 *91:12 *1038:B2 0.000167586
14 *91:12 *264:24 0.000191321
15 *91:12 *264:30 5.66647e-05
16 *91:12 *272:14 7.53331e-05
17 *91:12 *272:26 0.000357514
18 *935:B *968:B1 5.33334e-05
*RES
1 *933:X *91:12 30.8 
2 *91:12 *935:A 9.3 
3 *91:12 *968:B1 14.425 
*END

*D_NET *92 0.000596242
*CONN
*I *968:A2 I *D sky130_fd_sc_hd__a21oi_1
*I *935:C I *D sky130_fd_sc_hd__and3_1
*I *934:X O *D sky130_fd_sc_hd__a21bo_1
*CAP
1 *968:A2 7.6702e-05
2 *935:C 0
3 *934:X 4.98387e-05
4 *92:12 0.000126541
5 *968:A2 *93:18 9.0691e-05
6 *92:12 *264:30 8.00806e-05
7 *935:B *92:12 5.41797e-06
8 *968:B1 *968:A2 0.000127314
9 *968:B1 *92:12 5.7993e-06
10 *76:21 *92:12 3.38578e-05
*RES
1 *934:X *92:12 19.5321 
2 *92:12 *935:C 9.3 
3 *92:12 *968:A2 11.4429 
*END

*D_NET *93 0.00176791
*CONN
*I *937:A I *D sky130_fd_sc_hd__or2_1
*I *1003:A I *D sky130_fd_sc_hd__and2_1
*I *969:A I *D sky130_fd_sc_hd__nor2_1
*I *935:X O *D sky130_fd_sc_hd__and3_1
*CAP
1 *937:A 0
2 *1003:A 0.000164927
3 *969:A 0
4 *935:X 0.000202734
5 *93:25 0.000262208
6 *93:18 0.000300016
7 *1003:A *1003:B 5.52302e-05
8 *1003:A *162:10 6.41079e-05
9 *93:18 *969:B 2.4813e-05
10 *93:18 *127:10 1.57414e-05
11 *93:18 *214:80 1.24368e-05
12 *93:25 *937:B 9.90431e-05
13 *93:25 *127:10 0.000147823
14 *93:25 *214:80 0.000151156
15 *968:A1 *93:18 5.49544e-05
16 *968:A2 *93:18 9.0691e-05
17 *968:B1 *93:18 0.000122027
*RES
1 *935:X *93:18 14.2643 
2 *93:18 *969:A 9.3 
3 *93:18 *93:25 3.82143 
4 *93:25 *1003:A 21.3893 
5 *93:25 *937:A 9.3 
*END

*D_NET *94 0.00107267
*CONN
*I *937:B I *D sky130_fd_sc_hd__or2_1
*I *1003:B I *D sky130_fd_sc_hd__and2_1
*I *936:Y O *D sky130_fd_sc_hd__xnor2_1
*CAP
1 *937:B 0.000103226
2 *1003:B 0.000149828
3 *936:Y 0
4 *94:6 0.000253054
5 *937:B *214:80 9.90431e-05
6 *937:B *245:51 0
7 *1003:B *179:37 0.000313241
8 *1003:B *245:51 0
9 *1003:A *1003:B 5.52302e-05
10 *93:25 *937:B 9.90431e-05
*RES
1 *936:Y *94:6 13.8 
2 *94:6 *1003:B 17.5321 
3 *94:6 *937:B 16.0857 
*END

*D_NET *95 0.00100898
*CONN
*I *1004:A1 I *D sky130_fd_sc_hd__a21oi_1
*I *1016:B_N I *D sky130_fd_sc_hd__or2b_1
*I *937:X O *D sky130_fd_sc_hd__or2_1
*CAP
1 *1004:A1 0.000242925
2 *1016:B_N 3.82418e-05
3 *937:X 3.35578e-05
4 *95:6 0.000314724
5 *1004:A1 *1004:B1 4.71964e-05
6 *1004:A1 *1016:A 5.33005e-05
7 *1004:A1 *1017:A 0.000177373
8 *1004:A1 *161:10 9.69119e-06
9 *1004:A1 *213:74 6.8646e-06
10 *1004:A1 *214:80 7.10722e-05
11 *95:6 *214:80 1.40306e-05
*RES
1 *937:X *95:6 9.83571 
2 *95:6 *1016:B_N 10.0321 
3 *95:6 *1004:A1 23.55 
*END

*D_NET *96 0.00244526
*CONN
*I *951:A1 I *D sky130_fd_sc_hd__a21oi_1
*I *950:A I *D sky130_fd_sc_hd__and3_2
*I *938:Y O *D sky130_fd_sc_hd__nand3_1
*CAP
1 *951:A1 9.03027e-05
2 *950:A 0.000287668
3 *938:Y 0.000187238
4 *96:10 0.000565209
5 *950:A *950:B 0.000103974
6 *950:A *950:C 9.71197e-05
7 *950:A *106:8 9.25014e-06
8 *950:A *109:6 3.32631e-05
9 *950:A *264:24 0.000100969
10 *950:A *272:14 4.75908e-05
11 *951:A1 *951:A2 7.49997e-05
12 *951:A1 *107:10 8.39e-05
13 *951:A1 *132:19 5.72222e-05
14 *951:A1 *307:30 3.94882e-05
15 *96:10 *107:10 5.80706e-06
16 *96:10 *132:19 4.23086e-05
17 *96:10 *212:61 0.000180207
18 *96:10 *272:14 9.57263e-05
19 *933:A1 *96:10 5.33005e-05
20 *933:B1_N *96:10 2.24804e-05
21 *938:B *96:10 2.19818e-05
22 *949:B1 *950:A 6.05161e-06
23 *949:B1 *96:10 0.00019536
24 *82:8 *96:10 3.14003e-05
25 *90:18 *96:10 1.24368e-05
*RES
1 *938:Y *96:10 19.3357 
2 *96:10 *950:A 28.9071 
3 *96:10 *951:A1 16.7107 
*END

*D_NET *97 0.00209328
*CONN
*I *948:A1 I *D sky130_fd_sc_hd__a21bo_1
*I *952:B I *D sky130_fd_sc_hd__nand3_1
*I *963:B1 I *D sky130_fd_sc_hd__a21o_1
*I *939:X O *D sky130_fd_sc_hd__and2_1
*CAP
1 *948:A1 0
2 *952:B 0.000213422
3 *963:B1 2.42058e-05
4 *939:X 8.75156e-05
5 *97:19 0.000293886
6 *97:6 0.000192186
7 *952:B *948:A2 0.000164481
8 *952:B *952:A 0.000150625
9 *952:B *963:A1 4.35306e-05
10 *952:B *963:A2 2.57804e-05
11 *952:B *104:8 9.60939e-05
12 *952:B *105:6 1.92789e-05
13 *952:B *105:23 1.92905e-05
14 *952:B *132:19 1.02313e-05
15 *952:B *309:43 0
16 *963:B1 *963:A1 1.33343e-05
17 *963:B1 *110:10 3.49086e-05
18 *97:6 *939:B 0.000175892
19 *97:6 *964:A 4.08637e-05
20 *97:6 *110:10 0.000219366
21 *97:19 *939:B 1.72894e-05
22 *97:19 *963:A1 0.000150625
23 *97:19 *272:14 7.81431e-05
24 *97:19 *307:30 2.23279e-05
*RES
1 *939:X *97:6 11.8893 
2 *97:6 *963:B1 9.83571 
3 *97:6 *97:19 11.5536 
4 *97:19 *952:B 23.7464 
5 *97:19 *948:A1 9.3 
*END

*D_NET *98 0.00156237
*CONN
*I *947:A I *D sky130_fd_sc_hd__nand3_1
*I *946:A1 I *D sky130_fd_sc_hd__a21o_1
*I *940:Y O *D sky130_fd_sc_hd__nand3_1
*CAP
1 *947:A 0.000267042
2 *946:A1 0
3 *940:Y 0.000203667
4 *98:14 0.00047071
5 *947:A *946:A2 0.00014285
6 *947:A *947:B 5.02242e-05
7 *947:A *947:C 8.36572e-05
8 *947:A *103:14 0
9 *947:A *104:8 1.74352e-05
10 *947:A *105:6 1.33343e-05
11 *98:14 *946:A2 5.52302e-05
12 *98:14 *1118:A 0.000168939
13 *98:14 *103:14 1.21258e-05
14 *98:14 *212:14 0
15 *940:B *98:14 8.43535e-06
16 *940:C *98:14 6.05161e-06
17 *87:23 *98:14 6.26673e-05
*RES
1 *940:Y *98:14 22.0321 
2 *98:14 *946:A1 9.3 
3 *98:14 *947:A 13.6929 
*END

*D_NET *99 0.00101841
*CONN
*I *947:C I *D sky130_fd_sc_hd__nand3_1
*I *946:A2 I *D sky130_fd_sc_hd__a21o_1
*I *941:X O *D sky130_fd_sc_hd__a21o_1
*CAP
1 *947:C 2.26257e-05
2 *946:A2 5.69774e-05
3 *941:X 0.000111902
4 *99:12 0.000191505
5 *946:A2 *947:B 5.52238e-05
6 *946:A2 *103:14 7.43355e-05
7 *947:C *947:B 9.60939e-05
8 *99:12 *265:85 9.91086e-05
9 *947:A *946:A2 0.00014285
10 *947:A *947:C 8.36572e-05
11 *85:6 *99:12 2.89016e-05
12 *98:14 *946:A2 5.52302e-05
*RES
1 *941:X *99:12 20.175 
2 *99:12 *946:A2 11.4964 
3 *99:12 *947:C 10.2464 
*END

*D_NET *100 0.00170393
*CONN
*I *955:B1 I *D sky130_fd_sc_hd__a21o_1
*I *945:A1 I *D sky130_fd_sc_hd__a21bo_1
*I *954:B I *D sky130_fd_sc_hd__nand3_1
*I *942:X O *D sky130_fd_sc_hd__and2_1
*CAP
1 *955:B1 0.000132921
2 *945:A1 0.000115371
3 *954:B 5.26182e-05
4 *942:X 0
5 *100:13 0.000266757
6 *100:4 7.10829e-05
7 *945:A1 *954:C 9.41642e-05
8 *945:A1 *101:29 4.08637e-05
9 *945:A1 *115:18 6.57032e-05
10 *945:A1 *212:12 0.00014261
11 *945:A1 *296:59 0.000143373
12 *954:B *955:A1 5.33005e-05
13 *954:B *112:14 8.25843e-06
14 *954:B *296:59 6.05161e-06
15 *955:B1 *942:A 9.10737e-05
16 *955:B1 *955:A1 0.000253865
17 *955:B1 *955:A2 5.49489e-05
18 *955:B1 *296:49 1.82328e-05
19 *955:B1 *296:59 2.59355e-05
20 *100:13 *955:A1 4.08637e-05
21 *100:13 *296:59 2.59355e-05
*RES
1 *942:X *100:4 9.3 
2 *100:4 *954:B 10.2464 
3 *100:4 *100:13 0.535714 
4 *100:13 *945:A1 21.6036 
5 *100:13 *955:B1 13.1393 
*END

*D_NET *101 0.00232439
*CONN
*I *955:A2 I *D sky130_fd_sc_hd__a21o_1
*I *945:A2 I *D sky130_fd_sc_hd__a21bo_1
*I *954:C I *D sky130_fd_sc_hd__nand3_1
*I *943:X O *D sky130_fd_sc_hd__a22o_1
*CAP
1 *955:A2 0.000163148
2 *945:A2 2.22847e-05
3 *954:C 0.000224599
4 *943:X 0.000138058
5 *101:29 0.000224431
6 *101:12 0.000401655
7 *954:C *954:A 1.69252e-05
8 *954:C *102:20 0.000122591
9 *954:C *102:26 7.84458e-05
10 *954:C *115:18 7.45527e-05
11 *955:A2 *942:A 5.49489e-05
12 *955:A2 *1118:A 6.96346e-05
13 *955:A2 *102:20 7.35234e-06
14 *955:A2 *115:18 3.28548e-05
15 *101:12 *102:20 0.000168197
16 *101:12 *116:10 9.58181e-05
17 *101:12 *212:12 0.000170995
18 *101:29 *102:20 5.33005e-05
19 *101:29 *115:18 1.46231e-05
20 *945:A1 *954:C 9.41642e-05
21 *945:A1 *101:29 4.08637e-05
22 *955:B1 *955:A2 5.49489e-05
*RES
1 *943:X *101:12 21.4964 
2 *101:12 *954:C 23.3714 
3 *101:12 *101:29 0.946429 
4 *101:29 *945:A2 9.72857 
5 *101:29 *955:A2 21.7286 
*END

*D_NET *102 0.00397917
*CONN
*I *945:B1_N I *D sky130_fd_sc_hd__a21bo_1
*I *954:A I *D sky130_fd_sc_hd__nand3_1
*I *955:A1 I *D sky130_fd_sc_hd__a21o_1
*I *944:Y O *D sky130_fd_sc_hd__nand4_2
*CAP
1 *945:B1_N 0
2 *954:A 1.86351e-05
3 *955:A1 0.000264579
4 *944:Y 0.000691402
5 *102:26 0.000364604
6 *102:20 0.000772792
7 *954:A *296:59 5.48781e-05
8 *102:20 *848:A 0
9 *102:20 *943:A2 9.41642e-05
10 *102:20 *103:14 3.58558e-05
11 *102:20 *115:18 0
12 *102:20 *116:10 0.000178425
13 *102:20 *212:12 3.20623e-05
14 *102:20 *267:91 0
15 *102:20 *296:59 0.000518309
16 *102:20 *296:71 8.31322e-05
17 *102:26 *296:59 7.54868e-05
18 *954:B *955:A1 5.33005e-05
19 *954:C *954:A 1.69252e-05
20 *954:C *102:20 0.000122591
21 *954:C *102:26 7.84458e-05
22 *955:A2 *102:20 7.35234e-06
23 *955:B1 *955:A1 0.000253865
24 *100:13 *955:A1 4.08637e-05
25 *101:12 *102:20 0.000168197
26 *101:29 *102:20 5.33005e-05
*RES
1 *944:Y *102:20 41.7107 
2 *102:20 *102:26 6.07143 
3 *102:26 *955:A1 17.2107 
4 *102:26 *954:A 14.5321 
5 *102:20 *945:B1_N 9.3 
*END

*D_NET *103 0.00112283
*CONN
*I *947:B I *D sky130_fd_sc_hd__nand3_1
*I *946:B1 I *D sky130_fd_sc_hd__a21o_1
*I *945:X O *D sky130_fd_sc_hd__a21bo_1
*CAP
1 *947:B 7.30485e-05
2 *946:B1 0
3 *945:X 0.000143934
4 *103:14 0.000216983
5 *947:B *104:8 7.3237e-05
6 *103:14 *1118:A 6.42338e-05
7 *103:14 *116:10 0.000227539
8 *946:A2 *947:B 5.52238e-05
9 *946:A2 *103:14 7.43355e-05
10 *947:A *947:B 5.02242e-05
11 *947:A *103:14 0
12 *947:C *947:B 9.60939e-05
13 *98:14 *103:14 1.21258e-05
14 *102:20 *103:14 3.58558e-05
*RES
1 *945:X *103:14 22.55 
2 *103:14 *946:B1 9.3 
3 *103:14 *947:B 11.4786 
*END

*D_NET *104 0.00238308
*CONN
*I *952:C I *D sky130_fd_sc_hd__nand3_1
*I *948:A2 I *D sky130_fd_sc_hd__a21bo_1
*I *963:A2 I *D sky130_fd_sc_hd__a21o_1
*I *946:X O *D sky130_fd_sc_hd__a21o_1
*CAP
1 *952:C 0.000216809
2 *948:A2 0.000162502
3 *963:A2 6.66166e-05
4 *946:X 0
5 *104:8 0.000481024
6 *104:4 0.000468714
7 *948:A2 *990:A2 2.34059e-05
8 *952:C *265:85 0.000154485
9 *952:C *309:43 8.12795e-05
10 *963:A2 *952:A 0.000128161
11 *963:A2 *132:19 0.000174068
12 *104:8 *105:6 4.89867e-05
13 *947:A *104:8 1.74352e-05
14 *947:B *104:8 7.3237e-05
15 *952:B *948:A2 0.000164481
16 *952:B *963:A2 2.57804e-05
17 *952:B *104:8 9.60939e-05
*RES
1 *946:X *104:4 9.3 
2 *104:4 *104:8 4.66071 
3 *104:8 *963:A2 20.5054 
4 *104:8 *948:A2 12.2107 
5 *104:4 *952:C 22.8357 
*END

*D_NET *105 0.00208411
*CONN
*I *963:A1 I *D sky130_fd_sc_hd__a21o_1
*I *948:B1_N I *D sky130_fd_sc_hd__a21bo_1
*I *952:A I *D sky130_fd_sc_hd__nand3_1
*I *947:Y O *D sky130_fd_sc_hd__nand3_1
*CAP
1 *963:A1 0.000259876
2 *948:B1_N 0
3 *952:A 0.00012566
4 *947:Y 0.000157493
5 *105:23 0.000293952
6 *105:6 0.000317229
7 *952:A *110:10 6.78807e-06
8 *952:A *132:19 4.98872e-05
9 *952:A *309:43 0
10 *963:A1 *110:10 3.62291e-05
11 *963:A1 *272:14 2.6949e-05
12 *963:A1 *307:30 0.000222885
13 *947:A *105:6 1.33343e-05
14 *952:B *952:A 0.000150625
15 *952:B *963:A1 4.35306e-05
16 *952:B *105:6 1.92789e-05
17 *952:B *105:23 1.92905e-05
18 *963:A2 *952:A 0.000128161
19 *963:B1 *963:A1 1.33343e-05
20 *97:19 *963:A1 0.000150625
21 *104:8 *105:6 4.89867e-05
*RES
1 *947:Y *105:6 11.4786 
2 *105:6 *952:A 21.9786 
3 *105:6 *105:23 0.535714 
4 *105:23 *948:B1_N 9.3 
5 *105:23 *963:A1 24.4429 
*END

*D_NET *106 0.00131082
*CONN
*I *951:B1 I *D sky130_fd_sc_hd__a21oi_1
*I *950:B I *D sky130_fd_sc_hd__and3_2
*I *948:X O *D sky130_fd_sc_hd__a21bo_1
*CAP
1 *951:B1 5.00915e-05
2 *950:B 0.000186504
3 *948:X 4.61768e-05
4 *106:8 0.000282772
5 *950:B *109:6 0.00022459
6 *950:B *272:14 0.000105689
7 *951:B1 *950:C 8.17274e-05
8 *951:B1 *951:A2 5.52238e-05
9 *951:B1 *109:6 4.35306e-05
10 *106:8 *264:24 2.97074e-05
11 *106:8 *272:14 9.15804e-05
12 *950:A *950:B 0.000103974
13 *950:A *106:8 9.25014e-06
*RES
1 *948:X *106:8 15.1393 
2 *106:8 *950:B 17.3179 
3 *106:8 *951:B1 15.1571 
*END

*D_NET *107 0.00160642
*CONN
*I *950:C I *D sky130_fd_sc_hd__and3_2
*I *951:A2 I *D sky130_fd_sc_hd__a21oi_1
*I *949:X O *D sky130_fd_sc_hd__a21o_1
*CAP
1 *950:C 0.000231368
2 *951:A2 0.000171052
3 *949:X 6.85383e-05
4 *107:10 0.000470958
5 *950:C *109:6 3.05283e-05
6 *951:A2 *927:B 1.04232e-05
7 *951:A2 *307:30 1.21258e-05
8 *107:10 *272:14 0.000197984
9 *107:10 *307:30 1.46624e-05
10 *950:A *950:C 9.71197e-05
11 *951:A1 *951:A2 7.49997e-05
12 *951:A1 *107:10 8.39e-05
13 *951:B1 *950:C 8.17274e-05
14 *951:B1 *951:A2 5.52238e-05
15 *96:10 *107:10 5.80706e-06
*RES
1 *949:X *107:10 20.8536 
2 *107:10 *951:A2 11.8 
3 *107:10 *950:C 12.3 
*END

*D_NET *108 0.00191377
*CONN
*I *966:A1 I *D sky130_fd_sc_hd__o21ba_1
*I *970:A I *D sky130_fd_sc_hd__xor2_2
*I *965:A I *D sky130_fd_sc_hd__nor3b_1
*I *1000:A1 I *D sky130_fd_sc_hd__o21a_1
*I *950:X O *D sky130_fd_sc_hd__and3_2
*CAP
1 *966:A1 0
2 *970:A 6.38478e-05
3 *965:A 0.000196658
4 *1000:A1 0.000121185
5 *950:X 2.00552e-05
6 *108:25 0.000384883
7 *108:10 0.000306515
8 *108:6 8.10079e-05
9 *965:A *965:C_N 5.65955e-05
10 *965:A *967:A 0.000185118
11 *965:A *123:12 0
12 *965:A *245:138 5.66695e-05
13 *970:A *124:6 5.06983e-05
14 *1000:A1 *123:12 0.00010326
15 *1000:A1 *245:138 0
16 *1000:A1 *264:24 0
17 *108:6 *966:A2 5.65955e-05
18 *108:10 *966:A2 9.90532e-05
19 *108:25 *966:A2 1.33343e-05
20 *108:25 *966:B1_N 9.99853e-05
21 *108:25 *124:6 1.83053e-05
*RES
1 *950:X *108:6 9.83571 
2 *108:6 *108:10 1.375 
3 *108:10 *1000:A1 20.675 
4 *108:10 *108:25 2.58929 
5 *108:25 *965:A 22.6214 
6 *108:25 *970:A 10.6571 
7 *108:6 *966:A1 9.3 
*END

*D_NET *109 0.00220026
*CONN
*I *966:A2 I *D sky130_fd_sc_hd__o21ba_1
*I *965:B I *D sky130_fd_sc_hd__nor3b_1
*I *951:Y O *D sky130_fd_sc_hd__a21oi_1
*CAP
1 *966:A2 0.000149728
2 *965:B 0.000287645
3 *951:Y 0.000206313
4 *109:6 0.000643687
5 *965:B *965:C_N 2.286e-05
6 *965:B *967:A 7.22199e-05
7 *965:B *990:B1 0.00014827
8 *965:B *991:B 9.61354e-05
9 *965:B *123:12 5.27391e-05
10 *965:B *264:24 0
11 *966:A2 *966:B1_N 1.97695e-05
12 *950:A *109:6 3.32631e-05
13 *950:B *109:6 0.00022459
14 *950:C *109:6 3.05283e-05
15 *951:B1 *109:6 4.35306e-05
16 *108:6 *966:A2 5.65955e-05
17 *108:10 *966:A2 9.90532e-05
18 *108:25 *966:A2 1.33343e-05
*RES
1 *951:Y *109:6 13.5321 
2 *109:6 *965:B 24.1929 
3 *109:6 *966:A2 12.6571 
*END

*D_NET *110 0.00216948
*CONN
*I *964:A I *D sky130_fd_sc_hd__and3_1
*I *990:A1 I *D sky130_fd_sc_hd__a21oi_1
*I *952:Y O *D sky130_fd_sc_hd__nand3_1
*CAP
1 *964:A 5.22811e-05
2 *990:A1 9.29772e-05
3 *952:Y 0.000278947
4 *110:10 0.000424205
5 *964:A *939:B 4.72917e-05
6 *964:A *964:C 0.000269534
7 *964:A *264:14 3.08664e-05
8 *964:A *264:20 2.75452e-05
9 *990:A1 *953:A 6.77355e-05
10 *990:A1 *990:A2 0.000259073
11 *990:A1 *264:24 0.000104974
12 *110:10 *964:C 4.08637e-05
13 *110:10 *121:6 0.000135028
14 *952:A *110:10 6.78807e-06
15 *963:A1 *110:10 3.62291e-05
16 *963:B1 *110:10 3.49086e-05
17 *97:6 *964:A 4.08637e-05
18 *97:6 *110:10 0.000219366
*RES
1 *952:Y *110:10 14.0857 
2 *110:10 *990:A1 21.5857 
3 *110:10 *964:A 11.8893 
*END

*D_NET *111 0.00178554
*CONN
*I *962:A1 I *D sky130_fd_sc_hd__a21bo_1
*I *971:B I *D sky130_fd_sc_hd__nand3_1
*I *978:B1 I *D sky130_fd_sc_hd__a21o_1
*I *953:X O *D sky130_fd_sc_hd__and2_1
*CAP
1 *962:A1 4.10532e-05
2 *971:B 0.000106752
3 *978:B1 0
4 *953:X 6.0285e-05
5 *111:17 0.000226474
6 *111:10 0.000138954
7 *962:A1 *962:A2 9.58181e-05
8 *962:A1 *285:20 0.000136682
9 *971:B *962:A2 1.90936e-05
10 *971:B *971:A 1.87331e-05
11 *971:B *971:C 0.000100597
12 *971:B *134:8 2.85321e-05
13 *971:B *307:14 0.00011969
14 *111:10 *272:14 0.000144987
15 *111:10 *309:14 0.000142808
16 *111:17 *962:B1_N 5.33005e-05
17 *111:17 *119:19 0.000135028
18 *111:17 *285:20 0.000216755
*RES
1 *953:X *111:10 20.2464 
2 *111:10 *978:B1 9.3 
3 *111:10 *111:17 2.17857 
4 *111:17 *971:B 20.9071 
5 *111:17 *962:A1 10.6571 
*END

*D_NET *112 0.000943486
*CONN
*I *961:A I *D sky130_fd_sc_hd__nand3_1
*I *960:A1 I *D sky130_fd_sc_hd__a21o_1
*I *954:Y O *D sky130_fd_sc_hd__nand3_1
*CAP
1 *961:A 5.85548e-06
2 *960:A1 0.000189382
3 *954:Y 0.000157735
4 *112:14 0.000352972
5 *960:A1 *961:B 0.000186894
6 *112:14 *212:12 3.6337e-05
7 *112:14 *296:59 6.05161e-06
8 *954:B *112:14 8.25843e-06
*RES
1 *954:Y *112:14 20.9071 
2 *112:14 *960:A1 12.2107 
3 *112:14 *961:A 9.43393 
*END

*D_NET *113 0.00117369
*CONN
*I *960:A2 I *D sky130_fd_sc_hd__a21o_1
*I *961:C I *D sky130_fd_sc_hd__nand3_1
*I *955:X O *D sky130_fd_sc_hd__a21o_1
*CAP
1 *960:A2 0
2 *961:C 8.21744e-06
3 *955:X 0.000156704
4 *113:14 0.000164921
5 *961:C *961:B 5.65955e-05
6 *961:C *119:8 2.36643e-05
7 *113:14 *961:B 6.72721e-05
8 *113:14 *115:18 0.00011968
9 *113:14 *116:10 0.00011968
10 *113:14 *117:12 5.49995e-05
11 *113:14 *118:12 9.41642e-05
12 *113:14 *119:8 0.000307788
*RES
1 *955:X *113:14 23.3714 
2 *113:14 *961:C 9.83571 
3 *113:14 *960:A2 9.3 
*END

*D_NET *114 0.00133209
*CONN
*I *972:B I *D sky130_fd_sc_hd__nand3_1
*I *973:B1 I *D sky130_fd_sc_hd__a21o_1
*I *959:A1 I *D sky130_fd_sc_hd__a21bo_1
*I *956:X O *D sky130_fd_sc_hd__and2_1
*CAP
1 *972:B 0.000244894
2 *973:B1 5.44004e-05
3 *959:A1 0.000132505
4 *956:X 0.000112306
5 *114:10 0.000186906
6 *114:8 0.000357199
7 *959:A1 *973:A1 9.85599e-06
8 *959:A1 *973:A2 0.000227971
9 *959:A1 *975:A2 0
10 *972:B *972:A 0
11 *972:B *972:C 0
12 *973:B1 *973:A1 6.05161e-06
*RES
1 *956:X *114:8 15.4429 
2 *114:8 *114:10 4.5 
3 *114:10 *959:A1 12.3179 
4 *114:10 *973:B1 10.2464 
5 *114:8 *972:B 17.3179 
*END

*D_NET *115 0.00424752
*CONN
*I *972:C I *D sky130_fd_sc_hd__nand3_1
*I *973:A2 I *D sky130_fd_sc_hd__a21o_1
*I *959:A2 I *D sky130_fd_sc_hd__a21bo_1
*I *957:X O *D sky130_fd_sc_hd__a22o_1
*CAP
1 *972:C 0.000155386
2 *973:A2 8.14833e-05
3 *959:A2 0
4 *957:X 0.000842625
5 *115:20 8.14833e-05
6 *115:18 0.000998011
7 *972:C *972:A 0.000189784
8 *972:C *1118:A 0.000214731
9 *972:C *309:14 2.83425e-05
10 *973:A2 *973:A1 3.11088e-05
11 *973:A2 *116:14 7.62323e-05
12 *115:18 *972:A 2.47319e-05
13 *115:18 *1118:A 0.0005912
14 *115:18 *116:10 0.000221104
15 *115:18 *266:10 4.25809e-05
16 *115:18 *266:12 4.71964e-05
17 *115:18 *274:41 8.00806e-05
18 *115:18 *296:59 0
19 int4_out[2] *972:C 6.05161e-06
20 *945:A1 *115:18 6.57032e-05
21 *954:C *115:18 7.45527e-05
22 *955:A2 *115:18 3.28548e-05
23 *959:A1 *973:A2 0.000227971
24 *972:B *972:C 0
25 *101:29 *115:18 1.46231e-05
26 *102:20 *115:18 0
27 *113:14 *115:18 0.00011968
*RES
1 *957:X *115:18 41.1036 
2 *115:18 *115:20 4.5 
3 *115:20 *959:A2 9.3 
4 *115:20 *973:A2 11.8893 
5 *115:18 *972:C 18.425 
*END

*D_NET *116 0.00475864
*CONN
*I *972:A I *D sky130_fd_sc_hd__nand3_1
*I *973:A1 I *D sky130_fd_sc_hd__a21o_1
*I *959:B1_N I *D sky130_fd_sc_hd__a21bo_1
*I *958:Y O *D sky130_fd_sc_hd__nand4_2
*CAP
1 *972:A 0.000245026
2 *973:A1 6.3141e-05
3 *959:B1_N 0
4 *958:Y 0.000787917
5 *116:14 0.000160704
6 *116:10 0.00113051
7 *972:A *309:14 0.000146676
8 *116:10 *943:A1 0.00031362
9 *116:10 *943:A2 2.2351e-05
10 *116:10 *956:A 0.000182222
11 *116:10 *958:B 0.000140933
12 *116:10 *1118:A 4.06875e-05
13 *116:10 *265:85 0.000344523
14 *959:A1 *973:A1 9.85599e-06
15 *972:B *972:A 0
16 *972:C *972:A 0.000189784
17 *973:A2 *973:A1 3.11088e-05
18 *973:A2 *116:14 7.62323e-05
19 *973:B1 *973:A1 6.05161e-06
20 *101:12 *116:10 9.58181e-05
21 *102:20 *116:10 0.000178425
22 *103:14 *116:10 0.000227539
23 *113:14 *116:10 0.00011968
24 *115:18 *972:A 2.47319e-05
25 *115:18 *116:10 0.000221104
*RES
1 *958:Y *116:10 32.4071 
2 *116:10 *116:14 5.85714 
3 *116:14 *959:B1_N 9.3 
4 *116:14 *973:A1 10.2464 
5 *116:10 *972:A 19.6929 
*END

*D_NET *117 0.000891033
*CONN
*I *961:B I *D sky130_fd_sc_hd__nand3_1
*I *960:B1 I *D sky130_fd_sc_hd__a21o_1
*I *959:X O *D sky130_fd_sc_hd__a21bo_1
*CAP
1 *961:B 9.55313e-05
2 *960:B1 0
3 *959:X 9.59086e-05
4 *117:12 0.00019144
5 *961:B *119:8 1.61129e-05
6 *117:12 *1118:A 0.000126278
7 *960:A1 *961:B 0.000186894
8 *961:C *961:B 5.65955e-05
9 *113:14 *961:B 6.72721e-05
10 *113:14 *117:12 5.49995e-05
*RES
1 *959:X *117:12 20.4786 
2 *117:12 *960:B1 9.3 
3 *117:12 *961:B 12.3179 
*END

*D_NET *118 0.00320122
*CONN
*I *978:A2 I *D sky130_fd_sc_hd__a21o_1
*I *971:C I *D sky130_fd_sc_hd__nand3_1
*I *962:A2 I *D sky130_fd_sc_hd__a21bo_1
*I *960:X O *D sky130_fd_sc_hd__a21o_1
*CAP
1 *978:A2 0
2 *971:C 5.89764e-05
3 *962:A2 8.88889e-05
4 *960:X 0.000250596
5 *118:22 0.000389024
6 *118:12 0.000491755
7 *962:A2 *285:20 2.36643e-05
8 *962:A2 *296:49 4.00349e-05
9 *962:A2 *307:14 8.44271e-06
10 *971:C *296:49 0.000133721
11 *971:C *307:14 1.12578e-05
12 *118:12 *956:B 0.00020829
13 *118:12 *978:A1 1.22604e-05
14 *118:12 *119:8 0.000635751
15 *118:12 *285:20 9.14454e-05
16 *118:22 *132:19 1.16107e-05
17 *118:22 *296:49 0.000426235
18 *118:22 *309:14 9.59532e-06
19 *962:A1 *962:A2 9.58181e-05
20 *971:B *962:A2 1.90936e-05
21 *971:B *971:C 0.000100597
22 *113:14 *118:12 9.41642e-05
*RES
1 *960:X *118:12 17.8 
2 *118:12 *118:22 12.2924 
3 *118:22 *962:A2 15.7375 
4 *118:22 *971:C 15.5946 
5 *118:12 *978:A2 9.3 
*END

*D_NET *119 0.00359498
*CONN
*I *962:B1_N I *D sky130_fd_sc_hd__a21bo_1
*I *971:A I *D sky130_fd_sc_hd__nand3_1
*I *978:A1 I *D sky130_fd_sc_hd__a21o_1
*I *961:Y O *D sky130_fd_sc_hd__nand3_1
*CAP
1 *962:B1_N 2.11195e-05
2 *971:A 0.000108332
3 *978:A1 2.57463e-05
4 *961:Y 0.000364629
5 *119:19 0.000223826
6 *119:8 0.00048475
7 *971:A *979:C 7.23766e-05
8 *971:A *272:14 3.41848e-05
9 *971:A *307:14 0.000140632
10 *978:A1 *285:20 5.49995e-05
11 *119:8 *212:12 0.00073628
12 *119:8 *285:20 1.12713e-05
13 *119:8 *296:49 0.000100368
14 *119:19 *285:20 1.38323e-05
15 *961:B *119:8 1.61129e-05
16 *961:C *119:8 2.36643e-05
17 *971:B *971:A 1.87331e-05
18 *111:17 *962:B1_N 5.33005e-05
19 *111:17 *119:19 0.000135028
20 *113:14 *119:8 0.000307788
21 *118:12 *978:A1 1.22604e-05
22 *118:12 *119:8 0.000635751
*RES
1 *961:Y *119:8 20.9429 
2 *119:8 *978:A1 10.2643 
3 *119:8 *119:19 1.76786 
4 *119:19 *971:A 20.9786 
5 *119:19 *962:B1_N 9.83571 
*END

*D_NET *120 0.00156971
*CONN
*I *964:B I *D sky130_fd_sc_hd__and3_1
*I *990:B1 I *D sky130_fd_sc_hd__a21oi_1
*I *962:X O *D sky130_fd_sc_hd__a21bo_1
*CAP
1 *964:B 0
2 *990:B1 0.000214116
3 *962:X 0.000262795
4 *120:8 0.000476911
5 *990:B1 *966:B1_N 3.57844e-05
6 *990:B1 *967:A 1.33343e-05
7 *990:B1 *991:B 0.00012733
8 *990:B1 *264:24 0
9 *120:8 *953:A 0
10 *120:8 *991:B 0.000291172
11 *120:8 *264:24 0
12 *965:B *990:B1 0.00014827
*RES
1 *962:X *120:8 18.7821 
2 *120:8 *990:B1 18.3357 
3 *120:8 *964:B 13.8 
*END

*D_NET *121 0.00191897
*CONN
*I *964:C I *D sky130_fd_sc_hd__and3_1
*I *990:A2 I *D sky130_fd_sc_hd__a21oi_1
*I *963:X O *D sky130_fd_sc_hd__a21o_1
*CAP
1 *964:C 0.000283107
2 *990:A2 0.000100462
3 *963:X 0.000107782
4 *121:6 0.000491352
5 *964:C *264:14 3.1501e-05
6 *990:A2 *953:A 1.03904e-05
7 *990:A2 *272:14 0.000166471
8 *948:A2 *990:A2 2.34059e-05
9 *964:A *964:C 0.000269534
10 *990:A1 *990:A2 0.000259073
11 *110:10 *964:C 4.08637e-05
12 *110:10 *121:6 0.000135028
*RES
1 *963:X *121:6 10.6571 
2 *121:6 *990:A2 21.8893 
3 *121:6 *964:C 13.1929 
*END

*D_NET *122 0.0018619
*CONN
*I *991:A I *D sky130_fd_sc_hd__nor2_1
*I *965:C_N I *D sky130_fd_sc_hd__nor3b_1
*I *966:B1_N I *D sky130_fd_sc_hd__o21ba_1
*I *964:X O *D sky130_fd_sc_hd__and3_1
*CAP
1 *991:A 9.92319e-05
2 *965:C_N 7.83956e-05
3 *966:B1_N 0.000229736
4 *964:X 0
5 *122:8 0.00040705
6 *122:6 0.00019815
7 *965:C_N *967:A 1.51571e-05
8 *966:B1_N *991:B 9.25014e-06
9 *966:B1_N *123:12 4.15914e-05
10 *991:A *980:A1 4.37296e-05
11 *991:A *980:B1 5.65955e-05
12 *991:A *991:B 0.000257917
13 *122:8 *991:B 0.0001901
14 *965:A *965:C_N 5.65955e-05
15 *965:B *965:C_N 2.286e-05
16 *966:A2 *966:B1_N 1.97695e-05
17 *990:B1 *966:B1_N 3.57844e-05
18 *108:25 *966:B1_N 9.99853e-05
*RES
1 *964:X *122:6 13.8 
2 *122:6 *122:8 2.55357 
3 *122:8 *966:B1_N 18.0321 
4 *122:8 *965:C_N 15.4786 
5 *122:6 *991:A 16.8 
*END

*D_NET *123 0.00245325
*CONN
*I *967:A I *D sky130_fd_sc_hd__nor2_1
*I *1000:A2 I *D sky130_fd_sc_hd__o21a_1
*I *1028:A_N I *D sky130_fd_sc_hd__and2b_1
*I *965:Y O *D sky130_fd_sc_hd__nor3b_1
*CAP
1 *967:A 0.000350284
2 *1000:A2 0
3 *1028:A_N 0.000154816
4 *965:Y 0
5 *123:12 0.000429928
6 *123:4 0.000625396
7 *967:A *967:B 3.57366e-05
8 *1028:A_N *1000:B1 0.000272744
9 *1028:A_N *1001:B1 0.000100931
10 *123:12 *245:138 0
11 *123:12 *264:24 0
12 *965:A *967:A 0.000185118
13 *965:A *123:12 0
14 *965:B *967:A 7.22199e-05
15 *965:B *123:12 5.27391e-05
16 *965:C_N *967:A 1.51571e-05
17 *966:B1_N *123:12 4.15914e-05
18 *990:B1 *967:A 1.33343e-05
19 *1000:A1 *123:12 0.00010326
*RES
1 *965:Y *123:4 9.3 
2 *123:4 *123:12 13.4107 
3 *123:12 *1028:A_N 13.4429 
4 *123:12 *1000:A2 9.3 
5 *123:4 *967:A 15.2107 
*END

*D_NET *124 0.00174376
*CONN
*I *967:B I *D sky130_fd_sc_hd__nor2_1
*I *1031:A1 I *D sky130_fd_sc_hd__o21ba_1
*I *966:X O *D sky130_fd_sc_hd__o21ba_1
*CAP
1 *967:B 0.000118331
2 *1031:A1 0.000285005
3 *966:X 0.000260534
4 *124:6 0.00066387
5 *967:B *1001:B1 0
6 *967:B *1024:A 0
7 *967:B *125:8 1.33343e-05
8 *967:B *141:48 7.83659e-05
9 *1031:A1 *1031:A2 5.7661e-06
10 *1031:A1 *1032:A2 0
11 *1031:A1 *128:12 9.92409e-05
12 *1031:A1 *128:28 0.000114577
13 *967:A *967:B 3.57366e-05
14 *970:A *124:6 5.06983e-05
15 *108:25 *124:6 1.83053e-05
*RES
1 *966:X *124:6 12.3 
2 *124:6 *1031:A1 14.3893 
3 *124:6 *967:B 20.6036 
*END

*D_NET *125 0.0016061
*CONN
*I *1001:A1 I *D sky130_fd_sc_hd__a31o_1
*I *993:A I *D sky130_fd_sc_hd__and4_1
*I *1024:A I *D sky130_fd_sc_hd__inv_2
*I *967:Y O *D sky130_fd_sc_hd__nor2_1
*CAP
1 *1001:A1 0
2 *993:A 0.000123593
3 *1024:A 1.91209e-05
4 *967:Y 9.86057e-05
5 *125:19 0.000205812
6 *125:8 0.000199945
7 *993:A *1001:A2 0.000197991
8 *993:A *1002:B1 0.000292708
9 *993:A *1026:C1 2.14378e-05
10 *993:A *144:20 2.58997e-05
11 *993:A *183:10 5.56943e-05
12 *125:19 *1001:B1 0.000183726
13 *125:19 *1002:B1 1.21258e-05
14 *125:19 *1026:C1 0
15 *125:19 *157:14 6.29133e-05
16 *125:19 *157:23 0
17 *125:19 *182:8 9.31893e-05
18 *967:B *1024:A 0
19 *967:B *125:8 1.33343e-05
*RES
1 *967:Y *125:8 11.0857 
2 *125:8 *1024:A 9.72857 
3 *125:8 *125:19 3.01786 
4 *125:19 *993:A 22.675 
5 *125:19 *1001:A1 9.3 
*END

*D_NET *126 0.000166209
*CONN
*I *969:B I *D sky130_fd_sc_hd__nor2_1
*I *968:Y O *D sky130_fd_sc_hd__a21oi_1
*CAP
1 *969:B 5.01391e-05
2 *968:Y 5.01391e-05
3 *969:B *924:A 0
4 *969:B *127:10 7.43578e-06
5 *968:B1 *969:B 3.3682e-05
6 *93:18 *969:B 2.4813e-05
*RES
1 *968:Y *969:B 19.9929 
*END

*D_NET *127 0.00450874
*CONN
*I *970:B I *D sky130_fd_sc_hd__xor2_2
*I *1000:B1 I *D sky130_fd_sc_hd__o21a_1
*I *969:Y O *D sky130_fd_sc_hd__nor2_1
*CAP
1 *970:B 6.10798e-05
2 *1000:B1 0.000141463
3 *969:Y 0.000921167
4 *127:10 0.00112371
5 *970:B *141:48 0.000225307
6 *970:B *245:138 0.000211205
7 *1000:B1 *1001:B1 1.21258e-05
8 *127:10 *994:A 1.83819e-05
9 *127:10 *997:C 6.67257e-05
10 *127:10 *1022:A3 4.97791e-05
11 *127:10 *1037:A 0.000260673
12 *127:10 *1042:B1 0.000110389
13 *127:10 *1043:A1 3.9733e-05
14 *127:10 *141:12 0.000268683
15 *127:10 *141:48 0.000117189
16 *127:10 *160:8 0
17 *127:10 *162:10 2.34204e-05
18 *127:10 *173:10 0
19 *127:10 *245:72 0.000167273
20 *127:10 *245:138 0.000246687
21 *969:B *127:10 7.43578e-06
22 *1028:A_N *1000:B1 0.000272744
23 *93:18 *127:10 1.57414e-05
24 *93:25 *127:10 0.000147823
*RES
1 *969:Y *127:10 32.2286 
2 *127:10 *1000:B1 16.8 
3 *127:10 *970:B 7.35714 
*END

*D_NET *128 0.00254422
*CONN
*I *1031:A2 I *D sky130_fd_sc_hd__o21ba_1
*I *1001:A2 I *D sky130_fd_sc_hd__a31o_1
*I *1028:B I *D sky130_fd_sc_hd__and2b_1
*I *993:B I *D sky130_fd_sc_hd__and4_1
*I *970:X O *D sky130_fd_sc_hd__xor2_2
*CAP
1 *1031:A2 5.42501e-05
2 *1001:A2 6.41932e-05
3 *1028:B 0
4 *993:B 0.000214641
5 *970:X 0
6 *128:28 0.000262219
7 *128:12 0.000390899
8 *128:4 0.000320034
9 *993:B *1001:B1 1.74352e-05
10 *993:B *1029:A2 0.000443648
11 *993:B *151:10 9.71197e-05
12 *1001:A2 *1026:C1 0.000175519
13 *1001:A2 *150:8 0
14 *1031:A2 *1030:A2 6.05161e-06
15 *1031:A2 *1030:B1 0
16 *128:12 *1001:B1 0
17 *128:12 *141:48 8.06331e-05
18 *128:12 *144:20 0
19 *993:A *1001:A2 0.000197991
20 *1031:A1 *1031:A2 5.7661e-06
21 *1031:A1 *128:12 9.92409e-05
22 *1031:A1 *128:28 0.000114577
*RES
1 *970:X *128:4 9.3 
2 *128:4 *128:12 12.7143 
3 *128:12 *993:B 14.675 
4 *128:12 *1028:B 9.3 
5 *128:4 *128:28 2.58929 
6 *128:28 *1001:A2 20.8536 
7 *128:28 *1031:A2 10.2643 
*END

*D_NET *129 0.00348779
*CONN
*I *979:A I *D sky130_fd_sc_hd__and3_1
*I *980:A1 I *D sky130_fd_sc_hd__a21oi_1
*I *971:Y O *D sky130_fd_sc_hd__nand3_1
*CAP
1 *979:A 1.69531e-05
2 *980:A1 0.000344719
3 *971:Y 0.000262706
4 *129:10 0.000624378
5 *979:A *979:C 5.33005e-05
6 *979:A *285:20 5.33005e-05
7 *980:A1 *980:B1 0.000367199
8 *980:A1 *988:B1 2.04681e-05
9 *980:A1 *135:10 7.80059e-05
10 *980:A1 *138:6 1.16543e-05
11 *980:A1 *245:138 0.000239603
12 *129:10 *977:A1 0.000312848
13 *129:10 *984:A 1.11209e-05
14 *129:10 *986:B 2.00659e-05
15 *129:10 *133:14 0.000445744
16 *129:10 *134:8 0.000315496
17 *129:10 *135:10 8.89675e-05
18 *129:10 *245:138 0.000169095
19 *129:10 *296:49 8.43535e-06
20 *991:A *980:A1 4.37296e-05
*RES
1 *971:Y *129:10 22.6393 
2 *129:10 *980:A1 20.6929 
3 *129:10 *979:A 14.3357 
*END

*D_NET *130 0.001338
*CONN
*I *975:A1 I *D sky130_fd_sc_hd__a21o_1
*I *976:A I *D sky130_fd_sc_hd__and3_1
*I *972:Y O *D sky130_fd_sc_hd__nand3_1
*CAP
1 *975:A1 0
2 *976:A 0.000129044
3 *972:Y 0.000313862
4 *130:12 0.000442906
5 *976:A *975:A2 1.02301e-05
6 *976:A *976:B 2.2131e-05
7 *976:A *976:C 0.000141941
8 *130:12 *132:19 5.54817e-06
9 *130:12 *309:14 0.000272338
*RES
1 *972:Y *130:12 22.8357 
2 *130:12 *976:A 11.9071 
3 *130:12 *975:A1 9.3 
*END

*D_NET *131 0.000896872
*CONN
*I *976:B I *D sky130_fd_sc_hd__and3_1
*I *975:A2 I *D sky130_fd_sc_hd__a21o_1
*I *973:X O *D sky130_fd_sc_hd__a21o_1
*CAP
1 *976:B 0.000252134
2 *975:A2 4.97661e-05
3 *973:X 4.49585e-05
4 *131:6 0.000346859
5 *976:B *976:C 2.97578e-05
6 *976:B *133:14 0.000141036
7 *959:A1 *975:A2 0
8 *976:A *975:A2 1.02301e-05
9 *976:A *976:B 2.2131e-05
*RES
1 *973:X *131:6 9.83571 
2 *131:6 *975:A2 10.3357 
3 *131:6 *976:B 12.7107 
*END

*D_NET *132 0.00406295
*CONN
*I *976:C I *D sky130_fd_sc_hd__and3_1
*I *975:B1 I *D sky130_fd_sc_hd__a21o_1
*I *981:A I *D sky130_fd_sc_hd__inv_2
*I *974:X O *D sky130_fd_sc_hd__and4_1
*CAP
1 *976:C 0.000102417
2 *975:B1 0
3 *981:A 0.000201878
4 *974:X 0
5 *132:19 0.000865837
6 *132:4 0.000965298
7 *976:C *133:14 6.99874e-05
8 *981:A *974:D 0
9 *981:A *213:37 7.22686e-05
10 *981:A *213:54 9.21611e-05
11 *132:19 *307:30 0.000549815
12 *132:19 *307:42 0.000211966
13 *132:19 *309:14 0
14 *132:19 *309:43 0
15 *949:A2 *132:19 9.91086e-05
16 *949:B1 *132:19 0.000186217
17 *951:A1 *132:19 5.72222e-05
18 *952:A *132:19 4.98872e-05
19 *952:B *132:19 1.02313e-05
20 *963:A2 *132:19 0.000174068
21 *976:A *976:C 0.000141941
22 *976:B *976:C 2.97578e-05
23 *82:8 *132:19 0.00012342
24 *96:10 *132:19 4.23086e-05
25 *118:22 *132:19 1.16107e-05
26 *130:12 *132:19 5.54817e-06
*RES
1 *974:X *132:4 9.3 
2 *132:4 *981:A 13.3357 
3 *132:4 *132:19 27.6429 
4 *132:19 *975:B1 9.3 
5 *132:19 *976:C 12.1036 
*END

*D_NET *133 0.00272251
*CONN
*I *977:A3 I *D sky130_fd_sc_hd__a31o_1
*I *985:B I *D sky130_fd_sc_hd__and2b_1
*I *975:X O *D sky130_fd_sc_hd__a21o_1
*CAP
1 *977:A3 0
2 *985:B 0.00031924
3 *975:X 0.000550401
4 *133:14 0.000869642
5 *985:B *985:A_N 0.000166764
6 *985:B *986:B 7.14981e-06
7 *985:B *285:20 6.43034e-05
8 *133:14 *985:A_N 6.93626e-06
9 *133:14 *986:B 3.4846e-06
10 *133:14 *134:8 7.78253e-05
11 *976:B *133:14 0.000141036
12 *976:C *133:14 6.99874e-05
13 *129:10 *133:14 0.000445744
*RES
1 *975:X *133:14 22.9071 
2 *133:14 *985:B 19.0857 
3 *133:14 *977:A3 13.8 
*END

*D_NET *134 0.00136585
*CONN
*I *977:B1 I *D sky130_fd_sc_hd__a31o_1
*I *985:A_N I *D sky130_fd_sc_hd__and2b_1
*I *976:X O *D sky130_fd_sc_hd__and3_1
*CAP
1 *977:B1 0
2 *985:A_N 0.000148333
3 *976:X 0.000149772
4 *134:8 0.000298105
5 *985:A_N *285:20 5.33005e-05
6 *985:A_N *296:49 0
7 *134:8 *296:49 0.000120791
8 *971:B *134:8 2.85321e-05
9 *985:B *985:A_N 0.000166764
10 *129:10 *134:8 0.000315496
11 *133:14 *985:A_N 6.93626e-06
12 *133:14 *134:8 7.78253e-05
*RES
1 *976:X *134:8 13.9607 
2 *134:8 *985:A_N 21.3893 
3 *134:8 *977:B1 9.3 
*END

*D_NET *135 0.00172705
*CONN
*I *979:B I *D sky130_fd_sc_hd__and3_1
*I *980:B1 I *D sky130_fd_sc_hd__a21oi_1
*I *977:X O *D sky130_fd_sc_hd__a31o_1
*CAP
1 *979:B 8.47012e-05
2 *980:B1 0.000137028
3 *977:X 0.000138803
4 *135:10 0.000360532
5 *979:B *137:8 5.46383e-06
6 *979:B *285:20 4.58194e-05
7 *980:B1 *986:B 1.00332e-05
8 *980:B1 *991:B 8.23451e-05
9 *980:B1 *138:6 1.61135e-05
10 *135:10 *986:B 0.000159811
11 *135:10 *296:29 9.56313e-05
12 *980:A1 *980:B1 0.000367199
13 *980:A1 *135:10 7.80059e-05
14 *991:A *980:B1 5.65955e-05
15 *129:10 *135:10 8.89675e-05
*RES
1 *977:X *135:10 16.9964 
2 *135:10 *980:B1 18.2464 
3 *135:10 *979:B 15.175 
*END

*D_NET *136 0.00314323
*CONN
*I *979:C I *D sky130_fd_sc_hd__and3_1
*I *980:A2 I *D sky130_fd_sc_hd__a21oi_1
*I *978:X O *D sky130_fd_sc_hd__a21o_1
*CAP
1 *979:C 0.000671801
2 *980:A2 0.000342186
3 *978:X 0
4 *136:6 0.00101399
5 *979:C *272:14 0.000110458
6 *979:C *285:14 1.95435e-05
7 *979:C *285:20 0.000634503
8 *979:C *307:14 1.65144e-05
9 *980:A2 *991:B 2.26669e-05
10 *980:A2 *272:14 7.89362e-05
11 *980:A2 *307:14 2.48421e-05
12 *980:A2 *307:20 7.4854e-05
13 *980:A2 *307:30 7.25873e-06
14 *971:A *979:C 7.23766e-05
15 *979:A *979:C 5.33005e-05
*RES
1 *978:X *136:6 13.8 
2 *136:6 *980:A2 20.3536 
3 *136:6 *979:C 23.4429 
*END

*D_NET *137 0.00250932
*CONN
*I *999:A1 I *D sky130_fd_sc_hd__o21a_1
*I *987:A_N I *D sky130_fd_sc_hd__and4bb_1
*I *988:B1 I *D sky130_fd_sc_hd__o2bb2a_1
*I *992:A I *D sky130_fd_sc_hd__xor2_2
*I *979:X O *D sky130_fd_sc_hd__and3_1
*CAP
1 *999:A1 6.47163e-05
2 *987:A_N 0.000119189
3 *988:B1 8.89402e-05
4 *992:A 0.000170007
5 *979:X 6.33959e-05
6 *137:14 0.000331997
7 *137:12 0.00029051
8 *137:8 0.000226383
9 *987:A_N *987:B_N 1.21258e-05
10 *987:A_N *987:C 0.000188291
11 *987:A_N *141:48 6.25484e-05
12 *987:A_N *149:8 0.000265453
13 *988:B1 *987:B_N 9.00741e-05
14 *988:B1 *138:6 1.16543e-05
15 *992:A *141:48 0.000124749
16 *992:A *264:14 9.60875e-05
17 *999:A1 *285:14 7.22772e-05
18 *137:8 *285:14 5.23735e-05
19 *137:12 *264:14 7.27183e-05
20 *137:14 *141:48 5.51716e-05
21 *137:14 *264:14 2.47319e-05
22 *979:B *137:8 5.46383e-06
23 *980:A1 *988:B1 2.04681e-05
*RES
1 *979:X *137:8 10.675 
2 *137:8 *137:12 6.44643 
3 *137:12 *137:14 1.33929 
4 *137:14 *992:A 17.2107 
5 *137:14 *988:B1 15.4786 
6 *137:12 *987:A_N 17.2107 
7 *137:8 *999:A1 10.6571 
*END

*D_NET *138 0.00166622
*CONN
*I *988:B2 I *D sky130_fd_sc_hd__o2bb2a_1
*I *987:B_N I *D sky130_fd_sc_hd__and4bb_1
*I *980:Y O *D sky130_fd_sc_hd__a21oi_1
*CAP
1 *988:B2 0
2 *987:B_N 0.000199492
3 *980:Y 0.000134445
4 *138:6 0.000333936
5 *987:B_N *987:C 7.2235e-05
6 *987:B_N *987:D 5.33005e-05
7 *987:B_N *988:A2_N 5.49995e-05
8 *987:B_N *141:48 0.000122981
9 *987:B_N *146:18 0.000136727
10 *987:B_N *149:8 6.92966e-06
11 *138:6 *991:B 0.000143375
12 *138:6 *149:8 0.00026618
13 *980:A1 *138:6 1.16543e-05
14 *980:B1 *138:6 1.61135e-05
15 *987:A_N *987:B_N 1.21258e-05
16 *988:B1 *987:B_N 9.00741e-05
17 *988:B1 *138:6 1.16543e-05
*RES
1 *980:Y *138:6 13.1214 
2 *138:6 *987:B_N 14.1571 
3 *138:6 *988:B2 9.3 
*END

*D_NET *139 0.000993991
*CONN
*I *983:C I *D sky130_fd_sc_hd__and4_1
*I *995:B1 I *D sky130_fd_sc_hd__a22o_1
*I *981:Y O *D sky130_fd_sc_hd__inv_2
*CAP
1 *983:C 0.000174717
2 *995:B1 2.04856e-05
3 *981:Y 0.000159414
4 *139:6 0.000354617
5 *983:C *983:D 0.000192258
6 *983:C *995:A1 6.05161e-06
7 *995:B1 *995:B2 5.38444e-06
8 *139:6 *995:B2 3.42426e-05
9 *139:6 *213:54 4.68201e-05
*RES
1 *981:Y *139:6 12.3 
2 *139:6 *995:B1 9.72857 
3 *139:6 *983:C 22.05 
*END

*D_NET *140 0.0022491
*CONN
*I *983:D I *D sky130_fd_sc_hd__and4_1
*I *995:B2 I *D sky130_fd_sc_hd__a22o_1
*I *982:X O *D sky130_fd_sc_hd__a22o_1
*CAP
1 *983:D 0.000186251
2 *995:B2 0.000109688
3 *982:X 0.000376043
4 *140:10 0.000671982
5 *983:D *1043:A3 1.00887e-05
6 *983:D *212:74 0.000212865
7 *983:D *212:88 2.02794e-05
8 *983:D *245:107 7.47864e-06
9 *140:10 *996:B 6.3629e-05
10 *140:10 *1038:A1 0.000137639
11 *140:10 *1043:A3 3.00989e-05
12 *140:10 *245:107 0.000185124
13 *140:10 *249:102 6.05161e-06
14 *983:C *983:D 0.000192258
15 *995:B1 *995:B2 5.38444e-06
16 *139:6 *995:B2 3.42426e-05
*RES
1 *982:X *140:10 19.0679 
2 *140:10 *995:B2 15.4786 
3 *140:10 *983:D 19.425 
*END

*D_NET *141 0.00621318
*CONN
*I *987:C I *D sky130_fd_sc_hd__and4bb_1
*I *988:A1_N I *D sky130_fd_sc_hd__o2bb2a_1
*I *1018:A I *D sky130_fd_sc_hd__nor2_1
*I *994:A I *D sky130_fd_sc_hd__inv_2
*I *983:X O *D sky130_fd_sc_hd__and4_1
*CAP
1 *987:C 0.000155177
2 *988:A1_N 0
3 *1018:A 7.30814e-05
4 *994:A 0.000229538
5 *983:X 0.000375779
6 *141:48 0.000749817
7 *141:12 0.000458344
8 *141:8 0.00112614
9 *987:C *987:D 0.00026974
10 *994:A *997:A 6.45878e-05
11 *994:A *997:B 6.17358e-05
12 *994:A *997:C 6.05161e-06
13 *994:A *1042:A2 4.56892e-06
14 *994:A *1042:B1 7.74068e-05
15 *994:A *152:12 7.74135e-05
16 *994:A *154:8 0.000182677
17 *994:A *155:23 1.12808e-05
18 *994:A *245:72 1.73698e-05
19 *994:A *293:44 0.000184375
20 *1018:A *997:B 9.84729e-05
21 *1018:A *997:C 3.45806e-06
22 *1018:A *155:23 0.000143633
23 *141:8 *983:A 7.31195e-06
24 *141:8 *212:74 1.32056e-05
25 *141:8 *245:76 2.53815e-05
26 *141:12 *144:20 0
27 *141:12 *160:8 0
28 *141:48 *1001:B1 0
29 *141:48 *144:14 4.08555e-06
30 *141:48 *144:20 0
31 *141:48 *245:138 0.000184246
32 *141:48 *264:14 0.000193761
33 *967:B *141:48 7.83659e-05
34 *970:B *141:48 0.000225307
35 *987:A_N *987:C 0.000188291
36 *987:A_N *141:48 6.25484e-05
37 *987:B_N *987:C 7.2235e-05
38 *987:B_N *141:48 0.000122981
39 *992:A *141:48 0.000124749
40 *127:10 *994:A 1.83819e-05
41 *127:10 *141:12 0.000268683
42 *127:10 *141:48 0.000117189
43 *128:12 *141:48 8.06331e-05
44 *137:14 *141:48 5.51716e-05
*RES
1 *983:X *141:8 18.0321 
2 *141:8 *141:12 7.96429 
3 *141:12 *994:A 23.925 
4 *141:12 *1018:A 11.4786 
5 *141:8 *141:48 18.5491 
6 *141:48 *988:A1_N 9.3 
7 *141:48 *987:C 13.8223 
*END

*D_NET *142 0.000721673
*CONN
*I *986:A I *D sky130_fd_sc_hd__xnor2_2
*I *984:Y O *D sky130_fd_sc_hd__nand2_1
*CAP
1 *986:A 0.000200565
2 *984:Y 0.000200565
3 *986:A *984:A 0.00019806
4 *986:A *144:10 5.50052e-05
5 *986:A *296:29 6.74795e-05
*RES
1 *984:Y *986:A 23.2607 
*END

*D_NET *143 0.000609402
*CONN
*I *986:B I *D sky130_fd_sc_hd__xnor2_2
*I *985:X O *D sky130_fd_sc_hd__and2b_1
*CAP
1 *986:B 0.000149424
2 *985:X 0.000149424
3 *986:B *977:A1 5.50052e-05
4 *986:B *296:29 5.50052e-05
5 *980:B1 *986:B 1.00332e-05
6 *985:B *986:B 7.14981e-06
7 *129:10 *986:B 2.00659e-05
8 *133:14 *986:B 3.4846e-06
9 *135:10 *986:B 0.000159811
*RES
1 *985:X *986:B 30.9929 
*END

*D_NET *144 0.00521538
*CONN
*I *988:A2_N I *D sky130_fd_sc_hd__o2bb2a_1
*I *987:D I *D sky130_fd_sc_hd__and4bb_1
*I *998:A I *D sky130_fd_sc_hd__and2_1
*I *1019:A I *D sky130_fd_sc_hd__xnor2_1
*I *986:Y O *D sky130_fd_sc_hd__xnor2_2
*CAP
1 *988:A2_N 3.92662e-05
2 *987:D 0.000122543
3 *998:A 0.000198301
4 *1019:A 0
5 *986:Y 0.000266446
6 *144:20 0.000653081
7 *144:14 0.000722328
8 *144:10 0.000450716
9 *987:D *992:B 0.000172422
10 *987:D *146:18 0.000186937
11 *987:D *157:14 0.000208118
12 *998:A *998:B 0.000153705
13 *998:A *1033:C 7.22772e-05
14 *144:10 *992:B 5.62306e-05
15 *144:10 *999:B1 7.0586e-05
16 *144:10 *264:14 0.000148067
17 *144:14 *992:B 6.23278e-05
18 *144:14 *264:14 7.51885e-05
19 *144:20 *998:B 9.84673e-05
20 *144:20 *1001:B1 0.000111141
21 *144:20 *1002:B1 0.000506443
22 *144:20 *1019:B 5.50052e-05
23 *144:20 *1020:A 0.000107434
24 *144:20 *150:8 0
25 *144:20 *157:14 0.000139886
26 *144:20 *160:8 7.54286e-05
27 *986:A *144:10 5.50052e-05
28 *987:B_N *987:D 5.33005e-05
29 *987:B_N *988:A2_N 5.49995e-05
30 *987:C *987:D 0.00026974
31 *993:A *144:20 2.58997e-05
32 *128:12 *144:20 0
33 *141:12 *144:20 0
34 *141:48 *144:14 4.08555e-06
35 *141:48 *144:20 0
*RES
1 *986:Y *144:10 19.3179 
2 *144:10 *144:14 3.45536 
3 *144:14 *144:20 17.5625 
4 *144:20 *1019:A 9.3 
5 *144:20 *998:A 13.55 
6 *144:14 *987:D 19.5054 
7 *144:10 *988:A2_N 14.3357 
*END

*D_NET *145 0.00244091
*CONN
*I *999:A2 I *D sky130_fd_sc_hd__o21a_1
*I *989:A I *D sky130_fd_sc_hd__nor2_1
*I *1026:A1 I *D sky130_fd_sc_hd__o221a_1
*I *987:X O *D sky130_fd_sc_hd__and4bb_1
*CAP
1 *999:A2 0.000352066
2 *989:A 0
3 *1026:A1 0.000244143
4 *987:X 0
5 *145:8 0.000390036
6 *145:6 0.000497959
7 *999:A2 *285:14 0.000189995
8 *1026:A1 *1023:A 0.000257371
9 *1026:A1 *1026:A2 4.58194e-05
10 *1026:A1 *1026:C1 3.57366e-05
11 *1026:A1 *1029:A1 1.02504e-05
12 *1026:A1 *1032:A1 0
13 *1026:A1 *146:18 1.00887e-05
14 *1026:A1 *147:8 6.72193e-05
15 *1026:A1 *150:8 0.000127047
16 *1026:A1 *157:14 0
17 *1026:A1 *157:23 3.93247e-05
18 *1026:A1 *182:8 7.49387e-06
19 *1026:A1 *182:21 1.55885e-05
20 *145:8 *146:18 0.000150773
*RES
1 *987:X *145:6 13.8 
2 *145:6 *145:8 3.16071 
3 *145:8 *1026:A1 20.3536 
4 *145:8 *989:A 13.8 
5 *145:6 *999:A2 20.1929 
*END

*D_NET *146 0.0023818
*CONN
*I *1032:A1 I *D sky130_fd_sc_hd__o211a_1
*I *989:B I *D sky130_fd_sc_hd__nor2_1
*I *988:X O *D sky130_fd_sc_hd__o2bb2a_1
*CAP
1 *1032:A1 0.000297644
2 *989:B 0
3 *988:X 0.000484494
4 *146:18 0.000782138
5 *1032:A1 *1027:B 6.09476e-05
6 *1032:A1 *1029:B1 5.41794e-05
7 *1032:A1 *147:8 4.8936e-05
8 *1032:A1 *182:21 0.000168939
9 *1032:A1 *273:16 0
10 *987:B_N *146:18 0.000136727
11 *987:D *146:18 0.000186937
12 *1026:A1 *1032:A1 0
13 *1026:A1 *146:18 1.00887e-05
14 *145:8 *146:18 0.000150773
*RES
1 *988:X *146:18 26.3893 
2 *146:18 *989:B 9.3 
3 *146:18 *1032:A1 24.2286 
*END

*D_NET *147 0.00318488
*CONN
*I *1030:B1 I *D sky130_fd_sc_hd__o21ai_1
*I *1027:A I *D sky130_fd_sc_hd__nor2_1
*I *993:C I *D sky130_fd_sc_hd__and4_1
*I *989:Y O *D sky130_fd_sc_hd__nor2_1
*CAP
1 *1030:B1 9.73019e-05
2 *1027:A 0.000179333
3 *993:C 0.000225994
4 *989:Y 0.000153276
5 *147:12 0.000503456
6 *147:8 0.000348707
7 *993:C *1029:A2 3.37689e-05
8 *993:C *1033:C 1.24368e-05
9 *993:C *151:10 0.000139913
10 *1027:A *1033:C 5.04705e-05
11 *1030:B1 *1030:A2 0.000310078
12 *1030:B1 *1032:B1 1.59373e-05
13 *1030:B1 *1032:C1 0.00026736
14 *147:8 *1029:A1 9.32406e-05
15 *147:8 *1029:B1 8.00806e-05
16 *147:8 *182:21 0.000160403
17 *147:12 *1029:B1 0.000197269
18 *147:12 *1033:D_N 0.000199698
19 *1026:A1 *147:8 6.72193e-05
20 *1031:A2 *1030:B1 0
21 *1032:A1 *147:8 4.8936e-05
*RES
1 *989:Y *147:8 18.175 
2 *147:8 *147:12 7.05357 
3 *147:12 *993:C 12.8714 
4 *147:12 *1027:A 12.7464 
5 *147:8 *1030:B1 17.6571 
*END

*D_NET *148 0.0021392
*CONN
*I *991:B I *D sky130_fd_sc_hd__nor2_1
*I *990:Y O *D sky130_fd_sc_hd__a21oi_1
*CAP
1 *991:B 0.000459452
2 *990:Y 0.000459452
3 *965:B *991:B 9.61354e-05
4 *966:B1_N *991:B 9.25014e-06
5 *980:A2 *991:B 2.26669e-05
6 *980:B1 *991:B 8.23451e-05
7 *990:B1 *991:B 0.00012733
8 *991:A *991:B 0.000257917
9 *120:8 *991:B 0.000291172
10 *122:8 *991:B 0.0001901
11 *138:6 *991:B 0.000143375
*RES
1 *990:Y *991:B 38.725 
*END

*D_NET *149 0.00214845
*CONN
*I *999:B1 I *D sky130_fd_sc_hd__o21a_1
*I *992:B I *D sky130_fd_sc_hd__xor2_2
*I *991:Y O *D sky130_fd_sc_hd__nor2_1
*CAP
1 *999:B1 7.48946e-05
2 *992:B 0.0001108
3 *991:Y 0.000403647
4 *149:8 0.000589342
5 *992:B *157:14 3.20387e-05
6 *999:B1 *157:14 3.75959e-05
7 *987:A_N *149:8 0.000265453
8 *987:B_N *149:8 6.92966e-06
9 *987:D *992:B 0.000172422
10 *138:6 *149:8 0.00026618
11 *144:10 *992:B 5.62306e-05
12 *144:10 *999:B1 7.0586e-05
13 *144:14 *992:B 6.23278e-05
*RES
1 *991:Y *149:8 19.2643 
2 *149:8 *992:B 7.66071 
3 *149:8 *999:B1 15.7464 
*END

*D_NET *150 0.00296507
*CONN
*I *1023:A I *D sky130_fd_sc_hd__inv_2
*I *1032:A2 I *D sky130_fd_sc_hd__o211a_1
*I *993:D I *D sky130_fd_sc_hd__and4_1
*I *992:X O *D sky130_fd_sc_hd__xor2_2
*CAP
1 *1023:A 0.000296977
2 *1032:A2 0.000175907
3 *993:D 0.000138439
4 *992:X 0.000160701
5 *150:10 0.00035499
6 *150:8 0.000498323
7 *993:D *1026:C1 7.07676e-05
8 *993:D *1029:A1 1.5942e-05
9 *993:D *1031:B1_N 0.000224592
10 *993:D *183:10 7.6021e-05
11 *1023:A *1026:A2 0.000110555
12 *1023:A *1026:C1 1.24368e-05
13 *1023:A *157:23 1.02936e-05
14 *1032:A2 *1030:A1 9.60939e-05
15 *1032:A2 *1030:A2 2.15245e-05
16 *1032:A2 *1032:B1 3.57366e-05
17 *1032:A2 *1032:C1 0.000191041
18 *150:8 *1026:C1 6.8646e-06
19 *150:8 *1029:A1 2.26424e-05
20 *150:8 *157:14 0
21 *150:10 *1026:C1 2.1527e-05
22 *150:10 *1029:A1 3.92757e-05
23 *1001:A2 *150:8 0
24 *1026:A1 *1023:A 0.000257371
25 *1026:A1 *150:8 0.000127047
26 *1031:A1 *1032:A2 0
27 *144:20 *150:8 0
*RES
1 *992:X *150:8 16.9607 
2 *150:8 *150:10 1.03571 
3 *150:10 *993:D 17.8 
4 *150:10 *1032:A2 17.6571 
5 *150:8 *1023:A 18.4786 
*END

*D_NET *151 0.00160503
*CONN
*I *1002:A1 I *D sky130_fd_sc_hd__a21o_1
*I *1020:A I *D sky130_fd_sc_hd__and3_1
*I *993:X O *D sky130_fd_sc_hd__and4_1
*CAP
1 *1002:A1 0
2 *1020:A 0.000238187
3 *993:X 0.000136409
4 *151:10 0.000374596
5 *1020:A *1002:B1 5.77092e-05
6 *1020:A *1020:C 7.79164e-05
7 *1020:A *1031:B1_N 9.56189e-05
8 *1020:A *1040:B1 3.47641e-06
9 *1020:A *160:8 0
10 *1020:A *183:10 5.80706e-06
11 *1020:A *212:88 0
12 *1020:A *293:44 3.11088e-05
13 *151:10 *1002:B1 9.4724e-05
14 *151:10 *1029:A2 9.16173e-05
15 *151:10 *183:10 5.33882e-05
16 *993:B *151:10 9.71197e-05
17 *993:C *151:10 0.000139913
18 *144:20 *1020:A 0.000107434
*RES
1 *993:X *151:10 17.7286 
2 *151:10 *1020:A 19.6214 
3 *151:10 *1002:A1 13.8 
*END

*D_NET *152 0.000702276
*CONN
*I *997:A I *D sky130_fd_sc_hd__and3_1
*I *1042:A1 I *D sky130_fd_sc_hd__a21o_1
*I *994:Y O *D sky130_fd_sc_hd__inv_2
*CAP
1 *997:A 5.69399e-05
2 *1042:A1 0
3 *994:Y 0.000106765
4 *152:12 0.000163705
5 *997:A *997:B 2.12647e-05
6 *997:A *1042:B1 1.32293e-05
7 *997:A *153:8 2.38501e-05
8 *152:12 *154:8 9.75173e-05
9 *152:12 *245:72 7.70035e-05
10 *994:A *997:A 6.45878e-05
11 *994:A *152:12 7.74135e-05
*RES
1 *994:Y *152:12 20.2821 
2 *152:12 *1042:A1 9.3 
3 *152:12 *997:A 10.675 
*END

*D_NET *153 0.00103288
*CONN
*I *997:B I *D sky130_fd_sc_hd__and3_1
*I *1042:A2 I *D sky130_fd_sc_hd__a21o_1
*I *995:X O *D sky130_fd_sc_hd__a22o_1
*CAP
1 *997:B 0.000179669
2 *1042:A2 1.85689e-05
3 *995:X 0.000155383
4 *153:8 0.000353622
5 *153:8 *995:A1 6.05161e-06
6 *153:8 *1042:B1 9.58126e-05
7 *153:8 *1043:A3 1.38796e-05
8 *994:A *997:B 6.17358e-05
9 *994:A *1042:A2 4.56892e-06
10 *997:A *997:B 2.12647e-05
11 *997:A *153:8 2.38501e-05
12 *1018:A *997:B 9.84729e-05
*RES
1 *995:X *153:8 12.3179 
2 *153:8 *1042:A2 9.72857 
3 *153:8 *997:B 13.1571 
*END

*D_NET *154 0.00264949
*CONN
*I *997:C I *D sky130_fd_sc_hd__and3_1
*I *1037:A I *D sky130_fd_sc_hd__inv_2
*I *1042:B1 I *D sky130_fd_sc_hd__a21o_1
*I *996:X O *D sky130_fd_sc_hd__and4_1
*CAP
1 *997:C 5.51542e-05
2 *1037:A 0.000156033
3 *1042:B1 0.000237242
4 *996:X 0.000181593
5 *154:29 0.000211188
6 *154:8 0.000418835
7 *997:C *1041:A 3.54498e-05
8 *1037:A *1022:A3 7.85428e-05
9 *1037:A *1041:A 4.27842e-06
10 *1037:A *160:8 0
11 *1042:B1 *245:72 5.60142e-05
12 *154:8 *996:D 5.33005e-05
13 *154:8 *1041:A 0.000113889
14 *154:8 *245:107 5.49544e-05
15 *154:8 *293:44 7.9077e-05
16 *994:A *997:C 6.05161e-06
17 *994:A *1042:B1 7.74068e-05
18 *994:A *154:8 0.000182677
19 *997:A *1042:B1 1.32293e-05
20 *1018:A *997:C 3.45806e-06
21 *127:10 *997:C 6.67257e-05
22 *127:10 *1037:A 0.000260673
23 *127:10 *1042:B1 0.000110389
24 *152:12 *154:8 9.75173e-05
25 *153:8 *1042:B1 9.58126e-05
*RES
1 *996:X *154:8 14.3714 
2 *154:8 *1042:B1 22.9071 
3 *154:8 *154:29 4.5 
4 *154:29 *1037:A 17.2643 
5 *154:29 *997:C 15.0321 
*END

*D_NET *155 0.00198044
*CONN
*I *998:B I *D sky130_fd_sc_hd__and2_1
*I *1018:B I *D sky130_fd_sc_hd__nor2_1
*I *1041:A I *D sky130_fd_sc_hd__inv_2
*I *997:X O *D sky130_fd_sc_hd__and3_1
*CAP
1 *998:B 0.000255305
2 *1018:B 2.20512e-05
3 *1041:A 0.000150946
4 *997:X 0
5 *155:23 0.000404498
6 *155:4 0.000278089
7 *998:B *1019:B 4.51234e-05
8 *998:B *177:8 5.33005e-05
9 *1041:A *293:44 0.000181899
10 *155:23 *1019:B 2.85234e-05
11 *994:A *155:23 1.12808e-05
12 *997:C *1041:A 3.54498e-05
13 *998:A *998:B 0.000153705
14 *1018:A *155:23 0.000143633
15 *1037:A *1041:A 4.27842e-06
16 *144:20 *998:B 9.84673e-05
17 *154:8 *1041:A 0.000113889
*RES
1 *997:X *155:4 9.3 
2 *155:4 *1041:A 21.8357 
3 *155:4 *155:23 2.60714 
4 *155:23 *1018:B 9.72857 
5 *155:23 *998:B 14.3714 
*END

*D_NET *156 0.000521912
*CONN
*I *1025:A I *D sky130_fd_sc_hd__inv_2
*I *1002:A2 I *D sky130_fd_sc_hd__a21o_1
*I *998:X O *D sky130_fd_sc_hd__and2_1
*CAP
1 *1025:A 0
2 *1002:A2 6.50967e-05
3 *998:X 0.000106686
4 *156:14 0.000171783
5 *1002:A2 *183:10 5.10039e-05
6 *156:14 *1031:B1_N 6.66813e-05
7 *156:14 *1033:C 1.00887e-05
8 *156:14 *1033:D_N 3.70252e-05
9 *156:14 *183:10 1.35465e-05
*RES
1 *998:X *156:14 20.9071 
2 *156:14 *1002:A2 10.6571 
3 *156:14 *1025:A 9.3 
*END

*D_NET *157 0.00250667
*CONN
*I *1026:B1 I *D sky130_fd_sc_hd__o221a_1
*I *1029:A1 I *D sky130_fd_sc_hd__o21a_1
*I *1001:A3 I *D sky130_fd_sc_hd__a31o_1
*I *999:X O *D sky130_fd_sc_hd__o21a_1
*CAP
1 *1026:B1 0
2 *1029:A1 0.000148413
3 *1001:A3 0
4 *999:X 0.000335234
5 *157:23 0.000225371
6 *157:14 0.000412192
7 *1029:A1 *1031:B1_N 0.000119684
8 *1029:A1 *1033:D_N 0.000199698
9 *157:14 *1002:B1 1.40034e-05
10 *157:14 *1026:B2 0
11 *157:14 *182:8 0.000142856
12 *157:23 *1026:B2 9.81124e-06
13 *157:23 *1026:C1 7.48091e-05
14 *157:23 *182:8 0.000113073
15 *987:D *157:14 0.000208118
16 *992:B *157:14 3.20387e-05
17 *993:D *1029:A1 1.5942e-05
18 *999:B1 *157:14 3.75959e-05
19 *1023:A *157:23 1.02936e-05
20 *1026:A1 *1029:A1 1.02504e-05
21 *1026:A1 *157:14 0
22 *1026:A1 *157:23 3.93247e-05
23 *125:19 *157:14 6.29133e-05
24 *125:19 *157:23 0
25 *144:20 *157:14 0.000139886
26 *147:8 *1029:A1 9.32406e-05
27 *150:8 *1029:A1 2.26424e-05
28 *150:8 *157:14 0
29 *150:10 *1029:A1 3.92757e-05
*RES
1 *999:X *157:14 26.2821 
2 *157:14 *1001:A3 9.3 
3 *157:14 *157:23 2.60714 
4 *157:23 *1029:A1 23.2821 
5 *157:23 *1026:B1 9.3 
*END

*D_NET *158 0.00185598
*CONN
*I *1001:B1 I *D sky130_fd_sc_hd__a31o_1
*I *1000:X O *D sky130_fd_sc_hd__o21a_1
*CAP
1 *1001:B1 0.000671921
2 *1000:X 0.000671921
3 *1001:B1 *1002:B1 6.05161e-06
4 *1001:B1 *1029:A2 8.07313e-05
5 *967:B *1001:B1 0
6 *993:B *1001:B1 1.74352e-05
7 *1000:B1 *1001:B1 1.21258e-05
8 *1028:A_N *1001:B1 0.000100931
9 *125:19 *1001:B1 0.000183726
10 *128:12 *1001:B1 0
11 *141:48 *1001:B1 0
12 *144:20 *1001:B1 0.000111141
*RES
1 *1000:X *1001:B1 38.4929 
*END

*D_NET *159 0.00184616
*CONN
*I *1002:B1 I *D sky130_fd_sc_hd__a21o_1
*I *1001:X O *D sky130_fd_sc_hd__a31o_1
*CAP
1 *1002:B1 0.000371857
2 *1001:X 0.000371857
3 *1002:B1 *1026:C1 9.90431e-05
4 *1002:B1 *183:10 1.9643e-05
5 *993:A *1002:B1 0.000292708
6 *1001:B1 *1002:B1 6.05161e-06
7 *1020:A *1002:B1 5.77092e-05
8 *125:19 *1002:B1 1.21258e-05
9 *144:20 *1002:B1 0.000506443
10 *151:10 *1002:B1 9.4724e-05
11 *157:14 *1002:B1 1.40034e-05
*RES
1 *1001:X *1002:B1 36.8143 
*END

*D_NET *160 0.00172024
*CONN
*I *1017:B I *D sky130_fd_sc_hd__xnor2_1
*I *1004:A2 I *D sky130_fd_sc_hd__a21oi_1
*I *1002:X O *D sky130_fd_sc_hd__a21o_1
*CAP
1 *1017:B 5.1778e-05
2 *1004:A2 0.000218948
3 *1002:X 0.000419666
4 *160:8 0.000690392
5 *1004:A2 *1004:B1 1.33343e-05
6 *1004:A2 *1017:A 0
7 *1004:A2 *1034:A2 0
8 *1004:A2 *1034:B1 6.17406e-05
9 *1004:A2 *212:88 0
10 *1004:A2 *277:24 4.70078e-05
11 *1017:B *1040:B2 0.000141941
12 *160:8 *1033:A 0
13 *1020:A *160:8 0
14 *1037:A *160:8 0
15 *127:10 *160:8 0
16 *141:12 *160:8 0
17 *144:20 *160:8 7.54286e-05
*RES
1 *1002:X *160:8 20.3 
2 *160:8 *1004:A2 17.9607 
3 *160:8 *1017:B 15.1571 
*END

*D_NET *161 0.00120122
*CONN
*I *1004:B1 I *D sky130_fd_sc_hd__a21oi_1
*I *1016:A I *D sky130_fd_sc_hd__or2b_1
*I *1003:X O *D sky130_fd_sc_hd__and2_1
*CAP
1 *1004:B1 9.28094e-05
2 *1016:A 4.36033e-05
3 *1003:X 0.000188604
4 *161:10 0.000325016
5 *1004:B1 *1034:B1 3.51442e-05
6 *1004:B1 *179:37 0.000114045
7 *1004:B1 *277:24 2.89114e-05
8 *161:10 *850:A 0
9 *161:10 *179:37 0.000249562
10 *161:10 *213:74 0
11 *1004:A1 *1004:B1 4.71964e-05
12 *1004:A1 *1016:A 5.33005e-05
13 *1004:A1 *161:10 9.69119e-06
14 *1004:A2 *1004:B1 1.33343e-05
*RES
1 *1003:X *161:10 17.3 
2 *161:10 *1016:A 14.3357 
3 *161:10 *1004:B1 16.2821 
*END

*D_NET *162 0.00270237
*CONN
*I *1015:A2 I *D sky130_fd_sc_hd__o211ai_2
*I *1005:S I *D sky130_fd_sc_hd__mux2_1
*I *1004:Y O *D sky130_fd_sc_hd__a21oi_1
*CAP
1 *1015:A2 0
2 *1005:S 0.000246383
3 *1004:Y 0.000469234
4 *162:10 0.000715617
5 *1005:S *163:10 0.000119736
6 *162:10 *163:10 3.37068e-05
7 *162:10 *173:10 0.000457255
8 *162:10 *277:24 0.000218685
9 *923:A *1005:S 0
10 *1003:A *162:10 6.41079e-05
11 *1005:A1 *1005:S 0.000119969
12 *1014:A2 *1005:S 1.4796e-05
13 *68:29 *1005:S 9.75679e-05
14 *80:12 *1005:S 0.000121891
15 *127:10 *162:10 2.34204e-05
*RES
1 *1004:Y *162:10 22.7821 
2 *162:10 *1005:S 19.8 
3 *162:10 *1015:A2 13.8 
*END

*D_NET *163 0.00251503
*CONN
*I *1034:A1 I *D sky130_fd_sc_hd__o31a_1
*I *1022:A1 I *D sky130_fd_sc_hd__a31o_1
*I *1005:X O *D sky130_fd_sc_hd__mux2_1
*CAP
1 *1034:A1 9.59883e-05
2 *1022:A1 0
3 *1005:X 0.000409117
4 *163:10 0.000505105
5 *1034:A1 *1034:A2 0.000119053
6 *1034:A1 *1034:B1 0.000129303
7 *1034:A1 *1040:B2 7.60439e-05
8 *163:10 *1015:C1 1.57786e-05
9 *163:10 *1034:A2 1.02504e-05
10 *163:10 *1034:B1 2.48938e-05
11 *163:10 *173:10 0.000529514
12 *163:10 *179:37 0.000335208
13 *163:10 *217:98 0
14 *163:10 *307:108 0
15 *1005:S *163:10 0.000119736
16 *68:41 *163:10 3.54498e-05
17 *80:12 *163:10 7.58841e-05
18 *162:10 *163:10 3.37068e-05
*RES
1 *1005:X *163:10 23.9786 
2 *163:10 *1022:A1 13.8 
3 *163:10 *1034:A1 16.8357 
*END

*D_NET *164 0.00109337
*CONN
*I *1008:A3 I *D sky130_fd_sc_hd__a31o_1
*I *1006:Y O *D sky130_fd_sc_hd__nand2_1
*CAP
1 *1008:A3 0.000217851
2 *1006:Y 0.000217851
3 *1008:A3 *901:A 2.59355e-05
4 *1008:A3 *1008:A1 0.000140243
5 *1008:A3 *1008:B1 4.23643e-05
6 *1008:A3 *249:14 2.89965e-05
7 *1008:A3 *249:18 9.41642e-05
8 *1008:A3 *309:59 0.000135028
9 *59:6 *1008:A3 9.67754e-05
10 *59:25 *1008:A3 9.41642e-05
*RES
1 *1006:Y *1008:A3 23.6714 
*END

*D_NET *165 0.00134593
*CONN
*I *1021:B I *D sky130_fd_sc_hd__and2_1
*I *1008:B1 I *D sky130_fd_sc_hd__a31o_1
*I *1007:Y O *D sky130_fd_sc_hd__o21ai_1
*CAP
1 *1021:B 0.000150458
2 *1008:B1 5.741e-05
3 *1007:Y 0.000233943
4 *165:14 0.000441811
5 *1008:B1 *1008:A1 5.49995e-05
6 *1008:B1 *249:14 5.49995e-05
7 *165:14 *924:B 6.29947e-05
8 *165:14 *1007:A1 2.22891e-05
9 *165:14 *246:70 0
10 *918:A_N *1021:B 9.84729e-05
11 *1007:A2 *165:14 0.000126187
12 *1008:A3 *1008:B1 4.23643e-05
*RES
1 *1007:Y *165:14 22.5321 
2 *165:14 *1008:B1 10.6571 
3 *165:14 *1021:B 11.8893 
*END

*D_NET *166 0.000618207
*CONN
*I *1009:S I *D sky130_fd_sc_hd__mux2_1
*I *1008:X O *D sky130_fd_sc_hd__a31o_1
*CAP
1 *1009:S 0.000183817
2 *1008:X 0.000183817
3 *1009:S *900:B 5.77775e-05
4 *1009:S *924:B 7.89362e-05
5 *1009:S *311:62 0.000111329
6 *59:25 *1009:S 2.53112e-06
*RES
1 *1008:X *1009:S 31.5464 
*END

*D_NET *167 0.00284855
*CONN
*I *1013:A I *D sky130_fd_sc_hd__nand2_1
*I *1014:B1 I *D sky130_fd_sc_hd__o22a_1
*I *1009:X O *D sky130_fd_sc_hd__mux2_1
*CAP
1 *1013:A 0.00032231
2 *1014:B1 0
3 *1009:X 0.000506992
4 *167:8 0.000829302
5 *1013:A *1013:B 0.000425318
6 *1013:A *223:16 3.49456e-06
7 *167:8 *1009:A0 0.000185197
8 *167:8 *1015:C1 3.73361e-05
9 *167:8 *1078:A 7.34627e-05
10 *167:8 *1079:A 0.00016091
11 *3:27 *1013:A 3.18948e-05
12 *3:27 *167:8 0.000272338
*RES
1 *1009:X *167:8 20.8357 
2 *167:8 *1014:B1 9.3 
3 *167:8 *1013:A 16.6393 
*END

*D_NET *168 0.00132147
*CONN
*I *1012:A0 I *D sky130_fd_sc_hd__mux2_1
*I *1011:B1 I *D sky130_fd_sc_hd__o21ai_1
*I *1010:Y O *D sky130_fd_sc_hd__nand2_1
*CAP
1 *1012:A0 0.000194468
2 *1011:B1 0
3 *1010:Y 1.47605e-05
4 *168:6 0.000209228
5 *1012:A0 *1012:A1 0.00048922
6 *1012:A0 *211:105 6.62274e-05
7 *1012:A0 *311:46 0.000267099
8 *168:6 *211:105 2.62365e-05
9 *1010:B *168:6 5.02381e-05
10 *1011:A1 *1012:A0 3.99614e-06
*RES
1 *1010:Y *168:6 10.2464 
2 *168:6 *1011:B1 9.3 
3 *168:6 *1012:A0 25.2107 
*END

*D_NET *169 0.00132075
*CONN
*I *1012:A1 I *D sky130_fd_sc_hd__mux2_1
*I *1011:Y O *D sky130_fd_sc_hd__o21ai_1
*CAP
1 *1012:A1 0.000383219
2 *1011:Y 0.000383219
3 *906:B *1012:A1 0
4 *1010:A *1012:A1 4.92796e-05
5 *1010:B *1012:A1 9.76435e-06
6 *1011:A1 *1012:A1 6.05161e-06
7 *1012:A0 *1012:A1 0.00048922
*RES
1 *1011:Y *1012:A1 33.6536 
*END

*D_NET *170 0.00263853
*CONN
*I *1013:B I *D sky130_fd_sc_hd__nand2_1
*I *1014:B2 I *D sky130_fd_sc_hd__o22a_1
*I *1012:X O *D sky130_fd_sc_hd__mux2_1
*CAP
1 *1013:B 8.39601e-05
2 *1014:B2 0
3 *1012:X 0.000425533
4 *170:12 0.000509493
5 *170:12 *217:17 0.00012401
6 *170:12 *217:81 0.000186721
7 *170:12 *307:114 0.000309201
8 *170:12 *310:43 0.00048939
9 *1013:A *1013:B 0.000425318
10 *3:27 *1013:B 8.49023e-05
*RES
1 *1012:X *170:12 27.0143 
2 *170:12 *1014:B2 9.3 
3 *170:12 *1013:B 12.7464 
*END

*D_NET *171 0.00158432
*CONN
*I *1015:B1 I *D sky130_fd_sc_hd__o211ai_2
*I *1013:Y O *D sky130_fd_sc_hd__nand2_1
*CAP
1 *1015:B1 0.000385764
2 *1013:Y 0.000385764
3 *1015:B1 *860:A 0.000139913
4 *1015:B1 *860:B 5.13467e-05
5 *1015:B1 *874:A1 5.52238e-05
6 *1015:B1 *215:8 0.000116413
7 *1015:B1 *215:16 0.000174544
8 *1015:B1 *272:26 0.000121733
9 *68:29 *1015:B1 8.81984e-05
10 *68:41 *1015:B1 6.54227e-05
*RES
1 *1013:Y *1015:B1 36.85 
*END

*D_NET *172 0.000772613
*CONN
*I *1015:C1 I *D sky130_fd_sc_hd__o211ai_2
*I *1014:X O *D sky130_fd_sc_hd__o22a_1
*CAP
1 *1015:C1 0.000321807
2 *1014:X 0.000321807
3 *1015:C1 *307:114 0
4 *68:41 *1015:C1 7.58841e-05
5 *163:10 *1015:C1 1.57786e-05
6 *167:8 *1015:C1 3.73361e-05
*RES
1 *1014:X *1015:C1 32.6179 
*END

*D_NET *173 0.00233649
*CONN
*I *1034:A2 I *D sky130_fd_sc_hd__o31a_1
*I *1022:A2 I *D sky130_fd_sc_hd__a31o_1
*I *1015:Y O *D sky130_fd_sc_hd__o211ai_2
*CAP
1 *1034:A2 0.000121408
2 *1022:A2 0
3 *1015:Y 0.000270158
4 *173:10 0.000391567
5 *1034:A2 *1022:A3 0.000209925
6 *1034:A2 *1034:B1 2.02727e-05
7 *1034:A2 *1040:B2 5.50052e-05
8 *173:10 *1022:A3 1.02504e-05
9 *173:10 *272:26 0.00014183
10 *1004:A2 *1034:A2 0
11 *1034:A1 *1034:A2 0.000119053
12 *127:10 *173:10 0
13 *162:10 *173:10 0.000457255
14 *163:10 *1034:A2 1.02504e-05
15 *163:10 *173:10 0.000529514
*RES
1 *1015:Y *173:10 21.9607 
2 *173:10 *1022:A2 13.8 
3 *173:10 *1034:A2 17.1929 
*END

*D_NET *174 0.00106799
*CONN
*I *1017:A I *D sky130_fd_sc_hd__xnor2_1
*I *1016:X O *D sky130_fd_sc_hd__or2b_1
*CAP
1 *1017:A 0.000287684
2 *1016:X 0.000287684
3 *1017:A *1034:B1 0
4 *1017:A *213:74 0.000304847
5 *1017:A *214:80 1.03968e-05
6 *1004:A1 *1017:A 0.000177373
7 *1004:A2 *1017:A 0
*RES
1 *1016:X *1017:A 33.4393 
*END

*D_NET *175 0.000956146
*CONN
*I *1033:A I *D sky130_fd_sc_hd__or4b_1
*I *1020:B I *D sky130_fd_sc_hd__and3_1
*I *1017:Y O *D sky130_fd_sc_hd__xnor2_1
*CAP
1 *1033:A 6.70934e-05
2 *1020:B 0.000118331
3 *1017:Y 3.02238e-05
4 *175:8 0.000215648
5 *1020:B *293:44 0.000185403
6 *1033:A *1040:B1 5.33005e-05
7 *1033:A *212:88 7.64966e-05
8 *1033:A *293:44 5.33005e-05
9 *175:8 *1034:A3 7.74135e-05
10 *175:8 *212:88 7.89362e-05
11 *160:8 *1033:A 0
*RES
1 *1017:Y *175:8 14.8357 
2 *175:8 *1020:B 16.425 
3 *175:8 *1033:A 15.3714 
*END

*D_NET *176 0.000304451
*CONN
*I *1019:B I *D sky130_fd_sc_hd__xnor2_1
*I *1018:Y O *D sky130_fd_sc_hd__nor2_1
*CAP
1 *1019:B 8.78994e-05
2 *1018:Y 8.78994e-05
3 *998:B *1019:B 4.51234e-05
4 *144:20 *1019:B 5.50052e-05
5 *155:23 *1019:B 2.85234e-05
*RES
1 *1018:Y *1019:B 20.3679 
*END

*D_NET *177 0.00221762
*CONN
*I *1031:B1_N I *D sky130_fd_sc_hd__o21ba_1
*I *1020:C I *D sky130_fd_sc_hd__and3_1
*I *1019:Y O *D sky130_fd_sc_hd__xnor2_1
*CAP
1 *1031:B1_N 0.000409378
2 *1020:C 0.000173649
3 *1019:Y 4.36033e-05
4 *177:8 0.00062663
5 *1020:C *1040:B1 5.50052e-05
6 *1020:C *212:88 7.58841e-05
7 *1020:C *293:44 3.02916e-05
8 *1031:B1_N *1033:C 2.31446e-05
9 *1031:B1_N *1033:D_N 1.8104e-05
10 *1031:B1_N *183:10 8.27736e-05
11 *1031:B1_N *212:88 4.13617e-05
12 *993:D *1031:B1_N 0.000224592
13 *998:B *177:8 5.33005e-05
14 *1020:A *1020:C 7.79164e-05
15 *1020:A *1031:B1_N 9.56189e-05
16 *1029:A1 *1031:B1_N 0.000119684
17 *156:14 *1031:B1_N 6.66813e-05
*RES
1 *1019:Y *177:8 14.3357 
2 *177:8 *1020:C 16.675 
3 *177:8 *1031:B1_N 23.1929 
*END

*D_NET *178 0.00122334
*CONN
*I *1022:A3 I *D sky130_fd_sc_hd__a31o_1
*I *1020:X O *D sky130_fd_sc_hd__and3_1
*CAP
1 *1022:A3 0.000365509
2 *1020:X 0.000365509
3 *1022:A3 *293:44 0.000143828
4 *1034:A2 *1022:A3 0.000209925
5 *1037:A *1022:A3 7.85428e-05
6 *127:10 *1022:A3 4.97791e-05
7 *173:10 *1022:A3 1.02504e-05
*RES
1 *1020:X *1022:A3 34.2607 
*END

*D_NET *179 0.00845569
*CONN
*I *1034:B1 I *D sky130_fd_sc_hd__o31a_1
*I *1022:B1 I *D sky130_fd_sc_hd__a31o_1
*I *1045:C I *D sky130_fd_sc_hd__or3_1
*I *1021:X O *D sky130_fd_sc_hd__and2_1
*CAP
1 *1034:B1 0.00011414
2 *1022:B1 0
3 *1045:C 0.000848701
4 *1021:X 0
5 *179:37 0.00131363
6 *179:4 0.00204819
7 *1034:B1 *1040:B2 5.50052e-05
8 *1045:C *879:B 0.000146732
9 *1045:C *882:A 5.33005e-05
10 *1045:C *884:A 0.000482203
11 *1045:C *890:A 0.000139281
12 *1045:C *890:C 3.50746e-05
13 *1045:C *924:B 0.000195126
14 *1045:C *266:34 0.000144268
15 *1045:C *266:65 0.000131969
16 *1045:C *267:21 0.000178503
17 *1045:C *311:62 0.000287861
18 *1045:C *311:72 0.000139337
19 *179:37 *264:30 0.000406868
20 *179:37 *272:26 8.32893e-05
21 *902:C *1045:C 2.83493e-05
22 *918:A_N *179:37 9.7497e-05
23 *934:A1 *179:37 9.58181e-05
24 *1003:B *179:37 0.000313241
25 *1004:A2 *1034:B1 6.17406e-05
26 *1004:B1 *1034:B1 3.51442e-05
27 *1004:B1 *179:37 0.000114045
28 *1017:A *1034:B1 0
29 *1034:A1 *1034:B1 0.000129303
30 *1034:A2 *1034:B1 2.02727e-05
31 *55:10 *179:37 9.15842e-06
32 *74:29 *179:37 0.000137983
33 *161:10 *179:37 0.000249562
34 *163:10 *1034:B1 2.48938e-05
35 *163:10 *179:37 0.000335208
*RES
1 *1021:X *179:4 9.3 
2 *179:4 *1045:C 36.5321 
3 *179:4 *179:37 36.6429 
4 *179:37 *1022:B1 13.8 
5 *179:37 *1034:B1 16.8893 
*END

*D_NET *180 0.00222097
*CONN
*I *1039:A2 I *D sky130_fd_sc_hd__a31o_1
*I *1043:A2 I *D sky130_fd_sc_hd__a31o_1
*I *1035:A3 I *D sky130_fd_sc_hd__a31o_1
*I *1022:X O *D sky130_fd_sc_hd__a31o_1
*CAP
1 *1039:A2 0
2 *1043:A2 6.91545e-05
3 *1035:A3 0.000193038
4 *1022:X 0.000146605
5 *180:25 0.00023705
6 *180:6 0.000507539
7 *1035:A3 *1035:B1 0.000141729
8 *1035:A3 *214:96 2.89016e-05
9 *1035:A3 *245:51 9.77264e-06
10 *1035:A3 *245:72 4.78308e-05
11 *1043:A2 *1039:A1 5.65955e-05
12 *1043:A2 *1039:A3 0.000309456
13 *1043:A2 *1043:A1 3.64304e-05
14 *1043:A2 *1043:A3 1.46148e-05
15 *1043:A2 *1043:B1 0.00013926
16 *180:6 *245:72 1.74352e-05
17 *180:6 *277:24 1.34703e-05
18 *180:25 *1035:B1 7.6997e-05
19 *180:25 *245:72 0.000175087
*RES
1 *1022:X *180:6 11.0679 
2 *180:6 *1035:A3 13.1571 
3 *180:6 *180:25 11.5893 
4 *180:25 *1043:A2 12.3 
5 *180:25 *1039:A2 9.3 
*END

*D_NET *181 0.000454992
*CONN
*I *1026:A2 I *D sky130_fd_sc_hd__o221a_1
*I *1023:Y O *D sky130_fd_sc_hd__inv_2
*CAP
1 *1026:A2 0.000122658
2 *1023:Y 0.000122658
3 *1026:A2 *182:21 5.33005e-05
4 *1023:A *1026:A2 0.000110555
5 *1026:A1 *1026:A2 4.58194e-05
*RES
1 *1023:Y *1026:A2 21.1893 
*END

*D_NET *182 0.00345645
*CONN
*I *1030:A1 I *D sky130_fd_sc_hd__o21ai_1
*I *1029:B1 I *D sky130_fd_sc_hd__o21a_1
*I *1026:B2 I *D sky130_fd_sc_hd__o221a_1
*I *1024:Y O *D sky130_fd_sc_hd__inv_2
*CAP
1 *1030:A1 0.000336369
2 *1029:B1 0.000125928
3 *1026:B2 2.08167e-05
4 *1024:Y 0.000417816
5 *182:21 0.000578401
6 *182:8 0.000554736
7 *1029:B1 *1027:B 7.03763e-05
8 *1030:A1 *1030:A2 7.71475e-06
9 *1030:A1 *1032:B1 0.000141734
10 *1030:A1 *1032:C1 1.02821e-05
11 *1026:A1 *182:8 7.49387e-06
12 *1026:A1 *182:21 1.55885e-05
13 *1026:A2 *182:21 5.33005e-05
14 *1032:A1 *1029:B1 5.41794e-05
15 *1032:A1 *182:21 0.000168939
16 *1032:A2 *1030:A1 9.60939e-05
17 *125:19 *182:8 9.31893e-05
18 *147:8 *1029:B1 8.00806e-05
19 *147:8 *182:21 0.000160403
20 *147:12 *1029:B1 0.000197269
21 *157:14 *1026:B2 0
22 *157:14 *182:8 0.000142856
23 *157:23 *1026:B2 9.81124e-06
24 *157:23 *182:8 0.000113073
*RES
1 *1024:Y *182:8 15.1929 
2 *182:8 *1026:B2 9.72857 
3 *182:8 *182:21 7.69643 
4 *182:21 *1029:B1 17.2643 
5 *182:21 *1030:A1 18.3536 
*END

*D_NET *183 0.0031075
*CONN
*I *1026:C1 I *D sky130_fd_sc_hd__o221a_1
*I *1030:A2 I *D sky130_fd_sc_hd__o21ai_1
*I *1025:Y O *D sky130_fd_sc_hd__inv_2
*CAP
1 *1026:C1 0.000150316
2 *1030:A2 0.000555025
3 *1025:Y 0.00022559
4 *183:10 0.00093093
5 *1030:A2 *1032:C1 2.42516e-05
6 *993:A *1026:C1 2.14378e-05
7 *993:A *183:10 5.56943e-05
8 *993:D *1026:C1 7.07676e-05
9 *993:D *183:10 7.6021e-05
10 *1001:A2 *1026:C1 0.000175519
11 *1002:A2 *183:10 5.10039e-05
12 *1002:B1 *1026:C1 9.90431e-05
13 *1002:B1 *183:10 1.9643e-05
14 *1020:A *183:10 5.80706e-06
15 *1023:A *1026:C1 1.24368e-05
16 *1026:A1 *1026:C1 3.57366e-05
17 *1030:A1 *1030:A2 7.71475e-06
18 *1030:B1 *1030:A2 0.000310078
19 *1031:A2 *1030:A2 6.05161e-06
20 *1031:B1_N *183:10 8.27736e-05
21 *1032:A2 *1030:A2 2.15245e-05
22 *125:19 *1026:C1 0
23 *150:8 *1026:C1 6.8646e-06
24 *150:10 *1026:C1 2.1527e-05
25 *151:10 *183:10 5.33882e-05
26 *156:14 *183:10 1.35465e-05
27 *157:23 *1026:C1 7.48091e-05
*RES
1 *1025:Y *183:10 18.6214 
2 *183:10 *1030:A2 20.4964 
3 *183:10 *1026:C1 18.4429 
*END

*D_NET *184 0.000648537
*CONN
*I *1027:B I *D sky130_fd_sc_hd__nor2_1
*I *1026:X O *D sky130_fd_sc_hd__o221a_1
*CAP
1 *1027:B 0.000258606
2 *1026:X 0.000258606
3 *1029:B1 *1027:B 7.03763e-05
4 *1032:A1 *1027:B 6.09476e-05
*RES
1 *1026:X *1027:B 31.975 
*END

*D_NET *185 0.00136576
*CONN
*I *1033:B I *D sky130_fd_sc_hd__or4b_1
*I *1027:Y O *D sky130_fd_sc_hd__nor2_1
*CAP
1 *1033:B 0.000610076
2 *1027:Y 0.000610076
3 *1033:B *1033:C 0
4 *1033:B *1040:B2 2.56395e-05
5 *1033:B *293:44 0.000119969
*RES
1 *1027:Y *1033:B 37.85 
*END

*D_NET *186 0.00119966
*CONN
*I *1029:A2 I *D sky130_fd_sc_hd__o21a_1
*I *1028:X O *D sky130_fd_sc_hd__and2b_1
*CAP
1 *1029:A2 0.000274946
2 *1028:X 0.000274946
3 *993:B *1029:A2 0.000443648
4 *993:C *1029:A2 3.37689e-05
5 *1001:B1 *1029:A2 8.07313e-05
6 *151:10 *1029:A2 9.16173e-05
*RES
1 *1028:X *1029:A2 25.2964 
*END

*D_NET *187 0.0016734
*CONN
*I *1033:C I *D sky130_fd_sc_hd__or4b_1
*I *1029:X O *D sky130_fd_sc_hd__o21a_1
*CAP
1 *1033:C 0.000476648
2 *1029:X 0.000476648
3 *1033:C *1033:D_N 0.000366961
4 *1033:C *1040:B1 5.49995e-05
5 *1033:C *212:88 7.30302e-05
6 *1033:C *293:44 5.66971e-05
7 *993:C *1033:C 1.24368e-05
8 *998:A *1033:C 7.22772e-05
9 *1027:A *1033:C 5.04705e-05
10 *1031:B1_N *1033:C 2.31446e-05
11 *1033:B *1033:C 0
12 *156:14 *1033:C 1.00887e-05
*RES
1 *1029:X *1033:C 46.475 
*END

*D_NET *188 0.000334487
*CONN
*I *1032:B1 I *D sky130_fd_sc_hd__o211a_1
*I *1030:Y O *D sky130_fd_sc_hd__o21ai_1
*CAP
1 *1032:B1 4.18095e-05
2 *1030:Y 4.18095e-05
3 *1032:B1 *1032:C1 5.74596e-05
4 *1030:A1 *1032:B1 0.000141734
5 *1030:B1 *1032:B1 1.59373e-05
6 *1032:A2 *1032:B1 3.57366e-05
*RES
1 *1030:Y *1032:B1 20.3857 
*END

*D_NET *189 0.000801216
*CONN
*I *1032:C1 I *D sky130_fd_sc_hd__o211a_1
*I *1031:X O *D sky130_fd_sc_hd__o21ba_1
*CAP
1 *1032:C1 0.00012541
2 *1031:X 0.00012541
3 *1030:A1 *1032:C1 1.02821e-05
4 *1030:A2 *1032:C1 2.42516e-05
5 *1030:B1 *1032:C1 0.00026736
6 *1032:A2 *1032:C1 0.000191041
7 *1032:B1 *1032:C1 5.74596e-05
*RES
1 *1031:X *1032:C1 22.9929 
*END

*D_NET *190 0.00168279
*CONN
*I *1033:D_N I *D sky130_fd_sc_hd__or4b_1
*I *1032:X O *D sky130_fd_sc_hd__o211a_1
*CAP
1 *1033:D_N 0.000425606
2 *1032:X 0.000425606
3 *1033:D_N *1040:B2 1.00887e-05
4 *1029:A1 *1033:D_N 0.000199698
5 *1031:B1_N *1033:D_N 1.8104e-05
6 *1033:C *1033:D_N 0.000366961
7 *147:12 *1033:D_N 0.000199698
8 *156:14 *1033:D_N 3.70252e-05
*RES
1 *1032:X *1033:D_N 37.7964 
*END

*D_NET *191 0.00103451
*CONN
*I *1034:A3 I *D sky130_fd_sc_hd__o31a_1
*I *1033:X O *D sky130_fd_sc_hd__or4b_1
*CAP
1 *1034:A3 0.000304053
2 *1033:X 0.000304053
3 *1034:A3 *1040:B2 0.000348987
4 *175:8 *1034:A3 7.74135e-05
*RES
1 *1033:X *1034:A3 32.475 
*END

*D_NET *192 0.00197739
*CONN
*I *1035:B1 I *D sky130_fd_sc_hd__a31o_1
*I *1039:B1 I *D sky130_fd_sc_hd__a31o_1
*I *1043:B1 I *D sky130_fd_sc_hd__a31o_1
*I *1034:X O *D sky130_fd_sc_hd__o31a_1
*CAP
1 *1035:B1 0.000100273
2 *1039:B1 0
3 *1043:B1 3.04263e-05
4 *1034:X 0.000136768
5 *192:18 0.000191668
6 *192:10 0.000398283
7 *1035:B1 *245:72 0.000164302
8 *1043:B1 *1043:A1 0.00013926
9 *192:10 *1039:A1 7.8116e-05
10 *192:10 *1039:A3 2.25101e-05
11 *192:10 *1040:B2 0.000182811
12 *192:18 *996:D 3.32056e-05
13 *192:18 *1039:A3 0.00013939
14 *192:18 *245:72 2.38651e-06
15 *1035:A3 *1035:B1 0.000141729
16 *1043:A2 *1043:B1 0.00013926
17 *180:25 *1035:B1 7.6997e-05
*RES
1 *1034:X *192:10 12.4429 
2 *192:10 *192:18 11.3929 
3 *192:18 *1043:B1 10.6571 
4 *192:18 *1039:B1 9.3 
5 *192:10 *1035:B1 21.3 
*END

*D_NET *193 0.00594878
*CONN
*I *1036:B2 I *D sky130_fd_sc_hd__a22o_1
*I *1035:X O *D sky130_fd_sc_hd__a31o_1
*CAP
1 *1036:B2 0.000241662
2 *1035:X 0.00188022
3 *193:20 0.00212188
4 *1036:B2 *974:D 2.2131e-05
5 *1036:B2 *1036:A1 0.00014925
6 *1036:B2 *1036:A2 8.34584e-05
7 *1036:B2 *1036:B1 2.97155e-05
8 *1036:B2 *277:14 1.34741e-05
9 *193:20 *996:D 8.61133e-05
10 *193:20 *1036:A1 0.000219663
11 *193:20 *1043:A3 7.58841e-05
12 *193:20 *1044:A2 0.000226867
13 *193:20 *1044:B2 3.97677e-05
14 *193:20 *1089:A 1.58163e-05
15 *193:20 *213:74 0
16 *193:20 *214:96 5.56095e-05
17 *193:20 *247:94 9.85599e-06
18 *193:20 *293:44 0.000435643
19 *925:B *193:20 1.03565e-05
20 *1065:D *1036:B2 4.86056e-05
21 *83:20 *193:20 0.000182811
*RES
1 *1035:X *193:20 48.425 
2 *193:20 *1036:B2 18.55 
*END

*D_NET *194 0.000515952
*CONN
*I *1039:A1 I *D sky130_fd_sc_hd__a31o_1
*I *1037:Y O *D sky130_fd_sc_hd__inv_2
*CAP
1 *1039:A1 8.74496e-05
2 *1037:Y 8.74496e-05
3 *1039:A1 *1039:A3 2.36643e-05
4 *1039:A1 *1043:A1 0.000182677
5 *1043:A2 *1039:A1 5.65955e-05
6 *192:10 *1039:A1 7.8116e-05
*RES
1 *1037:Y *1039:A1 21.1893 
*END

*D_NET *195 0.00116228
*CONN
*I *1039:A3 I *D sky130_fd_sc_hd__a31o_1
*I *1038:X O *D sky130_fd_sc_hd__a22o_1
*CAP
1 *1039:A3 0.000273624
2 *1038:X 0.000273624
3 *1039:A3 *1040:B2 0
4 *1039:A3 *1043:A3 1.13883e-05
5 *1039:A3 *214:96 0.00010862
6 *1039:A1 *1039:A3 2.36643e-05
7 *1043:A2 *1039:A3 0.000309456
8 *192:10 *1039:A3 2.25101e-05
9 *192:18 *1039:A3 0.00013939
*RES
1 *1038:X *1039:A3 24.5107 
*END

*D_NET *196 0.00236156
*CONN
*I *1040:B2 I *D sky130_fd_sc_hd__a22o_1
*I *1039:X O *D sky130_fd_sc_hd__a31o_1
*CAP
1 *1040:B2 0.000733021
2 *1039:X 0.000733021
3 *1017:B *1040:B2 0.000141941
4 *1033:B *1040:B2 2.56395e-05
5 *1033:D_N *1040:B2 1.00887e-05
6 *1034:A1 *1040:B2 7.60439e-05
7 *1034:A2 *1040:B2 5.50052e-05
8 *1034:A3 *1040:B2 0.000348987
9 *1034:B1 *1040:B2 5.50052e-05
10 *1039:A3 *1040:B2 0
11 *192:10 *1040:B2 0.000182811
*RES
1 *1039:X *1040:B2 41.6714 
*END

*D_NET *197 0.00103539
*CONN
*I *1043:A1 I *D sky130_fd_sc_hd__a31o_1
*I *1041:Y O *D sky130_fd_sc_hd__inv_2
*CAP
1 *1043:A1 0.000262693
2 *1041:Y 0.000262693
3 *1043:A1 *1043:A3 7.34661e-05
4 *1043:A1 *245:72 3.84349e-05
5 *1039:A1 *1043:A1 0.000182677
6 *1043:A2 *1043:A1 3.64304e-05
7 *1043:B1 *1043:A1 0.00013926
8 *127:10 *1043:A1 3.9733e-05
*RES
1 *1041:Y *1043:A1 33.3143 
*END

*D_NET *198 0.00136573
*CONN
*I *1043:A3 I *D sky130_fd_sc_hd__a31o_1
*I *1042:X O *D sky130_fd_sc_hd__a21o_1
*CAP
1 *1043:A3 0.000403897
2 *1042:X 0.000403897
3 *1043:A3 *995:A1 9.41642e-05
4 *1043:A3 *996:C 1.2382e-05
5 *1043:A3 *996:D 0.000146081
6 *1043:A3 *213:54 0
7 *1043:A3 *245:72 0
8 *1043:A3 *245:107 7.58841e-05
9 *983:D *1043:A3 1.00887e-05
10 *1039:A3 *1043:A3 1.13883e-05
11 *1043:A1 *1043:A3 7.34661e-05
12 *1043:A2 *1043:A3 1.46148e-05
13 *140:10 *1043:A3 3.00989e-05
14 *153:8 *1043:A3 1.38796e-05
15 *193:20 *1043:A3 7.58841e-05
*RES
1 *1042:X *1043:A3 34.5107 
*END

*D_NET *199 0.00375939
*CONN
*I *1044:B2 I *D sky130_fd_sc_hd__a22o_1
*I *1043:X O *D sky130_fd_sc_hd__a31o_1
*CAP
1 *1044:B2 0.00112533
2 *1043:X 0.00112533
3 *1044:B2 *911:B 0.000129261
4 *1044:B2 *912:B2 8.02315e-05
5 *1044:B2 *982:B1 0.000179191
6 *1044:B2 *1038:A2 7.36469e-05
7 *1044:B2 *1044:A2 5.49489e-05
8 *1044:B2 *1067:RESET_B 5.20669e-05
9 *1044:B2 *211:50 5.33005e-05
10 *1044:B2 *214:96 2.2131e-05
11 *1044:B2 *244:33 0.000147531
12 *1044:B2 *265:51 1.62025e-05
13 *1044:B2 *265:68 0.000136727
14 *1044:B2 *280:10 0.000223542
15 *1044:B2 *296:86 0
16 *926:B1 *1044:B2 1.62025e-05
17 *69:8 *1044:B2 9.41642e-05
18 *69:14 *1044:B2 3.46799e-05
19 *70:6 *1044:B2 5.33005e-05
20 *70:10 *1044:B2 0.000101824
21 *193:20 *1044:B2 3.97677e-05
*RES
1 *1043:X *1044:B2 45.975 
*END

*D_NET *200 0.000895356
*CONN
*I *1046:B1_N I *D sky130_fd_sc_hd__a21bo_1
*I *1045:X O *D sky130_fd_sc_hd__or3_1
*CAP
1 *1046:B1_N 0.000322667
2 *1045:X 0.000322667
3 *1046:B1_N *211:10 8.86787e-05
4 *1046:B1_N *243:65 0.000138432
5 *1046:B1_N *281:10 2.29112e-05
*RES
1 *1045:X *1046:B1_N 33.2429 
*END

*D_NET *201 0.000587695
*CONN
*I *1048:B1 I *D sky130_fd_sc_hd__a31o_1
*I *1047:X O *D sky130_fd_sc_hd__and2_1
*CAP
1 *1048:B1 0.000286832
2 *1047:X 0.000286832
3 *1048:B1 *849:A 1.40306e-05
4 *1048:B1 *1060:A1 0
5 *1048:B1 *1092:A 0
*RES
1 *1047:X *1048:B1 32.2071 
*END

*D_NET *202 0.000134349
*CONN
*I *1050:B1 I *D sky130_fd_sc_hd__a31o_1
*I *1049:X O *D sky130_fd_sc_hd__and2_1
*CAP
1 *1050:B1 5.12405e-05
2 *1049:X 5.12405e-05
3 *1050:B1 *1049:A 3.18676e-05
*RES
1 *1049:X *1050:B1 19.5464 
*END

*D_NET *203 0.000232728
*CONN
*I *1052:B1 I *D sky130_fd_sc_hd__a31o_1
*I *1051:X O *D sky130_fd_sc_hd__and2_1
*CAP
1 *1052:B1 6.71273e-05
2 *1051:X 6.71273e-05
3 *1052:B1 *211:128 9.84729e-05
*RES
1 *1051:X *1052:B1 19.9571 
*END

*D_NET *204 0.000110882
*CONN
*I *1054:B1 I *D sky130_fd_sc_hd__a31o_1
*I *1053:X O *D sky130_fd_sc_hd__and2_1
*CAP
1 *1054:B1 5.54411e-05
2 *1053:X 5.54411e-05
*RES
1 *1053:X *1054:B1 19.5464 
*END

*D_NET *205 0.000911166
*CONN
*I *1056:B1 I *D sky130_fd_sc_hd__a31o_1
*I *1055:X O *D sky130_fd_sc_hd__and2_1
*CAP
1 *1056:B1 0.000194981
2 *1055:X 0.000194981
3 *1056:B1 *870:B1 1.16543e-05
4 *1056:B1 *1055:A 0.000219453
5 *1056:B1 *209:16 5.80706e-06
6 *1056:B1 *209:22 0.000165387
7 *1056:B1 *211:122 0.000118903
*RES
1 *1055:X *1056:B1 32.6179 
*END

*D_NET *206 0.0010202
*CONN
*I *1058:B1 I *D sky130_fd_sc_hd__a31o_1
*I *1057:X O *D sky130_fd_sc_hd__and2_1
*CAP
1 *1058:B1 0.000181787
2 *1057:X 0.000181787
3 *1058:B1 *1074:RESET_B 0.000125717
4 *1058:B1 *209:45 8.25098e-05
5 *1058:B1 *209:58 0.000270229
6 *1058:B1 *265:10 8.40012e-05
7 *1058:B1 *276:22 9.41642e-05
*RES
1 *1057:X *1058:B1 32.9214 
*END

*D_NET *207 0.00137457
*CONN
*I *1060:B1 I *D sky130_fd_sc_hd__a31o_1
*I *1059:X O *D sky130_fd_sc_hd__and2_1
*CAP
1 *1060:B1 0.000194537
2 *1059:X 0.000194537
3 *1060:B1 *1060:A1 0.000628938
4 *1060:B1 *1093:A 0
5 *1060:B1 *243:24 0.000315806
6 *1069:D *1060:B1 4.07505e-05
*RES
1 *1059:X *1060:B1 34.6714 
*END

*D_NET *208 0.00039733
*CONN
*I *1062:B1 I *D sky130_fd_sc_hd__a31o_1
*I *1061:X O *D sky130_fd_sc_hd__and2_1
*CAP
1 *1062:B1 7.41565e-05
2 *1061:X 7.41565e-05
3 *1062:B1 *1062:A1 2.89114e-05
4 *1062:B1 *209:32 0.000101981
5 *1062:B1 *243:42 6.89313e-05
6 *1062:B1 *265:10 4.91937e-05
*RES
1 *1061:X *1062:B1 29.9036 
*END

*D_NET *209 0.0165634
*CONN
*I *1054:A2 I *D sky130_fd_sc_hd__a31o_1
*I *1052:A2 I *D sky130_fd_sc_hd__a31o_1
*I *1050:A2 I *D sky130_fd_sc_hd__a31o_1
*I *1056:A2 I *D sky130_fd_sc_hd__a31o_1
*I *1048:A2 I *D sky130_fd_sc_hd__a31o_1
*I *1060:A2 I *D sky130_fd_sc_hd__a31o_1
*I *880:A2 I *D sky130_fd_sc_hd__o21ba_1
*I *845:A I *D sky130_fd_sc_hd__inv_2
*I *1058:A2 I *D sky130_fd_sc_hd__a31o_1
*I *1062:A2 I *D sky130_fd_sc_hd__a31o_1
*I *844:X O *D sky130_fd_sc_hd__clkbuf_4
*CAP
1 *1054:A2 0.000347792
2 *1052:A2 0
3 *1050:A2 3.70382e-05
4 *1056:A2 0
5 *1048:A2 2.13113e-05
6 *1060:A2 2.13113e-05
7 *880:A2 0.000240584
8 *845:A 7.61159e-05
9 *1058:A2 7.37262e-05
10 *1062:A2 0
11 *844:X 0
12 *209:58 0.000451783
13 *209:45 0.000405165
14 *209:32 0.00108562
15 *209:24 0.00118946
16 *209:22 0.00220774
17 *209:16 0.00204539
18 *209:14 0.000391355
19 *209:10 0.000555749
20 *209:4 0.000687078
21 *845:A *1057:B 0
22 *845:A *210:49 9.41642e-05
23 *880:A2 *1074:RESET_B 0.000202936
24 *880:A2 *211:10 0.000519611
25 *880:A2 *211:35 0.000221688
26 *880:A2 *293:66 0.000184246
27 *1050:A2 *1050:A1 2.13661e-05
28 *1050:A2 *1050:A3 1.24368e-05
29 *1054:A2 *1054:A3 0.000596971
30 *1054:A2 *211:132 0
31 *1058:A2 *1058:A1 6.05161e-06
32 *1058:A2 *211:10 1.21258e-05
33 *209:10 *844:A 2.51343e-06
34 *209:10 *1054:A3 0.000125382
35 *209:10 *211:128 3.67279e-06
36 *209:10 *211:132 0
37 *209:14 *1054:A3 1.6815e-05
38 *209:14 *211:128 0
39 *209:14 *243:121 0.000169267
40 *209:16 *211:122 8.42341e-05
41 *209:16 *211:128 0
42 *209:16 *243:110 7.15687e-05
43 *209:16 *243:121 3.17163e-05
44 *209:16 *310:28 4.73656e-05
45 *209:22 *1048:A1 0.000532245
46 *209:22 *1055:A 1.5864e-05
47 *209:22 *243:20 0.000769432
48 *209:22 *275:8 0
49 *209:22 *310:28 0.000246057
50 *209:22 *311:12 0.000164249
51 *209:24 *1060:A1 0.000402747
52 *209:24 *243:20 1.62025e-05
53 *209:24 *243:24 6.07332e-05
54 *209:32 *1061:A 0
55 *209:32 *1076:CLK 0.000153488
56 *209:32 *1076:RESET_B 0.000276985
57 *209:32 *243:24 6.92966e-06
58 *209:32 *243:42 1.86277e-05
59 *209:32 *243:48 1.19402e-05
60 *209:32 *265:10 7.60228e-05
61 *209:45 *211:10 0.00013059
62 *209:45 *243:48 3.33721e-05
63 *209:45 *265:10 3.93893e-05
64 *209:58 *1074:RESET_B 4.56594e-05
65 *209:58 *211:10 0.000351559
66 *1056:B1 *209:16 5.80706e-06
67 *1056:B1 *209:22 0.000165387
68 *1058:B1 *209:45 8.25098e-05
69 *1058:B1 *209:58 0.000270229
70 *1062:B1 *209:32 0.000101981
71 *1070:D *1050:A2 2.89114e-05
72 *1070:D *209:14 0.000128154
73 *1071:D *209:10 6.45442e-05
74 *1076:D *209:32 0.00010243
*RES
1 *844:X *209:4 9.3 
2 *209:4 *209:10 11.5357 
3 *209:10 *209:14 5.21429 
4 *209:14 *209:16 3.16071 
5 *209:16 *209:22 43.1429 
6 *209:22 *209:24 5.875 
7 *209:24 *209:32 18.75 
8 *209:32 *1062:A2 13.8 
9 *209:32 *209:45 3.82143 
10 *209:45 *1058:A2 15.0679 
11 *209:45 *209:58 4.67857 
12 *209:58 *845:A 15.175 
13 *209:58 *880:A2 23.3357 
14 *209:24 *1060:A2 9.72857 
15 *209:22 *1048:A2 9.72857 
16 *209:16 *1056:A2 13.8 
17 *209:14 *1050:A2 14.7643 
18 *209:10 *1052:A2 13.8 
19 *209:4 *1054:A2 26.8536 
*END

*D_NET *210 0.00652747
*CONN
*I *1057:A I *D sky130_fd_sc_hd__and2_1
*I *1045:A I *D sky130_fd_sc_hd__or3_1
*I *1059:A I *D sky130_fd_sc_hd__and2_1
*I *846:A I *D sky130_fd_sc_hd__buf_2
*I *1061:A I *D sky130_fd_sc_hd__and2_1
*I *845:Y O *D sky130_fd_sc_hd__inv_2
*CAP
1 *1057:A 0
2 *1045:A 5.48601e-05
3 *1059:A 0.000314337
4 *846:A 0.000104393
5 *1061:A 0.00016869
6 *845:Y 0
7 *210:49 0.000164442
8 *210:23 0.000513345
9 *210:8 0.00049068
10 *210:6 0.000336959
11 *846:A *1126:A 0
12 *846:A *265:10 0.000170654
13 *1045:A *1074:RESET_B 0.000198368
14 *1045:A *265:51 0.000198368
15 *1059:A *849:A 0.000327038
16 *1059:A *1059:B 7.61932e-05
17 *1059:A *1062:A1 0.000899616
18 *1059:A *211:88 0.000702288
19 *1061:A *243:48 5.83233e-05
20 *210:8 *243:48 0.000175512
21 *210:8 *243:65 0.000311488
22 *210:8 *263:10 0
23 *210:23 *849:A 0.000351156
24 *210:23 *1062:A1 0.00014183
25 *210:23 *243:42 1.57414e-05
26 *210:23 *243:48 5.33433e-05
27 *210:49 *1057:B 9.60875e-05
28 *210:49 *243:65 5.58941e-05
29 *210:49 *263:10 0
30 *210:49 *276:12 4.1331e-06
31 *210:49 *276:22 0.000262504
32 *845:A *210:49 9.41642e-05
33 *1074:D *210:8 3.5707e-05
34 *1076:D *1061:A 0.00015136
35 *1094:A *1061:A 0
36 *209:32 *1061:A 0
*RES
1 *845:Y *210:6 13.8 
2 *210:6 *210:8 6.19643 
3 *210:8 *1061:A 17.4964 
4 *210:8 *210:23 7.91071 
5 *210:23 *846:A 20.55 
6 *210:23 *1059:A 21.3536 
7 *210:6 *210:49 7.82143 
8 *210:49 *1045:A 20.8536 
9 *210:49 *1057:A 9.3 
*END

*D_NET *211 0.0262236
*CONN
*I *1049:A I *D sky130_fd_sc_hd__and2_1
*I *1051:A I *D sky130_fd_sc_hd__and2_1
*I *1040:A1 I *D sky130_fd_sc_hd__a22o_1
*I *1053:A I *D sky130_fd_sc_hd__and2_1
*I *1055:A I *D sky130_fd_sc_hd__and2_1
*I *1047:A I *D sky130_fd_sc_hd__and2_1
*I *1044:A1 I *D sky130_fd_sc_hd__a22o_1
*I *1036:A1 I *D sky130_fd_sc_hd__a22o_1
*I *879:A I *D sky130_fd_sc_hd__nor2_1
*I *1046:A1 I *D sky130_fd_sc_hd__a21bo_1
*I *846:X O *D sky130_fd_sc_hd__buf_2
*CAP
1 *1049:A 0.000150731
2 *1051:A 0
3 *1040:A1 0.000824266
4 *1053:A 2.75619e-05
5 *1055:A 0.0001919
6 *1047:A 0
7 *1044:A1 0
8 *1036:A1 0.000263835
9 *879:A 2.04425e-05
10 *1046:A1 3.39029e-05
11 *846:X 0
12 *211:132 0.00146384
13 *211:128 0.000986692
14 *211:122 0.00076523
15 *211:105 0.00167485
16 *211:88 0.00230383
17 *211:50 0.000613139
18 *211:35 0.000960171
19 *211:10 0.00120098
20 *211:4 0.00163736
21 *879:A *1120:A 2.59355e-05
22 *879:A *261:91 5.33005e-05
23 *1036:A1 *1044:A2 5.29983e-05
24 *1036:A1 *277:14 0.000174682
25 *1040:A1 *1040:A2 0.000531444
26 *1040:A1 *1117:A 0.000487985
27 *1040:A1 *293:44 2.12087e-05
28 *1046:A1 *1087:A 2.59355e-05
29 *1049:A *1049:B 5.33334e-05
30 *1049:A *1050:A1 0
31 *1053:A *1053:B 2.85321e-05
32 *1055:A *870:B1 0.000255155
33 *1055:A *1055:B 0.000100165
34 *1055:A *1073:RESET_B 0
35 *211:10 *1058:A1 0.000308186
36 *211:10 *243:48 8.49318e-05
37 *211:10 *243:65 0.000581001
38 *211:10 *281:10 0
39 *211:35 *879:B 0.000123359
40 *211:35 *880:A1 0.000170638
41 *211:35 *880:B1_N 0.000114587
42 *211:35 *1065:CLK 4.56437e-05
43 *211:35 *1081:A 4.87953e-05
44 *211:35 *1119:A 0
45 *211:35 *261:81 7.83659e-05
46 *211:35 *281:10 0
47 *211:50 *880:B1_N 5.74233e-06
48 *211:50 *1044:A2 3.29242e-05
49 *211:50 *1044:B1 7.5689e-05
50 *211:50 *1065:CLK 0.00019384
51 *211:50 *1120:A 2.09177e-05
52 *211:50 *244:33 0.000407558
53 *211:50 *244:35 1.90936e-05
54 *211:50 *267:79 0.000347112
55 *211:88 *849:A 0.000239696
56 *211:88 *1058:A1 0.000406791
57 *211:88 *1060:A1 0
58 *211:88 *1092:A 2.8266e-06
59 *211:88 *261:12 0
60 *211:88 *293:84 3.42301e-05
61 *211:105 *849:A 9.7519e-05
62 *211:105 *870:A2 6.2554e-05
63 *211:105 *871:A1_N 0.000311663
64 *211:105 *871:A2_N 5.47001e-05
65 *211:105 *872:B1 1.15281e-05
66 *211:105 *1047:B 5.71472e-05
67 *211:105 *1048:A1 0.000141734
68 *211:105 *1050:A1 3.78423e-05
69 *211:105 *1073:CLK 7.50807e-05
70 *211:105 *1092:A 0.000186669
71 *211:105 *213:93 8.47099e-05
72 *211:105 *214:23 0.00152916
73 *211:105 *217:126 2.07491e-05
74 *211:105 *310:16 1.53434e-05
75 *211:105 *311:32 0.000126566
76 *211:105 *311:46 0.000758153
77 *211:122 *1073:RESET_B 0
78 *211:128 *1051:B 5.4959e-05
79 *211:128 *1073:RESET_B 0
80 *211:132 *312:31 0.000768041
81 *211:132 *312:33 0.000199782
82 *880:A2 *211:10 0.000519611
83 *880:A2 *211:35 0.000221688
84 *1010:B *211:105 0.000136416
85 *1011:A1 *211:105 2.14757e-05
86 *1012:A0 *211:105 6.62274e-05
87 *1036:B2 *1036:A1 0.00014925
88 *1044:B2 *211:50 5.33005e-05
89 *1046:B1_N *211:10 8.86787e-05
90 *1050:B1 *1049:A 3.18676e-05
91 *1052:B1 *211:128 9.84729e-05
92 *1054:A2 *211:132 0
93 *1056:B1 *1055:A 0.000219453
94 *1056:B1 *211:122 0.000118903
95 *1058:A2 *211:10 1.21258e-05
96 *1059:A *211:88 0.000702288
97 *1070:D *211:128 4.57445e-05
98 *63:12 *211:105 4.10026e-05
99 *168:6 *211:105 2.62365e-05
100 *193:20 *1036:A1 0.000219663
101 *209:10 *211:128 3.67279e-06
102 *209:10 *211:132 0
103 *209:14 *211:128 0
104 *209:16 *211:122 8.42341e-05
105 *209:16 *211:128 0
106 *209:22 *1055:A 1.5864e-05
107 *209:45 *211:10 0.00013059
108 *209:58 *211:10 0.000351559
*RES
1 *846:X *211:4 9.3 
2 *211:4 *211:10 20.7857 
3 *211:10 *1046:A1 14.3357 
4 *211:10 *211:35 19.9464 
5 *211:35 *879:A 14.3357 
6 *211:35 *211:50 14.2857 
7 *211:50 *1036:A1 24.8179 
8 *211:50 *1044:A1 9.3 
9 *211:4 *211:88 33.4643 
10 *211:88 *1047:A 9.3 
11 *211:88 *211:105 36.625 
12 *211:105 *1055:A 19.5679 
13 *211:105 *211:122 5.20536 
14 *211:122 *211:128 11.7768 
15 *211:128 *211:132 19.1964 
16 *211:132 *1053:A 14.3357 
17 *211:132 *1040:A1 29.5143 
18 *211:128 *1051:A 9.3 
19 *211:122 *1049:A 16.4071 
*END

*D_NET *212 0.0176491
*CONN
*I *943:A2 I *D sky130_fd_sc_hd__a22o_1
*I *995:A2 I *D sky130_fd_sc_hd__a22o_1
*I *866:A I *D sky130_fd_sc_hd__xnor2_1
*I *1052:A1 I *D sky130_fd_sc_hd__a31o_1
*I *862:A1 I *D sky130_fd_sc_hd__o31a_1
*I *850:B I *D sky130_fd_sc_hd__or4_1
*I *983:B I *D sky130_fd_sc_hd__and4_1
*I *928:B1 I *D sky130_fd_sc_hd__a22o_1
*I *944:C I *D sky130_fd_sc_hd__nand4_2
*I *929:D I *D sky130_fd_sc_hd__nand4_1
*I *847:X O *D sky130_fd_sc_hd__clkbuf_4
*CAP
1 *943:A2 7.39052e-05
2 *995:A2 2.42593e-05
3 *866:A 0
4 *1052:A1 0.000766939
5 *862:A1 0
6 *850:B 0
7 *983:B 0
8 *928:B1 3.46071e-05
9 *944:C 9.44868e-05
10 *929:D 0.000129701
11 *847:X 0.000881053
12 *212:108 0.000919059
13 *212:97 0.000588178
14 *212:88 0.00179189
15 *212:74 0.0015897
16 *212:61 0.000992462
17 *212:42 0.000884503
18 *212:31 0.000161521
19 *212:14 0.000409244
20 *212:12 0.0012345
21 *928:B1 *928:A2 5.46383e-06
22 *929:D *944:B 0.000146254
23 *929:D *974:D 2.59355e-05
24 *929:D *1036:B1 1.77608e-05
25 *929:D *296:71 0.000137969
26 *929:D *296:86 1.24368e-05
27 *944:C *944:B 2.59355e-05
28 *944:C *213:30 0.000202131
29 *995:A2 *995:A1 5.6647e-05
30 *1052:A1 *872:B1 0
31 *1052:A1 *873:B2 0
32 *1052:A1 *874:B1 0
33 *1052:A1 *875:B1 7.89362e-05
34 *1052:A1 *876:A1 0.000312762
35 *1052:A1 *876:A2 5.66943e-05
36 *1052:A1 *876:B2 0.000143758
37 *1052:A1 *877:B2 9.77072e-05
38 *1052:A1 *1052:A3 9.67754e-05
39 *1052:A1 *231:16 2.79092e-05
40 *1052:A1 *273:16 0.000270489
41 *212:12 *296:59 0.000202535
42 *212:14 *944:B 5.5764e-05
43 *212:14 *1118:A 0
44 *212:14 *296:59 0.000516752
45 *212:14 *296:71 9.29691e-05
46 *212:42 *928:A2 3.78275e-05
47 *212:42 *928:B2 2.84109e-05
48 *212:42 *944:B 2.59355e-05
49 *212:42 *213:30 0.000209378
50 *212:61 *928:A2 2.79421e-05
51 *212:61 *983:A 5.25759e-05
52 *212:61 *213:30 0.000544277
53 *212:74 *983:A 3.61656e-05
54 *212:74 *245:93 0.000133021
55 *212:74 *245:107 8.6229e-06
56 *212:88 *850:A 0.000150625
57 *212:88 *1040:B1 0.000287143
58 *212:88 *213:74 0.000115543
59 *212:88 *213:81 2.89016e-05
60 *212:88 *245:107 1.90936e-05
61 *212:97 *862:A2 0.00019932
62 *212:97 *862:A3 5.38444e-06
63 *212:97 *213:81 9.61553e-05
64 *212:108 *873:A2 0
65 *212:108 *874:B1 0
66 *212:108 *273:16 0.000167691
67 *931:A2 *212:61 0.000178503
68 *933:A1 *212:61 2.38501e-05
69 *933:A2 *212:61 7.94364e-06
70 *938:B *212:61 3.49456e-06
71 *945:A1 *212:12 0.00014261
72 *983:D *212:74 0.000212865
73 *983:D *212:88 2.02794e-05
74 *1004:A2 *212:88 0
75 *1020:A *212:88 0
76 *1020:C *212:88 7.58841e-05
77 *1031:B1_N *212:88 4.13617e-05
78 *1033:A *212:88 7.64966e-05
79 *1033:C *212:88 7.30302e-05
80 *86:14 *212:61 1.29975e-05
81 *87:10 *212:14 0
82 *87:23 *212:14 0
83 *89:6 *212:61 3.73361e-05
84 *89:15 *212:61 1.42299e-05
85 *90:18 *212:61 3.0114e-05
86 *96:10 *212:61 0.000180207
87 *98:14 *212:14 0
88 *101:12 *212:12 0.000170995
89 *102:20 *943:A2 9.41642e-05
90 *102:20 *212:12 3.20623e-05
91 *112:14 *212:12 3.6337e-05
92 *116:10 *943:A2 2.2351e-05
93 *119:8 *212:12 0.00073628
94 *141:8 *212:74 1.32056e-05
95 *175:8 *212:88 7.89362e-05
*RES
1 *847:X *212:12 28.2464 
2 *212:12 *212:14 7.71429 
3 *212:14 *929:D 17.2464 
4 *212:14 *212:31 4.5 
5 *212:31 *944:C 11.8 
6 *212:31 *212:42 2.17857 
7 *212:42 *928:B1 10.0321 
8 *212:42 *212:61 15.4107 
9 *212:61 *983:B 9.3 
10 *212:61 *212:74 9.55357 
11 *212:74 *212:88 22.758 
12 *212:88 *850:B 9.3 
13 *212:88 *212:97 6.5 
14 *212:97 *862:A1 9.3 
15 *212:97 *212:108 7.69643 
16 *212:108 *1052:A1 29.2464 
17 *212:108 *866:A 13.8 
18 *212:74 *995:A2 14.3357 
19 *212:12 *943:A2 15.1571 
*END

*D_NET *213 0.01788
*CONN
*I *944:D I *D sky130_fd_sc_hd__nand4_2
*I *996:C I *D sky130_fd_sc_hd__and4_1
*I *1038:A2 I *D sky130_fd_sc_hd__a22o_1
*I *862:A2 I *D sky130_fd_sc_hd__o31a_1
*I *865:A1 I *D sky130_fd_sc_hd__o21a_1
*I *1050:A1 I *D sky130_fd_sc_hd__a31o_1
*I *869:A I *D sky130_fd_sc_hd__xor2_1
*I *850:C I *D sky130_fd_sc_hd__or4_1
*I *982:A2 I *D sky130_fd_sc_hd__a22o_1
*I *974:C I *D sky130_fd_sc_hd__and4_1
*I *848:X O *D sky130_fd_sc_hd__clkbuf_4
*CAP
1 *944:D 0
2 *996:C 0.000175975
3 *1038:A2 5.40238e-05
4 *862:A2 8.52116e-05
5 *865:A1 4.32336e-05
6 *1050:A1 0.000968885
7 *869:A 3.64447e-05
8 *850:C 0
9 *982:A2 6.15072e-05
10 *974:C 0
11 *848:X 0.000155043
12 *213:93 0.00161037
13 *213:87 0.000756638
14 *213:81 0.000238728
15 *213:74 0.00151619
16 *213:60 0.00167155
17 *213:54 0.000703218
18 *213:37 0.000654512
19 *213:30 0.00124437
20 *213:12 0.00118717
21 *862:A2 *862:A3 0.000144499
22 *862:A2 *214:72 1.98839e-05
23 *865:A1 *865:A2 5.33433e-05
24 *865:A1 *217:98 0.000139907
25 *982:A2 *272:26 0.000121866
26 *1038:A2 *214:96 0.000129971
27 *1050:A1 *853:C_N 0.00013092
28 *1050:A1 *871:A1_N 2.12087e-05
29 *1050:A1 *877:A2 2.42516e-05
30 *1050:A1 *877:B1 7.63175e-05
31 *1050:A1 *877:B2 1.47972e-05
32 *1050:A1 *1050:A3 5.03772e-05
33 *1050:A1 *214:55 0
34 *1050:A1 *217:126 0
35 *1050:A1 *234:6 1.32056e-05
36 *1050:A1 *243:14 0.000113319
37 *1050:A1 *243:20 0.00014494
38 *213:12 *848:A 2.84109e-05
39 *213:12 *267:91 6.87265e-05
40 *213:30 *249:91 9.15842e-06
41 *213:30 *307:42 5.62114e-05
42 *213:37 *974:D 2.85321e-05
43 *213:54 *264:24 6.367e-05
44 *213:60 *264:24 7.31905e-05
45 *213:74 *850:A 0
46 *213:74 *1040:B1 0.000138406
47 *213:74 *214:72 5.62995e-05
48 *213:74 *214:80 1.74352e-05
49 *213:74 *214:96 1.90936e-05
50 *213:74 *264:24 1.448e-05
51 *213:81 *214:72 0.000119193
52 *213:87 *850:A 0
53 *213:87 *862:A3 0
54 *213:87 *862:B1 0
55 *213:87 *214:70 0.000173804
56 *213:87 *215:8 7.48356e-05
57 *213:93 *875:B2 7.89362e-05
58 *213:93 *214:55 0.00125517
59 *213:93 *214:70 2.31791e-05
60 *213:93 *215:8 0.000134737
61 *213:93 *215:16 0.000201596
62 *213:93 *217:126 9.60939e-05
63 *910:A *213:93 0.000245349
64 *931:A2 *213:30 2.00682e-05
65 *944:C *213:30 0.000202131
66 *981:A *213:37 7.22686e-05
67 *981:A *213:54 9.21611e-05
68 *1004:A1 *213:74 6.8646e-06
69 *1017:A *213:74 0.000304847
70 *1043:A3 *996:C 1.2382e-05
71 *1043:A3 *213:54 0
72 *1044:B2 *1038:A2 7.36469e-05
73 *1049:A *1050:A1 0
74 *1050:A2 *1050:A1 2.13661e-05
75 *3:27 *213:93 3.90796e-05
76 *66:10 *213:93 0.000193833
77 *82:8 *982:A2 5.59687e-05
78 *83:20 *213:30 4.19497e-05
79 *90:10 *213:30 4.20726e-05
80 *139:6 *213:54 4.68201e-05
81 *161:10 *213:74 0
82 *193:20 *213:74 0
83 *211:105 *1050:A1 3.78423e-05
84 *211:105 *213:93 8.47099e-05
85 *212:42 *213:30 0.000209378
86 *212:61 *213:30 0.000544277
87 *212:88 *213:74 0.000115543
88 *212:88 *213:81 2.89016e-05
89 *212:97 *862:A2 0.00019932
90 *212:97 *213:81 9.61553e-05
*RES
1 *848:X *213:12 20.8893 
2 *213:12 *213:30 24.3036 
3 *213:30 *974:C 9.3 
4 *213:30 *213:37 2.58929 
5 *213:37 *982:A2 19.9429 
6 *213:37 *213:54 10.0089 
7 *213:54 *213:60 2.75893 
8 *213:60 *213:74 19.8492 
9 *213:74 *850:C 9.3 
10 *213:74 *213:81 2.17857 
11 *213:81 *213:87 7.48214 
12 *213:87 *213:93 23.1964 
13 *213:93 *869:A 10.0321 
14 *213:93 *1050:A1 32.7643 
15 *213:87 *865:A1 15.1571 
16 *213:81 *862:A2 12.7107 
17 *213:60 *1038:A2 15.5857 
18 *213:54 *996:C 15.7375 
19 *213:12 *944:D 9.3 
*END

*D_NET *214 0.018171
*CONN
*I *862:A3 I *D sky130_fd_sc_hd__o31a_1
*I *850:D I *D sky130_fd_sc_hd__or4_1
*I *996:D I *D sky130_fd_sc_hd__and4_1
*I *1035:A2 I *D sky130_fd_sc_hd__a31o_1
*I *1038:B1 I *D sky130_fd_sc_hd__a22o_1
*I *982:B1 I *D sky130_fd_sc_hd__a22o_1
*I *865:A2 I *D sky130_fd_sc_hd__o21a_1
*I *868:B I *D sky130_fd_sc_hd__nand2_1
*I *871:A1_N I *D sky130_fd_sc_hd__o2bb2a_1
*I *1048:A1 I *D sky130_fd_sc_hd__a31o_1
*I *849:X O *D sky130_fd_sc_hd__buf_2
*CAP
1 *862:A3 0.000152704
2 *850:D 0
3 *996:D 0.000296404
4 *1035:A2 0
5 *1038:B1 0
6 *982:B1 0.000255176
7 *865:A2 0.000123261
8 *868:B 0
9 *871:A1_N 0.000164841
10 *1048:A1 0.000434732
11 *849:X 0
12 *214:96 0.000590708
13 *214:82 0.000335532
14 *214:80 0.00125735
15 *214:72 0.00113374
16 *214:70 0.000428752
17 *214:55 0.000814792
18 *214:35 0.000401673
19 *214:23 0.00180109
20 *214:4 0.00141071
21 *865:A2 *874:B2 1.64329e-05
22 *865:A2 *217:98 1.02821e-05
23 *871:A1_N *869:B 6.14594e-05
24 *871:A1_N *870:A2 0.000214966
25 *871:A1_N *234:6 5.49489e-05
26 *871:A1_N *243:20 8.33056e-05
27 *982:B1 *912:B1 3.49456e-06
28 *982:B1 *912:B2 0.000132642
29 *982:B1 *1038:B2 3.20025e-05
30 *982:B1 *249:91 5.33005e-05
31 *982:B1 *293:44 5.33005e-05
32 *982:B1 *307:42 0.000167586
33 *996:D *245:72 0
34 *996:D *245:107 7.18603e-05
35 *996:D *293:44 0.000139281
36 *1048:A1 *1092:A 0
37 *1048:A1 *243:20 0.00028692
38 *214:35 *869:B 0
39 *214:35 *311:22 8.32707e-05
40 *214:35 *311:32 0.000254501
41 *214:55 *853:B 3.25078e-05
42 *214:55 *853:C_N 0
43 *214:55 *869:B 0
44 *214:55 *874:B2 4.94455e-05
45 *214:55 *875:A2 7.39001e-05
46 *214:55 *217:126 0.000125724
47 *214:55 *223:16 0.000386179
48 *214:55 *243:20 0
49 *214:55 *273:16 0
50 *214:55 *310:28 0
51 *214:55 *311:32 1.37292e-05
52 *214:70 *862:B1 0
53 *214:70 *874:B2 1.19309e-05
54 *214:80 *245:51 0.000220441
55 *214:80 *264:24 0
56 *214:96 *245:51 5.33005e-05
57 *214:96 *264:24 0
58 *214:96 *277:24 9.21602e-05
59 *862:A2 *862:A3 0.000144499
60 *862:A2 *214:72 1.98839e-05
61 *865:A1 *865:A2 5.33433e-05
62 *937:B *214:80 9.90431e-05
63 *1004:A1 *214:80 7.10722e-05
64 *1017:A *214:80 1.03968e-05
65 *1035:A3 *214:96 2.89016e-05
66 *1038:A2 *214:96 0.000129971
67 *1039:A3 *214:96 0.00010862
68 *1043:A3 *996:D 0.000146081
69 *1044:B2 *982:B1 0.000179191
70 *1044:B2 *214:96 2.2131e-05
71 *1050:A1 *871:A1_N 2.12087e-05
72 *1050:A1 *214:55 0
73 *3:27 *214:55 0
74 *82:8 *982:B1 0.000166063
75 *93:18 *214:80 1.24368e-05
76 *93:25 *214:80 0.000151156
77 *95:6 *214:80 1.40306e-05
78 *154:8 *996:D 5.33005e-05
79 *192:18 *996:D 3.32056e-05
80 *193:20 *996:D 8.61133e-05
81 *193:20 *214:96 5.56095e-05
82 *209:22 *1048:A1 0.000532245
83 *211:105 *871:A1_N 0.000311663
84 *211:105 *1048:A1 0.000141734
85 *211:105 *214:23 0.00152916
86 *212:97 *862:A3 5.38444e-06
87 *213:74 *214:72 5.62995e-05
88 *213:74 *214:80 1.74352e-05
89 *213:74 *214:96 1.90936e-05
90 *213:81 *214:72 0.000119193
91 *213:87 *862:A3 0
92 *213:87 *214:70 0.000173804
93 *213:93 *214:55 0.00125517
94 *213:93 *214:70 2.31791e-05
*RES
1 *849:X *214:4 9.3 
2 *214:4 *1048:A1 29.0857 
3 *214:4 *214:23 19 
4 *214:23 *214:35 9.51786 
5 *214:35 *871:A1_N 23.5634 
6 *214:35 *868:B 9.3 
7 *214:23 *214:55 17.4286 
8 *214:55 *865:A2 15.5857 
9 *214:55 *214:70 7.05357 
10 *214:70 *214:72 3.41071 
11 *214:72 *214:80 17.6607 
12 *214:80 *214:82 4.5 
13 *214:82 *214:96 16.875 
14 *214:96 *982:B1 25.2464 
15 *214:96 *1038:B1 9.3 
16 *214:82 *1035:A2 9.3 
17 *214:80 *996:D 20.4429 
18 *214:72 *850:D 9.3 
19 *214:70 *862:A3 12.3179 
*END

*D_NET *215 0.00324744
*CONN
*I *859:B I *D sky130_fd_sc_hd__nand2_1
*I *851:C I *D sky130_fd_sc_hd__or3_1
*I *857:A2 I *D sky130_fd_sc_hd__o21a_1
*I *850:X O *D sky130_fd_sc_hd__or4_1
*CAP
1 *859:B 5.76069e-05
2 *851:C 0
3 *857:A2 1.95577e-05
4 *850:X 0.000256684
5 *215:16 0.000430765
6 *215:8 0.000725498
7 *857:A2 *851:A 5.41953e-05
8 *857:A2 *307:114 5.6902e-05
9 *857:A2 *307:123 5.47001e-05
10 *859:B *875:B2 3.50746e-05
11 *215:8 *860:B 1.91512e-05
12 *215:8 *875:B2 7.89362e-05
13 *215:8 *217:98 0
14 *215:16 *851:A 6.7116e-05
15 *215:16 *217:17 0
16 *215:16 *307:123 4.27935e-05
17 *910:A *215:16 0.000233677
18 *1015:B1 *215:8 0.000116413
19 *1015:B1 *215:16 0.000174544
20 *3:27 *215:16 0.000253172
21 *66:10 *215:16 0.000123288
22 *68:10 *215:16 1.50223e-05
23 *68:29 *859:B 0
24 *68:29 *215:16 2.11693e-05
25 *213:87 *215:8 7.48356e-05
26 *213:93 *215:8 0.000134737
27 *213:93 *215:16 0.000201596
*RES
1 *850:X *215:8 19.9964 
2 *215:8 *215:16 15.3036 
3 *215:16 *857:A2 10.2464 
4 *215:16 *851:C 9.3 
5 *215:8 *859:B 14.7643 
*END

*D_NET *216 0.00101088
*CONN
*I *853:B I *D sky130_fd_sc_hd__or3b_2
*I *854:B I *D sky130_fd_sc_hd__nand2_1
*I *851:X O *D sky130_fd_sc_hd__or3_1
*CAP
1 *853:B 8.10313e-05
2 *854:B 7.41293e-05
3 *851:X 8.20523e-05
4 *216:6 0.000237213
5 *853:B *878:A2 0.000127439
6 *853:B *223:16 0.000125731
7 *853:B *310:28 3.34783e-05
8 *854:B *851:A 0
9 *854:B *217:126 0.000143651
10 *854:B *310:28 5.65955e-05
11 *216:6 *1056:A1 3.06878e-06
12 *216:6 *217:126 1.39841e-05
13 *214:55 *853:B 3.25078e-05
*RES
1 *851:X *216:6 10.2464 
2 *216:6 *854:B 11.3893 
3 *216:6 *853:B 20.8536 
*END

*D_NET *217 0.0167305
*CONN
*I *854:A I *D sky130_fd_sc_hd__nand2_1
*I *853:C_N I *D sky130_fd_sc_hd__or3b_2
*I *865:B1 I *D sky130_fd_sc_hd__o21a_1
*I *862:B1 I *D sky130_fd_sc_hd__o31a_1
*I *859:A I *D sky130_fd_sc_hd__nand2_1
*I *896:B I *D sky130_fd_sc_hd__and3_1
*I *1007:B1 I *D sky130_fd_sc_hd__o21ai_1
*I *1062:A1 I *D sky130_fd_sc_hd__a31o_1
*I *920:A2 I *D sky130_fd_sc_hd__a21oi_1
*I *857:B1 I *D sky130_fd_sc_hd__o21a_1
*I *852:X O *D sky130_fd_sc_hd__buf_2
*CAP
1 *854:A 0
2 *853:C_N 0.000118203
3 *865:B1 0
4 *862:B1 0.000148358
5 *859:A 7.07113e-05
6 *896:B 2.97671e-05
7 *1007:B1 0.000608762
8 *1062:A1 0.000538178
9 *920:A2 0
10 *857:B1 0
11 *852:X 0
12 *217:126 0.000559289
13 *217:98 0.000715835
14 *217:81 0.000790079
15 *217:44 0.00203899
16 *217:40 0.00114045
17 *217:23 0.000467654
18 *217:17 0.000589043
19 *217:8 0.000307281
20 *217:4 0.000560235
21 *853:C_N *855:B 3.42301e-05
22 *853:C_N *877:A2 0.000114769
23 *853:C_N *310:28 6.56312e-06
24 *1007:B1 *886:A2 3.06878e-06
25 *1007:B1 *888:B 3.69047e-06
26 *1007:B1 *891:A1 1.62035e-05
27 *1007:B1 *891:B2 7.05143e-06
28 *1007:B1 *915:A2 1.67004e-05
29 *1007:B1 *1007:A1 3.23451e-05
30 *1007:B1 *251:10 0.000120335
31 *1007:B1 *251:27 7.86735e-05
32 *1007:B1 *252:8 7.24057e-05
33 *1007:B1 *309:49 0.000112787
34 *1007:B1 *309:59 0.000188877
35 *1007:B1 *310:81 0.000111506
36 *1007:B1 *310:100 0.000100711
37 *1007:B1 *311:72 0.000175106
38 *1062:A1 *849:A 0.000339107
39 *1062:A1 *891:A1 9.25014e-06
40 *1062:A1 *892:B 0.000242566
41 *1062:A1 *894:A_N 1.20379e-05
42 *1062:A1 *895:A 0.000245356
43 *1062:A1 *1091:A 5.33005e-05
44 *1062:A1 *243:42 2.60984e-05
45 *1062:A1 *252:8 5.73777e-06
46 *1062:A1 *255:10 0.000121416
47 *1062:A1 *267:10 0
48 *1062:A1 *311:72 0.000132341
49 *217:8 *307:114 1.76135e-05
50 *217:17 *851:A 7.6644e-05
51 *217:17 *858:A 5.41794e-05
52 *217:17 *307:114 5.27603e-05
53 *217:23 *920:B1 1.17091e-05
54 *217:23 *1079:A 3.18676e-05
55 *217:23 *276:22 0.000787983
56 *217:40 *896:C 0
57 *217:40 *920:A1 0.000141734
58 *217:40 *920:B1 2.84109e-05
59 *217:40 *276:22 4.29615e-05
60 *217:40 *311:46 0
61 *217:44 *885:A 5.51755e-05
62 *217:44 *1078:A 0.000504062
63 *217:44 *310:81 0.000201965
64 *217:81 *307:114 9.43102e-05
65 *217:98 *860:B 7.31972e-05
66 *217:98 *874:B2 5.20751e-05
67 *217:98 *307:108 2.05413e-05
68 *217:98 *307:114 9.39732e-05
69 *217:126 *1056:A1 0.000212239
70 *217:126 *243:106 1.8461e-05
71 *217:126 *310:28 4.73286e-05
72 *217:126 *311:32 4.884e-05
73 *217:126 *311:46 4.01768e-05
74 *854:B *217:126 0.000143651
75 *865:A1 *217:98 0.000139907
76 *865:A2 *217:98 1.02821e-05
77 *910:B *217:23 0.00022266
78 *1006:B *1007:B1 0.000143285
79 *1010:A *217:40 0
80 *1010:A *217:44 0
81 *1014:A2 *859:A 3.61656e-05
82 *1014:A2 *217:81 0.000125542
83 *1014:A2 *217:98 1.00887e-05
84 *1050:A1 *853:C_N 0.00013092
85 *1050:A1 *217:126 0
86 *1059:A *1062:A1 0.000899616
87 *1062:B1 *1062:A1 2.89114e-05
88 *3:27 *217:8 0
89 *3:27 *217:17 4.08894e-05
90 *55:20 *896:B 0
91 *66:10 *217:8 0
92 *66:10 *217:17 0
93 *68:10 *217:17 1.52978e-05
94 *68:10 *217:81 0.000100088
95 *68:29 *859:A 2.85321e-05
96 *68:29 *217:81 2.86367e-05
97 *68:29 *217:98 3.39833e-05
98 *79:12 *896:B 4.28249e-05
99 *79:12 *217:40 6.68305e-05
100 *163:10 *217:98 0
101 *170:12 *217:17 0.00012401
102 *170:12 *217:81 0.000186721
103 *210:23 *1062:A1 0.00014183
104 *211:105 *217:126 2.07491e-05
105 *213:87 *862:B1 0
106 *213:93 *217:126 9.60939e-05
107 *214:55 *853:C_N 0
108 *214:55 *217:126 0.000125724
109 *214:70 *862:B1 0
110 *215:8 *217:98 0
111 *215:16 *217:17 0
112 *216:6 *217:126 1.39841e-05
*RES
1 *852:X *217:4 9.3 
2 *217:4 *217:8 6.44643 
3 *217:8 *857:B1 13.8 
4 *217:8 *217:17 4.67857 
5 *217:17 *217:23 12.4464 
6 *217:23 *920:A2 9.3 
7 *217:23 *217:40 11.1815 
8 *217:40 *217:44 5.4028 
9 *217:44 *1062:A1 30.7375 
10 *217:44 *1007:B1 25.5946 
11 *217:40 *896:B 17.7904 
12 *217:17 *217:81 4.98214 
13 *217:81 *859:A 15.175 
14 *217:81 *217:98 15.25 
15 *217:98 *862:B1 20.55 
16 *217:98 *865:B1 9.3 
17 *217:4 *217:126 17.4821 
18 *217:126 *853:C_N 21.2107 
19 *217:126 *854:A 9.3 
*END

*D_NET *218 0.00126792
*CONN
*I *877:A2 I *D sky130_fd_sc_hd__o22a_1
*I *878:A2 I *D sky130_fd_sc_hd__a21oi_4
*I *853:X O *D sky130_fd_sc_hd__or3b_2
*CAP
1 *877:A2 0.000106876
2 *878:A2 0.000236091
3 *853:X 0
4 *218:4 0.000342967
5 *877:A2 *220:10 0.000141132
6 *878:A2 *855:B 2.21588e-05
7 *878:A2 *220:10 6.8445e-06
8 *878:A2 *223:16 6.39901e-05
9 *878:A2 *310:28 5.54655e-05
10 *878:A2 *310:30 2.59355e-05
11 *853:B *878:A2 0.000127439
12 *853:C_N *877:A2 0.000114769
13 *1050:A1 *877:A2 2.42516e-05
*RES
1 *853:X *218:4 9.3 
2 *218:4 *878:A2 22.8179 
3 *218:4 *877:A2 12.1036 
*END

*D_NET *219 0.00123722
*CONN
*I *855:B I *D sky130_fd_sc_hd__xor2_1
*I *854:Y O *D sky130_fd_sc_hd__nand2_1
*CAP
1 *855:B 0.000275283
2 *854:Y 0.000275283
3 *855:B *877:A1 1.42712e-05
4 *855:B *220:10 0.000178425
5 *855:B *310:28 0.000179947
6 *855:B *310:30 0.000257619
7 *853:C_N *855:B 3.42301e-05
8 *878:A2 *855:B 2.21588e-05
*RES
1 *854:Y *855:B 33.0821 
*END

*D_NET *220 0.00225415
*CONN
*I *876:A2 I *D sky130_fd_sc_hd__o221a_1
*I *856:B I *D sky130_fd_sc_hd__and2_1
*I *855:X O *D sky130_fd_sc_hd__xor2_1
*CAP
1 *876:A2 0.000140847
2 *856:B 0.000230487
3 *855:X 0.000277165
4 *220:10 0.000648499
5 *856:B *856:A 1.82029e-05
6 *856:B *1070:CLK 0
7 *856:B *243:14 5.49544e-05
8 *856:B *262:6 0.000204699
9 *876:A2 *877:B2 0
10 *876:A2 *878:B1 0
11 *876:A2 *223:16 0
12 *220:10 *877:A1 0.000168039
13 *220:10 *878:B1 0
14 *220:10 *243:14 0.000128161
15 *855:B *220:10 0.000178425
16 *877:A2 *220:10 0.000141132
17 *878:A2 *220:10 6.8445e-06
18 *1052:A1 *876:A2 5.66943e-05
*RES
1 *855:X *220:10 19.4607 
2 *220:10 *856:B 18.4786 
3 *220:10 *876:A2 16.3536 
*END

*D_NET *221 0.000631461
*CONN
*I *877:B1 I *D sky130_fd_sc_hd__o22a_1
*I *856:X O *D sky130_fd_sc_hd__and2_1
*CAP
1 *877:B1 9.09169e-05
2 *856:X 9.09169e-05
3 *877:B1 *872:B1 0.000149966
4 *877:B1 *877:B2 0.000223344
5 *877:B1 *243:14 0
6 *1050:A1 *877:B1 7.63175e-05
*RES
1 *856:X *877:B1 30.9036 
*END

*D_NET *222 0.000449032
*CONN
*I *858:B I *D sky130_fd_sc_hd__xnor2_1
*I *857:X O *D sky130_fd_sc_hd__o21a_1
*CAP
1 *858:B 0.000104419
2 *857:X 0.000104419
3 *858:B *307:114 0.000151879
4 *910:B *858:B 7.50601e-05
5 *66:10 *858:B 1.32552e-05
*RES
1 *857:X *858:B 30.0821 
*END

*D_NET *223 0.00258795
*CONN
*I *876:B1 I *D sky130_fd_sc_hd__o221a_1
*I *875:A2 I *D sky130_fd_sc_hd__a22o_1
*I *858:Y O *D sky130_fd_sc_hd__xnor2_1
*CAP
1 *876:B1 0.00011522
2 *875:A2 0.000216151
3 *858:Y 0.000477612
4 *223:16 0.000808983
5 *875:A2 *876:B2 1.34698e-05
6 *876:B1 *876:B2 3.41517e-06
7 *876:B1 *876:C1 5.99152e-05
8 *223:16 *877:A1 0
9 *223:16 *310:30 5.96516e-05
10 *853:B *223:16 0.000125731
11 *876:A2 *223:16 0
12 *878:A2 *223:16 6.39901e-05
13 *1012:S *223:16 0.00018024
14 *1013:A *223:16 3.49456e-06
15 *214:55 *875:A2 7.39001e-05
16 *214:55 *223:16 0.000386179
*RES
1 *858:Y *223:16 27.6571 
2 *223:16 *875:A2 22.5321 
3 *223:16 *876:B1 11.4964 
*END

*D_NET *224 0.000314948
*CONN
*I *860:B I *D sky130_fd_sc_hd__xor2_1
*I *859:Y O *D sky130_fd_sc_hd__nand2_1
*CAP
1 *860:B 8.56265e-05
2 *859:Y 8.56265e-05
3 *1015:B1 *860:B 5.13467e-05
4 *215:8 *860:B 1.91512e-05
5 *217:98 *860:B 7.31972e-05
*RES
1 *859:Y *860:B 29.5464 
*END

*D_NET *225 0.000770909
*CONN
*I *861:B I *D sky130_fd_sc_hd__or2_1
*I *874:A2 I *D sky130_fd_sc_hd__a22o_1
*I *860:X O *D sky130_fd_sc_hd__xor2_1
*CAP
1 *861:B 6.27393e-05
2 *874:A2 0
3 *860:X 5.81946e-05
4 *225:8 0.000120934
5 *861:B *861:A 7.99581e-05
6 *861:B *874:A1 5.52302e-05
7 *861:B *874:B1 0.000134195
8 *861:B *874:B2 4.70831e-05
9 *225:8 *861:A 0.000137983
10 *225:8 *874:A1 7.45908e-05
11 *225:8 *874:B2 0
*RES
1 *860:X *225:8 11.0857 
2 *225:8 *874:A2 9.3 
3 *225:8 *861:B 12.0321 
*END

*D_NET *226 0.000680657
*CONN
*I *875:B1 I *D sky130_fd_sc_hd__a22o_1
*I *861:X O *D sky130_fd_sc_hd__or2_1
*CAP
1 *875:B1 0.000214548
2 *861:X 0.000214548
3 *875:B1 *875:A1 9.56266e-05
4 *875:B1 *273:16 7.6997e-05
5 *1052:A1 *875:B1 7.89362e-05
*RES
1 *861:X *875:B1 31.6536 
*END

*D_NET *227 0.00067286
*CONN
*I *863:B I *D sky130_fd_sc_hd__xnor2_1
*I *862:X O *D sky130_fd_sc_hd__o31a_1
*CAP
1 *863:B 8.51719e-05
2 *862:X 8.51719e-05
3 *863:B *273:16 0.000123288
4 *863:B *277:24 0.000240026
5 *863:B *296:161 0.000139202
*RES
1 *862:X *863:B 30.6 
*END

*D_NET *228 0.00187783
*CONN
*I *864:B I *D sky130_fd_sc_hd__or2_1
*I *873:A2 I *D sky130_fd_sc_hd__a22o_1
*I *863:Y O *D sky130_fd_sc_hd__xnor2_1
*CAP
1 *864:B 0.000132696
2 *873:A2 0.000152605
3 *863:Y 0.000349782
4 *228:10 0.000635083
5 *864:B *874:B1 5.52302e-05
6 *864:B *1064:CLK 5.52302e-05
7 *864:B *271:16 2.3299e-05
8 *864:B *277:28 3.47797e-05
9 *873:A2 *873:A1 4.35511e-05
10 *873:A2 *873:B2 0.000100685
11 *873:A2 *874:B1 0.000121352
12 *228:10 *873:A1 3.4846e-06
13 *228:10 *273:16 0
14 *228:10 *277:24 9.41642e-05
15 *228:10 *296:161 7.589e-05
16 *212:108 *873:A2 0
*RES
1 *863:Y *228:10 18.7464 
2 *228:10 *873:A2 16.9964 
3 *228:10 *864:B 16.4071 
*END

*D_NET *229 0.00202768
*CONN
*I *874:B1 I *D sky130_fd_sc_hd__a22o_1
*I *864:X O *D sky130_fd_sc_hd__or2_1
*CAP
1 *874:B1 0.000748794
2 *864:X 0.000748794
3 *874:B1 *861:A 3.29898e-05
4 *874:B1 *872:B1 5.37741e-06
5 *874:B1 *873:B2 0.000123352
6 *874:B1 *874:A1 0
7 *874:B1 *231:16 5.45307e-05
8 *874:B1 *277:28 3.06878e-06
9 *861:B *874:B1 0.000134195
10 *864:B *874:B1 5.52302e-05
11 *873:A2 *874:B1 0.000121352
12 *1052:A1 *874:B1 0
13 *212:108 *874:B1 0
*RES
1 *864:X *874:B1 39.7964 
*END

*D_NET *230 0.000174988
*CONN
*I *866:B I *D sky130_fd_sc_hd__xnor2_1
*I *865:X O *D sky130_fd_sc_hd__o21a_1
*CAP
1 *866:B 3.83244e-05
2 *865:X 3.83244e-05
3 *866:B *874:B2 9.83388e-05
*RES
1 *865:X *866:B 19.5464 
*END

*D_NET *231 0.000773117
*CONN
*I *867:B I *D sky130_fd_sc_hd__or2_1
*I *872:A2 I *D sky130_fd_sc_hd__a21o_1
*I *866:Y O *D sky130_fd_sc_hd__xnor2_1
*CAP
1 *867:B 2.09254e-05
2 *872:A2 0
3 *866:Y 0.000215856
4 *231:16 0.000236781
5 *867:B *872:A1 5.52238e-05
6 *231:16 *872:A1 2.8428e-05
7 *231:16 *872:B1 5.49489e-05
8 *231:16 *873:B2 7.85137e-05
9 *874:B1 *231:16 5.45307e-05
10 *1052:A1 *231:16 2.79092e-05
*RES
1 *866:Y *231:16 23.0857 
2 *231:16 *872:A2 9.3 
3 *231:16 *867:B 9.83571 
*END

*D_NET *232 0.000777736
*CONN
*I *873:B1 I *D sky130_fd_sc_hd__a22o_1
*I *867:X O *D sky130_fd_sc_hd__or2_1
*CAP
1 *873:B1 0.000205184
2 *867:X 0.000205184
3 *873:B1 *872:A1 1.15172e-05
4 *873:B1 *873:B2 5.33005e-05
5 *873:B1 *1054:A3 0.000115206
6 *873:B1 *262:34 0.000150618
7 *873:B1 *270:16 3.67257e-05
*RES
1 *867:X *873:B1 31.4393 
*END

*D_NET *233 0.000279875
*CONN
*I *869:B I *D sky130_fd_sc_hd__xor2_1
*I *868:Y O *D sky130_fd_sc_hd__nand2_1
*CAP
1 *869:B 0.000109208
2 *868:Y 0.000109208
3 *871:A1_N *869:B 6.14594e-05
4 *214:35 *869:B 0
5 *214:55 *869:B 0
*RES
1 *868:Y *869:B 29.5464 
*END

*D_NET *234 0.00108144
*CONN
*I *870:A2 I *D sky130_fd_sc_hd__a21oi_1
*I *871:B1 I *D sky130_fd_sc_hd__o2bb2a_1
*I *869:X O *D sky130_fd_sc_hd__xor2_1
*CAP
1 *870:A2 0.000239978
2 *871:B1 0
3 *869:X 2.24432e-05
4 *234:6 0.000262421
5 *870:A2 *871:A2_N 0.000119174
6 *870:A2 *871:B2 0
7 *870:A2 *872:B1 7.20217e-06
8 *870:A2 *275:8 8.45518e-05
9 *871:A1_N *870:A2 0.000214966
10 *871:A1_N *234:6 5.49489e-05
11 *1050:A1 *234:6 1.32056e-05
12 *211:105 *870:A2 6.2554e-05
*RES
1 *869:X *234:6 9.83571 
2 *234:6 *871:B1 9.3 
3 *234:6 *870:A2 23.9786 
*END

*D_NET *235 0.000755829
*CONN
*I *871:A2_N I *D sky130_fd_sc_hd__o2bb2a_1
*I *870:Y O *D sky130_fd_sc_hd__a21oi_1
*CAP
1 *871:A2_N 0.000269907
2 *870:Y 0.000269907
3 *871:A2_N *870:A1 2.64202e-05
4 *871:A2_N *870:B1 7.25873e-06
5 *871:A2_N *871:B2 0
6 *871:A2_N *275:8 8.46259e-06
7 *870:A2 *871:A2_N 0.000119174
8 *211:105 *871:A2_N 5.47001e-05
*RES
1 *870:Y *871:A2_N 32.2786 
*END

*D_NET *236 0.00235037
*CONN
*I *872:B1 I *D sky130_fd_sc_hd__a21o_1
*I *871:X O *D sky130_fd_sc_hd__o2bb2a_1
*CAP
1 *872:B1 0.000608261
2 *871:X 0.000608261
3 *872:B1 *876:A1 0.000233271
4 *872:B1 *877:B2 8.3921e-05
5 *872:B1 *243:14 0
6 *872:B1 *243:20 0
7 *872:B1 *262:25 6.4934e-05
8 *872:B1 *262:34 6.54381e-05
9 *872:B1 *275:8 0.000457262
10 *870:A2 *872:B1 7.20217e-06
11 *874:B1 *872:B1 5.37741e-06
12 *877:B1 *872:B1 0.000149966
13 *1052:A1 *872:B1 0
14 *211:105 *872:B1 1.15281e-05
15 *231:16 *872:B1 5.49489e-05
*RES
1 *871:X *872:B1 42.4571 
*END

*D_NET *237 0.000975739
*CONN
*I *873:B2 I *D sky130_fd_sc_hd__a22o_1
*I *872:X O *D sky130_fd_sc_hd__a21o_1
*CAP
1 *873:B2 0.000262035
2 *872:X 0.000262035
3 *873:B2 *874:B2 9.58181e-05
4 *873:A2 *873:B2 0.000100685
5 *873:B1 *873:B2 5.33005e-05
6 *874:B1 *873:B2 0.000123352
7 *1052:A1 *873:B2 0
8 *231:16 *873:B2 7.85137e-05
*RES
1 *872:X *873:B2 33.0821 
*END

*D_NET *238 0.00151432
*CONN
*I *874:B2 I *D sky130_fd_sc_hd__a22o_1
*I *873:X O *D sky130_fd_sc_hd__a22o_1
*CAP
1 *874:B2 0.000538264
2 *873:X 0.000538264
3 *874:B2 *861:A 6.66635e-05
4 *861:B *874:B2 4.70831e-05
5 *865:A2 *874:B2 1.64329e-05
6 *866:B *874:B2 9.83388e-05
7 *873:B2 *874:B2 9.58181e-05
8 *214:55 *874:B2 4.94455e-05
9 *214:70 *874:B2 1.19309e-05
10 *217:98 *874:B2 5.20751e-05
11 *225:8 *874:B2 0
*RES
1 *873:X *874:B2 36.7071 
*END

*D_NET *239 0.000499771
*CONN
*I *875:B2 I *D sky130_fd_sc_hd__a22o_1
*I *874:X O *D sky130_fd_sc_hd__a22o_1
*CAP
1 *875:B2 0.000153412
2 *874:X 0.000153412
3 *859:B *875:B2 3.50746e-05
4 *213:93 *875:B2 7.89362e-05
5 *215:8 *875:B2 7.89362e-05
*RES
1 *874:X *875:B2 30.725 
*END

*D_NET *240 0.000618244
*CONN
*I *876:C1 I *D sky130_fd_sc_hd__o221a_1
*I *875:X O *D sky130_fd_sc_hd__a22o_1
*CAP
1 *876:C1 0.000206672
2 *875:X 0.000206672
3 *876:C1 *875:A1 2.78512e-05
4 *876:C1 *876:B2 0.000117134
5 *876:B1 *876:C1 5.99152e-05
*RES
1 *875:X *876:C1 31.6893 
*END

*D_NET *241 0.00120755
*CONN
*I *877:B2 I *D sky130_fd_sc_hd__o22a_1
*I *876:X O *D sky130_fd_sc_hd__o221a_1
*CAP
1 *877:B2 0.000305828
2 *876:X 0.000305828
3 *877:B2 *878:B1 0.000176128
4 *877:B2 *243:14 0
5 *872:B1 *877:B2 8.3921e-05
6 *876:A2 *877:B2 0
7 *877:B1 *877:B2 0.000223344
8 *1050:A1 *877:B2 1.47972e-05
9 *1052:A1 *877:B2 9.77072e-05
*RES
1 *876:X *877:B2 34.4036 
*END

*D_NET *242 0.000440598
*CONN
*I *878:B1 I *D sky130_fd_sc_hd__a21oi_4
*I *877:X O *D sky130_fd_sc_hd__o22a_1
*CAP
1 *878:B1 0.000132235
2 *877:X 0.000132235
3 *878:B1 *243:14 0
4 *876:A2 *878:B1 0
5 *877:B2 *878:B1 0.000176128
6 *220:10 *878:B1 0
*RES
1 *877:X *878:B1 30.0821 
*END

*D_NET *243 0.0193364
*CONN
*I *1056:A3 I *D sky130_fd_sc_hd__a31o_1
*I *1054:A3 I *D sky130_fd_sc_hd__a31o_1
*I *1052:A3 I *D sky130_fd_sc_hd__a31o_1
*I *1050:A3 I *D sky130_fd_sc_hd__a31o_1
*I *1048:A3 I *D sky130_fd_sc_hd__a31o_1
*I *1060:A3 I *D sky130_fd_sc_hd__a31o_1
*I *1062:A3 I *D sky130_fd_sc_hd__a31o_1
*I *879:B I *D sky130_fd_sc_hd__nor2_1
*I *1045:B I *D sky130_fd_sc_hd__or3_1
*I *1058:A3 I *D sky130_fd_sc_hd__a31o_1
*I *878:Y O *D sky130_fd_sc_hd__a21oi_4
*CAP
1 *1056:A3 1.70436e-05
2 *1054:A3 0.000557355
3 *1052:A3 3.51997e-05
4 *1050:A3 3.23682e-05
5 *1048:A3 1.98239e-05
6 *1060:A3 0
7 *1062:A3 0
8 *879:B 0.000689248
9 *1045:B 0
10 *1058:A3 0
11 *878:Y 0.00026283
12 *243:121 0.000757172
13 *243:110 0.0002769
14 *243:106 0.000237021
15 *243:65 0.00105259
16 *243:48 0.000479809
17 *243:42 0.000726152
18 *243:24 0.000862255
19 *243:20 0.00180114
20 *243:14 0.00193164
21 *879:B *880:B1_N 1.03816e-05
22 *879:B *884:D 9.91224e-05
23 *879:B *1081:A 0.000121425
24 *879:B *1120:A 5.63882e-05
25 *879:B *247:14 0.000169256
26 *879:B *261:70 5.72546e-05
27 *879:B *261:81 0.000125463
28 *879:B *267:79 0
29 *1048:A3 *1060:A1 3.49456e-06
30 *1054:A3 *844:A 0.000115091
31 *1054:A3 *1066:RESET_B 0
32 *1054:A3 *262:25 0.000101555
33 *1054:A3 *262:34 0.000138155
34 *1056:A3 *1056:A1 4.18895e-05
35 *1056:A3 *310:28 2.59355e-05
36 *243:14 *877:A1 4.7938e-05
37 *243:20 *871:B2 0.000210725
38 *243:20 *269:10 0.000173159
39 *243:20 *275:8 0
40 *243:20 *311:12 5.49489e-05
41 *243:20 *311:22 0.000119709
42 *243:24 *1060:A1 4.51234e-05
43 *243:42 *1061:B 0.000196381
44 *243:42 *1076:RESET_B 0.000520668
45 *243:42 *265:10 0.000259116
46 *243:42 *291:8 2.84026e-05
47 *243:65 *276:12 0
48 *243:106 *1056:A1 0.000569613
49 *243:106 *310:28 0.0003009
50 *243:110 *1073:CLK 0.000103285
51 *243:110 *310:28 5.66157e-05
52 *243:121 *1073:CLK 0.000128941
53 *243:121 *262:25 7.51489e-05
54 *856:B *243:14 5.49544e-05
55 *871:A1_N *243:20 8.33056e-05
56 *872:B1 *243:14 0
57 *872:B1 *243:20 0
58 *873:B1 *1054:A3 0.000115206
59 *877:B1 *243:14 0
60 *877:B2 *243:14 0
61 *878:B1 *243:14 0
62 *1045:C *879:B 0.000146732
63 *1046:B1_N *243:65 0.000138432
64 *1048:A1 *243:20 0.00028692
65 *1050:A1 *1050:A3 5.03772e-05
66 *1050:A1 *243:14 0.000113319
67 *1050:A1 *243:20 0.00014494
68 *1050:A2 *1050:A3 1.24368e-05
69 *1052:A1 *1052:A3 9.67754e-05
70 *1054:A2 *1054:A3 0.000596971
71 *1060:B1 *243:24 0.000315806
72 *1061:A *243:48 5.83233e-05
73 *1062:A1 *243:42 2.60984e-05
74 *1062:B1 *243:42 6.89313e-05
75 *1069:D *243:24 0.000225367
76 *1070:D *1050:A3 2.95726e-05
77 *1071:D *1052:A3 1.84865e-05
78 *1071:D *1054:A3 0.000126416
79 *1072:D *1054:A3 5.2478e-05
80 *209:10 *1054:A3 0.000125382
81 *209:14 *1054:A3 1.6815e-05
82 *209:14 *243:121 0.000169267
83 *209:16 *243:110 7.15687e-05
84 *209:16 *243:121 3.17163e-05
85 *209:22 *243:20 0.000769432
86 *209:24 *243:20 1.62025e-05
87 *209:24 *243:24 6.07332e-05
88 *209:32 *243:24 6.92966e-06
89 *209:32 *243:42 1.86277e-05
90 *209:32 *243:48 1.19402e-05
91 *209:45 *243:48 3.33721e-05
92 *210:8 *243:48 0.000175512
93 *210:8 *243:65 0.000311488
94 *210:23 *243:42 1.57414e-05
95 *210:23 *243:48 5.33433e-05
96 *210:49 *243:65 5.58941e-05
97 *211:10 *243:48 8.49318e-05
98 *211:10 *243:65 0.000581001
99 *211:35 *879:B 0.000123359
100 *214:55 *243:20 0
101 *217:126 *243:106 1.8461e-05
102 *220:10 *243:14 0.000128161
*RES
1 *878:Y *243:14 19.3714 
2 *243:14 *243:20 36.7857 
3 *243:20 *243:24 6.30357 
4 *243:24 *243:42 22.2321 
5 *243:42 *243:48 8.30357 
6 *243:48 *1058:A3 13.8 
7 *243:48 *243:65 14.9464 
8 *243:65 *1045:B 9.3 
9 *243:65 *879:B 30.6393 
10 *243:42 *1062:A3 9.3 
11 *243:24 *1060:A3 9.3 
12 *243:20 *1048:A3 9.72857 
13 *243:14 *243:106 10.3929 
14 *243:106 *243:110 7.05357 
15 *243:110 *1050:A3 14.7464 
16 *243:110 *243:121 4.98214 
17 *243:121 *1052:A3 14.7464 
18 *243:121 *1054:A3 30.3893 
19 *243:106 *1056:A3 9.83571 
*END

*D_NET *244 0.0117992
*CONN
*I *1036:B1 I *D sky130_fd_sc_hd__a22o_1
*I *1040:B1 I *D sky130_fd_sc_hd__a22o_1
*I *1044:B1 I *D sky130_fd_sc_hd__a22o_1
*I *880:B1_N I *D sky130_fd_sc_hd__o21ba_1
*I *879:Y O *D sky130_fd_sc_hd__nor2_1
*CAP
1 *1036:B1 0.00034766
2 *1040:B1 0.0029218
3 *1044:B1 5.62953e-05
4 *880:B1_N 0.000509542
5 *879:Y 0
6 *244:35 0.00300645
7 *244:33 0.000837497
8 *244:4 0.000971025
9 *880:B1_N *880:A1 0.000180501
10 *880:B1_N *1081:A 0.000123072
11 *880:B1_N *1120:A 0.000150042
12 *880:B1_N *261:91 1.98839e-05
13 *880:B1_N *267:79 6.36411e-05
14 *1036:B1 *944:B 2.38651e-06
15 *1036:B1 *974:D 0.000459041
16 *1036:B1 *1036:A2 6.01916e-05
17 *1040:B1 *293:44 0.000313093
18 *1044:B1 *1044:A2 5.65955e-05
19 *1044:B1 *267:79 2.03134e-05
20 *244:33 *1065:CLK 0.00012401
21 *244:33 *1067:RESET_B 1.5077e-05
22 *244:33 *1120:A 0.000125125
23 *244:33 *265:51 0
24 *244:33 *296:71 1.55574e-05
25 *244:33 *296:86 0
26 *879:B *880:B1_N 1.03816e-05
27 *929:D *1036:B1 1.77608e-05
28 *1020:A *1040:B1 3.47641e-06
29 *1020:C *1040:B1 5.50052e-05
30 *1033:A *1040:B1 5.33005e-05
31 *1033:C *1040:B1 5.49995e-05
32 *1036:B2 *1036:B1 2.97155e-05
33 *1044:B2 *244:33 0.000147531
34 *211:35 *880:B1_N 0.000114587
35 *211:50 *880:B1_N 5.74233e-06
36 *211:50 *1044:B1 7.5689e-05
37 *211:50 *244:33 0.000407558
38 *211:50 *244:35 1.90936e-05
39 *212:88 *1040:B1 0.000287143
40 *213:74 *1040:B1 0.000138406
*RES
1 *879:Y *244:4 9.3 
2 *244:4 *880:B1_N 28.1929 
3 *244:4 *244:33 15.0268 
4 *244:33 *244:35 0.732143 
5 *244:35 *1044:B1 15.1482 
6 *244:35 *1040:B1 29.9323 
7 *244:33 *1036:B1 21.3268 
*END

*D_NET *245 0.0146672
*CONN
*I *984:A I *D sky130_fd_sc_hd__nand2_1
*I *977:A1 I *D sky130_fd_sc_hd__a31o_1
*I *995:A1 I *D sky130_fd_sc_hd__a22o_1
*I *996:A I *D sky130_fd_sc_hd__and4_1
*I *1038:A1 I *D sky130_fd_sc_hd__a22o_1
*I *983:A I *D sky130_fd_sc_hd__and4_1
*I *1035:A1 I *D sky130_fd_sc_hd__a31o_1
*I *1009:A0 I *D sky130_fd_sc_hd__mux2_1
*I *920:A1 I *D sky130_fd_sc_hd__a21oi_1
*I *896:A I *D sky130_fd_sc_hd__and3_1
*I *881:X O *D sky130_fd_sc_hd__buf_2
*CAP
1 *984:A 0.000178452
2 *977:A1 9.23069e-05
3 *995:A1 8.21981e-05
4 *996:A 0
5 *1038:A1 0.000135685
6 *983:A 0.0003193
7 *1035:A1 0
8 *1009:A0 0.0001803
9 *920:A1 0.000194658
10 *896:A 4.69873e-05
11 *881:X 4.94868e-05
12 *245:138 0.00111337
13 *245:107 0.000391694
14 *245:93 0.000461138
15 *245:76 0.000651601
16 *245:72 0.00167539
17 *245:51 0.00104024
18 *245:16 0.00038283
19 *245:10 0.000417748
20 *245:8 0.000562577
21 *896:A *896:C 1.04232e-05
22 *896:A *259:14 3.13687e-05
23 *920:A1 *896:C 2.0954e-05
24 *920:A1 *920:B1 1.84523e-05
25 *920:A1 *259:14 1.02821e-05
26 *977:A1 *296:29 0.000134492
27 *977:A1 *296:49 2.84109e-05
28 *984:A *984:B 1.87331e-05
29 *984:A *296:29 0.000359279
30 *1009:A0 *311:62 5.23735e-05
31 *1038:A1 *996:B 0.000137639
32 *1038:A1 *264:24 0.00023753
33 *245:8 *311:46 1.49303e-05
34 *245:16 *1078:A 1.59015e-05
35 *245:51 *264:24 0
36 *245:51 *277:24 9.58181e-05
37 *245:72 *277:24 0.000143255
38 *245:107 *996:B 8.59075e-05
39 *245:107 *293:44 3.63575e-05
40 *934:B1_N *245:10 0.000126871
41 *934:B1_N *245:51 0.00030397
42 *935:B *245:51 0
43 *936:A *245:51 8.80385e-05
44 *936:B *245:51 7.83659e-05
45 *937:B *245:51 0
46 *965:A *245:138 5.66695e-05
47 *970:B *245:138 0.000211205
48 *980:A1 *245:138 0.000239603
49 *983:C *995:A1 6.05161e-06
50 *983:D *245:107 7.47864e-06
51 *986:A *984:A 0.00019806
52 *986:B *977:A1 5.50052e-05
53 *994:A *245:72 1.73698e-05
54 *995:A2 *995:A1 5.6647e-05
55 *996:D *245:72 0
56 *996:D *245:107 7.18603e-05
57 *1000:A1 *245:138 0
58 *1003:B *245:51 0
59 *1035:A3 *245:51 9.77264e-06
60 *1035:A3 *245:72 4.78308e-05
61 *1035:B1 *245:72 0.000164302
62 *1042:B1 *245:72 5.60142e-05
63 *1043:A1 *245:72 3.84349e-05
64 *1043:A3 *995:A1 9.41642e-05
65 *1043:A3 *245:72 0
66 *1043:A3 *245:107 7.58841e-05
67 *76:21 *245:51 0
68 *79:12 *245:10 0.000242461
69 *79:12 *245:16 0.000144732
70 *79:12 *245:51 0.000100478
71 *91:12 *1038:A1 0.000118095
72 *123:12 *245:138 0
73 *127:10 *245:72 0.000167273
74 *127:10 *245:138 0.000246687
75 *129:10 *977:A1 0.000312848
76 *129:10 *984:A 1.11209e-05
77 *129:10 *245:138 0.000169095
78 *140:10 *1038:A1 0.000137639
79 *140:10 *245:107 0.000185124
80 *141:8 *983:A 7.31195e-06
81 *141:8 *245:76 2.53815e-05
82 *141:48 *245:138 0.000184246
83 *152:12 *245:72 7.70035e-05
84 *153:8 *995:A1 6.05161e-06
85 *154:8 *245:107 5.49544e-05
86 *167:8 *1009:A0 0.000185197
87 *180:6 *245:72 1.74352e-05
88 *180:25 *245:72 0.000175087
89 *192:18 *245:72 2.38651e-06
90 *212:61 *983:A 5.25759e-05
91 *212:74 *983:A 3.61656e-05
92 *212:74 *245:93 0.000133021
93 *212:74 *245:107 8.6229e-06
94 *212:88 *245:107 1.90936e-05
95 *214:80 *245:51 0.000220441
96 *214:96 *245:51 5.33005e-05
97 *217:40 *920:A1 0.000141734
*RES
1 *881:X *245:8 14.3357 
2 *245:8 *245:10 3.16071 
3 *245:10 *245:16 6.98214 
4 *245:16 *896:A 10.2643 
5 *245:16 *920:A1 11.8893 
6 *245:10 *1009:A0 17.6393 
7 *245:8 *245:51 14.5 
8 *245:51 *1035:A1 9.3 
9 *245:51 *245:72 19 
10 *245:72 *245:76 7.08929 
11 *245:76 *983:A 13.1393 
12 *245:76 *245:93 7.10714 
13 *245:93 *245:107 10.3571 
14 *245:107 *1038:A1 22.8179 
15 *245:107 *996:A 9.3 
16 *245:93 *995:A1 15.5857 
17 *245:72 *245:138 18.0357 
18 *245:138 *977:A1 17.2107 
19 *245:138 *984:A 19.55 
*END

*D_NET *246 0.010626
*CONN
*I *899:A I *D sky130_fd_sc_hd__nand2_1
*I *912:B2 I *D sky130_fd_sc_hd__a22o_1
*I *929:A I *D sky130_fd_sc_hd__nand4_1
*I *928:B2 I *D sky130_fd_sc_hd__a22o_1
*I *944:A I *D sky130_fd_sc_hd__nand4_2
*I *913:A I *D sky130_fd_sc_hd__nand4_2
*I *1007:A1 I *D sky130_fd_sc_hd__o21ai_1
*I *886:B2 I *D sky130_fd_sc_hd__a22o_1
*I *1008:A1 I *D sky130_fd_sc_hd__a31o_1
*I *884:A I *D sky130_fd_sc_hd__nand4_1
*I *882:X O *D sky130_fd_sc_hd__clkbuf_4
*CAP
1 *899:A 0.000284574
2 *912:B2 0.000234544
3 *929:A 0
4 *928:B2 1.47133e-05
5 *944:A 0
6 *913:A 0
7 *1007:A1 0.000186845
8 *886:B2 0.000156731
9 *1008:A1 5.22283e-05
10 *884:A 0.000242267
11 *882:X 0
12 *246:103 0.0001301
13 *246:97 0.000564984
14 *246:78 0.00059196
15 *246:70 0.000725317
16 *246:55 0.000578214
17 *246:36 0.000305339
18 *246:23 0.000250296
19 *246:21 0.00041781
20 *246:4 0.000283084
21 *884:A *884:C 0.000387163
22 *884:A *261:70 7.48554e-05
23 *884:A *261:81 4.27842e-06
24 *884:A *311:72 3.69047e-06
25 *886:B2 *886:A2 1.24435e-05
26 *886:B2 *915:A2 1.94879e-05
27 *886:B2 *247:30 7.78987e-05
28 *886:B2 *247:65 1.03742e-05
29 *886:B2 *249:62 2.26973e-05
30 *886:B2 *307:108 0.000339187
31 *899:A *885:A 1.00733e-05
32 *899:A *891:B1 4.4085e-05
33 *899:A *900:A 1.03904e-05
34 *899:A *249:8 7.62575e-05
35 *899:A *252:8 2.50846e-05
36 *899:A *259:14 0.000136958
37 *912:B2 *911:B 0
38 *912:B2 *912:A1 4.84159e-05
39 *912:B2 *912:B1 3.67636e-05
40 *928:B2 *928:A2 5.49544e-05
41 *1007:A1 *272:26 0
42 *1008:A1 *249:14 4.51234e-05
43 *1008:A1 *249:18 0
44 *246:21 *900:A 5.50052e-05
45 *246:21 *311:72 2.19907e-05
46 *246:23 *900:A 0.00016825
47 *246:23 *247:30 8.6229e-06
48 *246:23 *249:14 2.03801e-05
49 *246:36 *247:30 1.04707e-05
50 *246:36 *249:14 1.0609e-05
51 *246:36 *252:8 5.04171e-05
52 *246:36 *309:49 1.01156e-05
53 *246:55 *309:49 1.03196e-05
54 *246:70 *924:B 0
55 *246:70 *309:49 7.6033e-05
56 *246:78 *309:49 2.07158e-05
57 *246:97 *913:D 1.3701e-05
58 *246:97 *974:D 0.00018065
59 *246:97 *247:73 1.39841e-05
60 *246:97 *247:111 0.000151471
61 *246:97 *249:83 6.78699e-05
62 *246:97 *265:68 0.000351306
63 *246:97 *296:86 0.000182592
64 *246:97 *309:43 1.52087e-05
65 *246:103 *928:A1 1.00477e-05
66 *246:103 *944:B 0.000214095
67 *902:C *899:A 7.89362e-05
68 *902:C *246:23 4.15618e-05
69 *925:B *246:97 0.000249972
70 *926:A1 *246:78 9.71197e-05
71 *926:A1 *246:97 5.30479e-05
72 *926:A2 *912:B2 0.000126258
73 *926:A2 *246:97 0
74 *926:B1 *912:B2 0.000161775
75 *926:B1 *246:78 9.25014e-06
76 *932:A *246:97 4.27842e-06
77 *982:B1 *912:B2 0.000132642
78 *1006:B *884:A 9.58689e-05
79 *1006:B *246:21 0.000136727
80 *1007:A2 *246:36 0
81 *1007:B1 *1007:A1 3.23451e-05
82 *1008:A3 *1008:A1 0.000140243
83 *1008:B1 *1008:A1 5.49995e-05
84 *1044:B2 *912:B2 8.02315e-05
85 *1045:C *884:A 0.000482203
86 *70:6 *912:B2 4.25684e-05
87 *70:10 *912:B2 6.50728e-05
88 *71:19 *246:97 7.95153e-05
89 *72:12 *912:B2 7.13656e-05
90 *72:12 *246:70 0.000170368
91 *84:12 *912:B2 6.14702e-06
92 *87:10 *246:103 3.97863e-05
93 *165:14 *1007:A1 2.22891e-05
94 *165:14 *246:70 0
95 *212:42 *928:B2 2.84109e-05
*RES
1 *882:X *246:4 9.3 
2 *246:4 *884:A 25.3 
3 *246:4 *246:21 5.85714 
4 *246:21 *246:23 2.25 
5 *246:23 *1008:A1 15.5857 
6 *246:23 *246:36 2.09821 
7 *246:36 *886:B2 21.6625 
8 *246:36 *246:55 0.580357 
9 *246:55 *1007:A1 17.1393 
10 *246:55 *246:70 6.95536 
11 *246:70 *246:78 6.97321 
12 *246:78 *913:A 9.3 
13 *246:78 *246:97 21.125 
14 *246:97 *246:103 11.8571 
15 *246:103 *944:A 9.3 
16 *246:103 *928:B2 9.83571 
17 *246:97 *929:A 9.3 
18 *246:70 *912:B2 20.7732 
19 *246:21 *899:A 19.3357 
*END

*D_NET *247 0.0120598
*CONN
*I *913:B I *D sky130_fd_sc_hd__nand4_2
*I *982:B2 I *D sky130_fd_sc_hd__a22o_1
*I *928:A1 I *D sky130_fd_sc_hd__a22o_1
*I *944:B I *D sky130_fd_sc_hd__nand4_2
*I *929:B I *D sky130_fd_sc_hd__nand4_1
*I *974:A I *D sky130_fd_sc_hd__and4_1
*I *912:A1 I *D sky130_fd_sc_hd__a22o_1
*I *884:B I *D sky130_fd_sc_hd__nand4_1
*I *901:A I *D sky130_fd_sc_hd__or2_1
*I *900:A I *D sky130_fd_sc_hd__nand2_1
*I *883:X O *D sky130_fd_sc_hd__buf_2
*CAP
1 *913:B 0
2 *982:B2 2.00023e-05
3 *928:A1 0.000146974
4 *944:B 0.000149031
5 *929:B 3.97277e-05
6 *974:A 0
7 *912:A1 2.99037e-05
8 *884:B 0
9 *901:A 2.04426e-05
10 *900:A 0.000165733
11 *883:X 0
12 *247:113 0.00030563
13 *247:111 0.000492923
14 *247:94 0.000348831
15 *247:86 0.000255727
16 *247:73 0.00033514
17 *247:65 0.000611146
18 *247:30 0.000840822
19 *247:14 0.000824271
20 *247:4 0.000591507
21 *900:A *900:B 4.83039e-05
22 *900:A *252:8 0.000192015
23 *900:A *311:62 0.000210301
24 *900:A *311:72 2.38501e-05
25 *901:A *249:14 5.33005e-05
26 *912:A1 *912:B1 9.58689e-05
27 *928:A1 *1118:A 0.000211906
28 *928:A1 *296:86 3.14003e-05
29 *929:B *296:86 5.49211e-05
30 *944:B *928:A2 9.41642e-05
31 *944:B *296:71 1.65482e-05
32 *982:B2 *249:91 9.67754e-05
33 *982:B2 *293:44 8.43386e-05
34 *247:14 *883:A 6.05161e-06
35 *247:14 *884:C 2.24718e-05
36 *247:14 *884:D 2.67489e-05
37 *247:14 *261:81 0.000168121
38 *247:30 *884:C 9.83442e-05
39 *247:30 *884:D 1.17091e-05
40 *247:30 *252:8 1.04707e-05
41 *247:30 *254:16 2.60982e-05
42 *247:30 *261:81 9.47364e-06
43 *247:30 *307:89 3.67324e-05
44 *247:30 *307:108 1.36353e-05
45 *247:65 *884:D 3.18747e-05
46 *247:65 *886:A2 3.51025e-05
47 *247:65 *888:A 0.000180992
48 *247:65 *915:A2 0.000172734
49 *247:65 *249:62 0.000219385
50 *247:65 *249:83 0.00023834
51 *247:65 *250:8 5.33005e-05
52 *247:65 *265:51 8.9719e-06
53 *247:65 *309:49 0.000122762
54 *247:73 *913:D 0
55 *247:73 *277:24 0.000440718
56 *247:73 *307:50 0.000198095
57 *247:86 *293:44 0.000154296
58 *247:86 *307:42 9.48954e-05
59 *247:86 *307:50 3.29297e-05
60 *247:94 *249:91 5.49995e-05
61 *247:94 *293:44 5.33005e-05
62 *247:111 *974:D 5.24999e-05
63 *247:111 *249:83 0.000329067
64 *247:111 *296:86 5.33005e-05
65 *247:113 *296:86 0.000182431
66 *879:B *247:14 0.000169256
67 *886:B2 *247:30 7.78987e-05
68 *886:B2 *247:65 1.03742e-05
69 *899:A *900:A 1.03904e-05
70 *912:B2 *912:A1 4.84159e-05
71 *925:C *247:94 3.10819e-05
72 *926:A1 *247:73 0.000349875
73 *926:A2 *247:73 1.39726e-05
74 *926:A2 *247:86 2.32059e-05
75 *929:D *944:B 0.000146254
76 *931:A2 *247:94 5.54817e-06
77 *944:C *944:B 2.59355e-05
78 *1006:B *900:A 4.11486e-05
79 *1008:A3 *901:A 2.59355e-05
80 *1036:B1 *944:B 2.38651e-06
81 *58:6 *900:A 5.49894e-05
82 *71:19 *247:65 1.02504e-05
83 *72:12 *247:73 0.000195673
84 *83:20 *247:86 9.92439e-06
85 *83:20 *247:94 0.000177407
86 *83:20 *247:111 0.000172039
87 *84:12 *247:94 5.65862e-05
88 *87:10 *928:A1 0.000146398
89 *193:20 *247:94 9.85599e-06
90 *212:14 *944:B 5.5764e-05
91 *212:42 *944:B 2.59355e-05
92 *246:21 *900:A 5.50052e-05
93 *246:23 *900:A 0.00016825
94 *246:23 *247:30 8.6229e-06
95 *246:36 *247:30 1.04707e-05
96 *246:97 *247:73 1.39841e-05
97 *246:97 *247:111 0.000151471
98 *246:103 *928:A1 1.00477e-05
99 *246:103 *944:B 0.000214095
*RES
1 *883:X *247:4 9.3 
2 *247:4 *247:14 12.7321 
3 *247:14 *247:30 14.3045 
4 *247:30 *900:A 19.3714 
5 *247:30 *901:A 14.3357 
6 *247:14 *884:B 9.3 
7 *247:4 *247:65 19.9286 
8 *247:65 *247:73 12.0179 
9 *247:73 *912:A1 14.7464 
10 *247:73 *247:86 7.66071 
11 *247:86 *247:94 12.3036 
12 *247:94 *974:A 9.3 
13 *247:94 *247:111 6.58929 
14 *247:111 *247:113 1.76786 
15 *247:113 *929:B 9.83571 
16 *247:113 *944:B 22.7107 
17 *247:111 *928:A1 22.425 
18 *247:86 *982:B2 10.2464 
19 *247:65 *913:B 9.3 
*END

*D_NET *248 0.00224473
*CONN
*I *915:B1 I *D sky130_fd_sc_hd__a22o_1
*I *888:A I *D sky130_fd_sc_hd__and2_1
*I *887:C I *D sky130_fd_sc_hd__nand4_1
*I *884:Y O *D sky130_fd_sc_hd__nand4_1
*CAP
1 *915:B1 8.59629e-05
2 *888:A 0.000226936
3 *887:C 0
4 *884:Y 8.37611e-05
5 *248:23 0.000491872
6 *248:12 0.000262734
7 *888:A *886:A2 3.50949e-06
8 *915:B1 *915:B2 0.000142593
9 *915:B1 *249:62 5.19454e-05
10 *915:B1 *307:62 2.89114e-05
11 *248:12 *884:C 6.59544e-05
12 *248:12 *887:D 3.38039e-05
13 *248:12 *249:20 3.49456e-06
14 *248:12 *267:79 0.000162117
15 *248:23 *886:A1 0.00014447
16 *248:23 *886:B1 7.05143e-06
17 *248:23 *887:B 1.24368e-05
18 *248:23 *887:D 0.000209091
19 *248:23 *915:B2 9.25014e-06
20 *248:23 *249:62 2.42944e-05
21 *248:23 *267:79 1.35465e-05
22 *247:65 *888:A 0.000180992
*RES
1 *884:Y *248:12 12.05 
2 *248:12 *887:C 9.3 
3 *248:12 *248:23 8.19643 
4 *248:23 *888:A 17.0143 
5 *248:23 *915:B1 16.2821 
*END

*D_NET *249 0.0121206
*CONN
*I *900:B I *D sky130_fd_sc_hd__nand2_1
*I *901:B I *D sky130_fd_sc_hd__or2_1
*I *887:A I *D sky130_fd_sc_hd__nand4_1
*I *974:B I *D sky130_fd_sc_hd__and4_1
*I *996:B I *D sky130_fd_sc_hd__and4_1
*I *1038:B2 I *D sky130_fd_sc_hd__a22o_1
*I *982:A1 I *D sky130_fd_sc_hd__a22o_1
*I *915:A1 I *D sky130_fd_sc_hd__a22o_1
*I *889:B I *D sky130_fd_sc_hd__nand2_1
*I *898:A2 I *D sky130_fd_sc_hd__a31o_1
*I *885:X O *D sky130_fd_sc_hd__buf_2
*CAP
1 *900:B 0.000133642
2 *901:B 0
3 *887:A 0
4 *974:B 0
5 *996:B 8.43948e-05
6 *1038:B2 9.44353e-05
7 *982:A1 0
8 *915:A1 6.08017e-05
9 *889:B 0.000286437
10 *898:A2 0.000110524
11 *885:X 8.00578e-05
12 *249:102 0.000277429
13 *249:91 0.000292148
14 *249:83 0.000891275
15 *249:62 0.00107485
16 *249:26 0.00061324
17 *249:20 0.00054797
18 *249:18 0.000116089
19 *249:14 0.000371469
20 *249:8 0.000484444
21 *889:B *889:A 0.000182881
22 *889:B *1074:CLK 3.88298e-05
23 *889:B *1074:RESET_B 0
24 *889:B *293:84 6.28767e-05
25 *889:B *311:72 9.60875e-05
26 *898:A2 *898:A3 1.24368e-05
27 *898:A2 *1058:A1 1.02504e-05
28 *898:A2 *267:10 9.9974e-05
29 *898:A2 *309:63 8.75452e-05
30 *898:A2 *311:72 1.98839e-05
31 *900:B *924:B 6.14702e-06
32 *900:B *311:62 6.79683e-05
33 *915:A1 *915:A2 1.24368e-05
34 *996:B *293:44 0.000336312
35 *1038:B2 *272:26 0.000167586
36 *249:18 *887:B 5.56974e-05
37 *249:18 *251:10 1.21258e-05
38 *249:18 *309:59 1.52131e-05
39 *249:18 *310:104 5.33005e-05
40 *249:26 *267:10 0.000292778
41 *249:26 *267:79 0.000141703
42 *249:26 *309:59 6.8255e-05
43 *249:26 *309:61 0.000108628
44 *249:26 *309:63 0.000257568
45 *249:62 *886:A1 7.5715e-05
46 *249:62 *886:B1 2.26973e-05
47 *249:62 *915:A2 8.77395e-05
48 *249:62 *309:59 5.50052e-05
49 *249:62 *310:100 5.2732e-05
50 *249:83 *913:C 0.000150618
51 *249:83 *913:D 0.000126121
52 *249:83 *974:D 3.16805e-05
53 *249:83 *1118:A 0.000122527
54 *249:83 *265:51 1.27784e-05
55 *249:83 *265:68 0.000306822
56 *249:83 *280:10 0.000146146
57 *249:83 *296:86 5.23261e-05
58 *249:83 *307:62 0.000111011
59 *249:91 *293:44 3.63127e-05
60 *249:91 *307:42 2.62601e-05
61 *249:102 *293:44 9.23637e-05
62 is_outlier *249:62 4.32309e-05
63 is_outlier *249:83 6.98302e-05
64 *886:B2 *249:62 2.26973e-05
65 *899:A *249:8 7.62575e-05
66 *900:A *900:B 4.83039e-05
67 *901:A *249:14 5.33005e-05
68 *902:C *249:8 0.000111369
69 *902:C *249:14 5.56047e-05
70 *903:B *900:B 1.00887e-05
71 *903:B *249:8 0.000167813
72 *915:B1 *249:62 5.19454e-05
73 *916:C *915:A1 3.99614e-06
74 *982:B1 *1038:B2 3.20025e-05
75 *982:B1 *249:91 5.33005e-05
76 *982:B2 *249:91 9.67754e-05
77 *1007:A2 *249:14 4.44838e-05
78 *1008:A1 *249:14 4.51234e-05
79 *1008:A1 *249:18 0
80 *1008:A3 *249:14 2.89965e-05
81 *1008:A3 *249:18 9.41642e-05
82 *1008:B1 *249:14 5.49995e-05
83 *1009:S *900:B 5.77775e-05
84 *1038:A1 *996:B 0.000137639
85 *58:6 *900:B 5.50052e-05
86 *59:25 *249:14 5.36422e-05
87 *71:19 *249:83 1.5942e-05
88 *83:20 *249:91 0.000100986
89 *91:12 *1038:B2 0.000167586
90 *140:10 *996:B 6.3629e-05
91 *140:10 *249:102 6.05161e-06
92 *213:30 *249:91 9.15842e-06
93 *245:107 *996:B 8.59075e-05
94 *246:23 *249:14 2.03801e-05
95 *246:36 *249:14 1.0609e-05
96 *246:97 *249:83 6.78699e-05
97 *247:65 *249:62 0.000219385
98 *247:65 *249:83 0.00023834
99 *247:94 *249:91 5.49995e-05
100 *247:111 *249:83 0.000329067
101 *248:12 *249:20 3.49456e-06
102 *248:23 *249:62 2.42944e-05
*RES
1 *885:X *249:8 16.5054 
2 *249:8 *249:14 9.59821 
3 *249:14 *249:18 2.91071 
4 *249:18 *249:20 0.428571 
5 *249:20 *249:26 10.8214 
6 *249:26 *898:A2 16.1036 
7 *249:26 *889:B 18.3714 
8 *249:20 *249:62 12.3036 
9 *249:62 *915:A1 14.7643 
10 *249:62 *249:83 20.5536 
11 *249:83 *249:91 12.9286 
12 *249:91 *982:A1 9.3 
13 *249:91 *249:102 1.91071 
14 *249:102 *1038:B2 21.2821 
15 *249:102 *996:B 12.7107 
16 *249:83 *974:B 9.3 
17 *249:18 *887:A 9.3 
18 *249:14 *901:B 9.3 
19 *249:8 *900:B 17.1304 
*END

*D_NET *250 0.00121312
*CONN
*I *915:B2 I *D sky130_fd_sc_hd__a22o_1
*I *887:D I *D sky130_fd_sc_hd__nand4_1
*I *886:X O *D sky130_fd_sc_hd__a22o_1
*CAP
1 *915:B2 4.31828e-05
2 *887:D 0.000141625
3 *886:X 4.36033e-05
4 *250:8 0.000228411
5 *887:D *884:C 1.00733e-05
6 *887:D *887:B 3.48083e-05
7 *887:D *265:51 0.000123219
8 *915:B2 *265:51 0.000140162
9 *915:B1 *915:B2 0.000142593
10 *247:65 *250:8 5.33005e-05
11 *248:12 *887:D 3.38039e-05
12 *248:23 *887:D 0.000209091
13 *248:23 *915:B2 9.25014e-06
*RES
1 *886:X *250:8 14.3357 
2 *250:8 *887:D 17.7464 
3 *250:8 *915:B2 15.7464 
*END

*D_NET *251 0.00218794
*CONN
*I *916:A I *D sky130_fd_sc_hd__nand3_1
*I *917:A1 I *D sky130_fd_sc_hd__a21o_1
*I *888:B I *D sky130_fd_sc_hd__and2_1
*I *887:Y O *D sky130_fd_sc_hd__nand4_1
*CAP
1 *916:A 0.000126052
2 *917:A1 1.41579e-05
3 *888:B 3.11565e-05
4 *887:Y 0.000195626
5 *251:27 0.000269279
6 *251:10 0.000355851
7 *888:B *886:A2 2.59355e-05
8 *251:10 *887:B 9.58632e-05
9 *251:10 *915:A2 0.00012199
10 *251:10 *310:104 1.98839e-05
11 *251:27 *915:A2 0.000138174
12 *251:27 *309:49 3.34687e-05
13 *916:B *916:A 2.44318e-05
14 *916:C *916:A 4.43256e-05
15 *916:C *917:A1 1.04232e-05
16 *916:C *251:27 7.49387e-06
17 *917:B1 *916:A 0.000191409
18 *917:B1 *917:A1 0
19 *918:C *916:A 0
20 *1007:B1 *888:B 3.69047e-06
21 *1007:B1 *251:10 0.000120335
22 *1007:B1 *251:27 7.86735e-05
23 *73:8 *917:A1 2.53134e-05
24 *73:8 *251:27 4.81734e-05
25 *74:14 *916:A 7.43578e-06
26 *75:6 *916:A 0.000186669
27 *249:18 *251:10 1.21258e-05
*RES
1 *887:Y *251:10 17.2107 
2 *251:10 *888:B 14.3357 
3 *251:10 *251:27 7.71429 
4 *251:27 *917:A1 9.72857 
5 *251:27 *916:A 13.1393 
*END

*D_NET *252 0.00217978
*CONN
*I *895:B I *D sky130_fd_sc_hd__xnor2_1
*I *894:A_N I *D sky130_fd_sc_hd__and2b_1
*I *888:X O *D sky130_fd_sc_hd__and2_1
*CAP
1 *895:B 0
2 *894:A_N 8.88976e-05
3 *888:X 0.000326184
4 *252:8 0.000415082
5 *894:A_N *895:A 0.000150632
6 *894:A_N *1060:A1 9.03841e-05
7 *252:8 *885:A 0.000157509
8 *252:8 *891:B1 8.6918e-06
9 *252:8 *1060:A1 5.58875e-06
10 *252:8 *309:49 9.15842e-06
11 *252:8 *309:59 0.000191065
12 *252:8 *310:62 9.21418e-06
13 *252:8 *310:81 4.75956e-06
14 *252:8 *311:72 0.000297296
15 *899:A *252:8 2.50846e-05
16 *900:A *252:8 0.000192015
17 *1007:B1 *252:8 7.24057e-05
18 *1062:A1 *894:A_N 1.20379e-05
19 *1062:A1 *252:8 5.73777e-06
20 *56:12 *894:A_N 5.71472e-05
21 *246:36 *252:8 5.04171e-05
22 *247:30 *252:8 1.04707e-05
*RES
1 *888:X *252:8 22.7286 
2 *252:8 *894:A_N 16.5857 
3 *252:8 *895:B 13.8 
*END

*D_NET *253 0.000701658
*CONN
*I *893:A I *D sky130_fd_sc_hd__xnor2_1
*I *889:Y O *D sky130_fd_sc_hd__nand2_1
*CAP
1 *893:A 0.000218417
2 *889:Y 0.000218417
3 *893:A *261:12 0
4 *893:A *293:84 0.000264825
*RES
1 *889:Y *893:A 31.1357 
*END

*D_NET *254 0.00297571
*CONN
*I *892:A_N I *D sky130_fd_sc_hd__and2b_1
*I *898:B1 I *D sky130_fd_sc_hd__a31o_1
*I *890:X O *D sky130_fd_sc_hd__and4_1
*CAP
1 *892:A_N 0.000396567
2 *898:B1 8.88658e-05
3 *890:X 0.00034118
4 *254:16 0.000826613
5 *892:A_N *892:B 0.000172736
6 *892:A_N *1058:A1 1.17968e-05
7 *892:A_N *255:10 0.000112793
8 *892:A_N *276:22 0.00026353
9 *892:A_N *309:63 8.20871e-05
10 *898:B1 *889:A 8.08476e-06
11 *898:B1 *261:10 0
12 *898:B1 *267:10 5.64732e-05
13 *254:16 *885:A 0
14 *254:16 *886:A1 1.90936e-05
15 *254:16 *891:B2 4.25489e-05
16 *254:16 *1078:A 0.000163883
17 *254:16 *261:10 0
18 *254:16 *267:10 7.13155e-05
19 *254:16 *309:61 4.09607e-05
20 *254:16 *309:63 9.15842e-06
21 *56:12 *892:A_N 0.000241926
22 *247:30 *254:16 2.60982e-05
*RES
1 *890:X *254:16 24.6166 
2 *254:16 *898:B1 15.4429 
3 *254:16 *892:A_N 30.5143 
*END

*D_NET *255 0.00200259
*CONN
*I *898:A3 I *D sky130_fd_sc_hd__a31o_1
*I *892:B I *D sky130_fd_sc_hd__and2b_1
*I *891:X O *D sky130_fd_sc_hd__a22o_1
*CAP
1 *898:A3 5.99862e-05
2 *892:B 0.000100778
3 *891:X 0.000227698
4 *255:10 0.000388463
5 *892:B *257:8 5.71472e-05
6 *892:B *267:10 0
7 *898:A3 *309:86 7.02611e-05
8 *898:A3 *311:72 0.000178847
9 *255:10 *276:22 0.000216755
10 *892:A_N *892:B 0.000172736
11 *892:A_N *255:10 0.000112793
12 *898:A2 *898:A3 1.24368e-05
13 *1062:A1 *892:B 0.000242566
14 *1062:A1 *255:10 0.000121416
15 *56:12 *892:B 4.0708e-05
*RES
1 *891:X *255:10 17.6214 
2 *255:10 *892:B 17.4964 
3 *255:10 *898:A3 15.5679 
*END

*D_NET *256 0.00042018
*CONN
*I *893:B I *D sky130_fd_sc_hd__xnor2_1
*I *892:X O *D sky130_fd_sc_hd__and2b_1
*CAP
1 *893:B 9.91035e-05
2 *892:X 9.91035e-05
3 *893:B *1058:A1 0.000199231
4 *893:B *257:8 2.27416e-05
*RES
1 *892:X *893:B 21.225 
*END

*D_NET *257 0.00159309
*CONN
*I *894:B I *D sky130_fd_sc_hd__and2b_1
*I *895:A I *D sky130_fd_sc_hd__xnor2_1
*I *893:Y O *D sky130_fd_sc_hd__xnor2_1
*CAP
1 *894:B 0.000179769
2 *895:A 8.041e-05
3 *893:Y 0.000217885
4 *257:8 0.000478064
5 *895:A *1060:A1 3.38136e-05
6 *892:B *257:8 5.71472e-05
7 *893:B *257:8 2.27416e-05
8 *894:A_N *895:A 0.000150632
9 *1062:A1 *895:A 0.000245356
10 *56:12 *894:B 8.37335e-05
11 *56:12 *257:8 4.35336e-05
*RES
1 *893:Y *257:8 12.3179 
2 *257:8 *895:A 21.4607 
3 *257:8 *894:B 11.9071 
*END

*D_NET *258 0.00288375
*CONN
*I *908:A1 I *D sky130_fd_sc_hd__o21ai_2
*I *909:B I *D sky130_fd_sc_hd__or3_1
*I *894:X O *D sky130_fd_sc_hd__and2b_1
*CAP
1 *908:A1 0.00020996
2 *909:B 0
3 *894:X 0.000637077
4 *258:10 0.000847037
5 *907:B *258:10 6.53092e-05
6 *908:A2 *908:A1 4.88637e-05
7 *908:B1 *908:A1 0.000155067
8 *1010:B *258:10 0.000143651
9 *1011:A1 *258:10 2.25844e-05
10 *55:20 *258:10 4.06606e-05
11 *56:12 *258:10 0.000171023
12 *56:16 *258:10 0.000188586
13 *61:21 *258:10 4.14279e-05
14 *65:8 *908:A1 0.000129901
15 *65:8 *258:10 0.0001826
*RES
1 *894:X *258:10 20.6571 
2 *258:10 *909:B 9.3 
3 *258:10 *908:A1 13.5679 
*END

*D_NET *259 0.00283184
*CONN
*I *920:B1 I *D sky130_fd_sc_hd__a21oi_1
*I *896:C I *D sky130_fd_sc_hd__and3_1
*I *895:Y O *D sky130_fd_sc_hd__xnor2_1
*CAP
1 *920:B1 4.85442e-05
2 *896:C 3.41089e-05
3 *895:Y 0.000428577
4 *259:14 0.00051123
5 *920:B1 *276:22 0.000126771
6 *259:14 *891:B1 0.000195378
7 *259:14 *899:B 5.52238e-05
8 *259:14 *1060:A1 2.49484e-05
9 *259:14 *276:22 0.000919038
10 *259:14 *309:86 1.33343e-05
11 *259:14 *309:117 4.18895e-05
12 *896:A *896:C 1.04232e-05
13 *896:A *259:14 3.13687e-05
14 *899:A *259:14 0.000136958
15 *903:A *259:14 0
16 *903:B *259:14 0.000164235
17 *920:A1 *896:C 2.0954e-05
18 *920:A1 *920:B1 1.84523e-05
19 *920:A1 *259:14 1.02821e-05
20 *217:23 *920:B1 1.17091e-05
21 *217:40 *896:C 0
22 *217:40 *920:B1 2.84109e-05
*RES
1 *895:Y *259:14 30.7464 
2 *259:14 *896:C 10.2286 
3 *259:14 *920:B1 11.0857 
*END

*D_NET *260 0.00441541
*CONN
*I *1079:A I *D sky130_fd_sc_hd__clkbuf_16
*I *1078:A I *D sky130_fd_sc_hd__clkbuf_16
*I *1077:X O *D sky130_fd_sc_hd__clkbuf_16
*CAP
1 *1079:A 0.000332728
2 *1078:A 0.00106698
3 *1077:X 0
4 *260:4 0.00139971
5 *1078:A *885:A 4.3872e-05
6 *1078:A *891:A1 0.000167765
7 *1078:A *267:10 6.57603e-05
8 *1078:A *276:22 8.75405e-05
9 *1078:A *310:81 0.000251754
10 *1079:A *311:46 4.92083e-05
11 *55:20 *1078:A 0
12 *167:8 *1078:A 7.34627e-05
13 *167:8 *1079:A 0.00016091
14 *217:23 *1079:A 3.18676e-05
15 *217:44 *1078:A 0.000504062
16 *245:16 *1078:A 1.59015e-05
17 *254:16 *1078:A 0.000163883
*RES
1 *1077:X *260:4 9.3 
2 *260:4 *1078:A 32.6109 
3 *260:4 *1079:A 23.175 
*END

*D_NET *261 0.0122418
*CONN
*I *1065:CLK I *D sky130_fd_sc_hd__dfrtp_1
*I *1067:CLK I *D sky130_fd_sc_hd__dfrtp_1
*I *1063:CLK I *D sky130_fd_sc_hd__dfrtp_1
*I *1068:CLK I *D sky130_fd_sc_hd__dfrtp_1
*I *1074:CLK I *D sky130_fd_sc_hd__dfrtp_1
*I *1075:CLK I *D sky130_fd_sc_hd__dfrtp_1
*I *1076:CLK I *D sky130_fd_sc_hd__dfrtp_1
*I *1069:CLK I *D sky130_fd_sc_hd__dfrtp_1
*I *1078:X O *D sky130_fd_sc_hd__clkbuf_16
*CAP
1 *1065:CLK 0.000197166
2 *1067:CLK 0.000226762
3 *1063:CLK 0.000128719
4 *1068:CLK 4.299e-05
5 *1074:CLK 0.000848491
6 *1075:CLK 0
7 *1076:CLK 0.000494766
8 *1069:CLK 0.000363227
9 *1078:X 0.000138564
10 *261:91 0.000899967
11 *261:81 0.00104394
12 *261:70 0.000521417
13 *261:33 0.000888113
14 *261:12 0.00106454
15 *261:10 0.00129741
16 *261:8 0.000455649
17 *1065:CLK *265:51 0
18 *1065:CLK *277:24 7.17699e-05
19 *1067:CLK *1119:A 0.000199828
20 *1067:CLK *277:14 0
21 *1067:CLK *293:64 0
22 *1068:CLK *884:C 5.49995e-05
23 *1068:CLK *884:D 5.49489e-05
24 *1068:CLK *267:79 7.19669e-05
25 *1069:CLK *1069:RESET_B 0.000162419
26 *1069:CLK *1126:A 0.000128531
27 *1069:CLK *290:8 2.85321e-05
28 *1074:CLK *1074:RESET_B 0.000120833
29 *1074:CLK *293:84 6.06493e-05
30 *1076:CLK *1061:B 1.84865e-05
31 *1076:CLK *265:10 7.27183e-05
32 *261:8 *891:A1 9.41642e-05
33 *261:8 *276:22 2.27766e-05
34 *261:10 *889:A 4.6025e-06
35 *261:10 *1084:A 0.000209551
36 *261:12 *889:A 2.6726e-05
37 *261:12 *1084:A 0.000102779
38 *261:12 *1126:A 0.000441144
39 *261:12 *293:84 0
40 *261:33 *1061:B 1.22076e-05
41 *261:70 *1084:A 0.000114861
42 *261:81 *884:D 1.85361e-05
43 *261:81 *265:51 0
44 *261:81 *307:62 5.63971e-05
45 *261:91 *1120:A 3.29979e-05
46 *879:A *261:91 5.33005e-05
47 *879:B *261:70 5.72546e-05
48 *879:B *261:81 0.000125463
49 *880:B1_N *261:91 1.98839e-05
50 *884:A *261:70 7.48554e-05
51 *884:A *261:81 4.27842e-06
52 *889:B *1074:CLK 3.88298e-05
53 *893:A *261:12 0
54 *898:B1 *261:10 0
55 *1075:D *1069:CLK 9.69399e-05
56 *1075:D *261:33 0.000103832
57 *1076:D *1076:CLK 0.000100074
58 *209:32 *1076:CLK 0.000153488
59 *211:35 *1065:CLK 4.56437e-05
60 *211:35 *261:81 7.83659e-05
61 *211:50 *1065:CLK 0.00019384
62 *211:88 *261:12 0
63 *244:33 *1065:CLK 0.00012401
64 *247:14 *261:81 0.000168121
65 *247:30 *261:81 9.47364e-06
66 *254:16 *261:10 0
*RES
1 *1078:X *261:8 15.5679 
2 *261:8 *261:10 2.85714 
3 *261:10 *261:12 7.10714 
4 *261:12 *1069:CLK 20.5321 
5 *261:12 *261:33 9.46429 
6 *261:33 *1076:CLK 26.1571 
7 *261:33 *1075:CLK 9.3 
8 *261:10 *1074:CLK 24.1214 
9 *261:8 *261:70 4.07143 
10 *261:70 *1068:CLK 15.1571 
11 *261:70 *261:81 6.80357 
12 *261:81 *261:91 13.3036 
13 *261:91 *1063:CLK 11.0679 
14 *261:91 *1067:CLK 23.5143 
15 *261:81 *1065:CLK 18.3179 
*END

*D_NET *262 0.00736765
*CONN
*I *1070:CLK I *D sky130_fd_sc_hd__dfrtp_1
*I *1066:CLK I *D sky130_fd_sc_hd__dfrtp_1
*I *1072:CLK I *D sky130_fd_sc_hd__dfrtp_1
*I *1064:CLK I *D sky130_fd_sc_hd__dfrtp_1
*I *1071:CLK I *D sky130_fd_sc_hd__dfrtp_1
*I *1073:CLK I *D sky130_fd_sc_hd__dfrtp_1
*I *1079:X O *D sky130_fd_sc_hd__clkbuf_16
*CAP
1 *1070:CLK 8.95883e-05
2 *1066:CLK 0.000439464
3 *1072:CLK 0
4 *1064:CLK 3.53174e-05
5 *1071:CLK 0
6 *1073:CLK 0.000375343
7 *1079:X 0.000583876
8 *262:45 0.000569627
9 *262:34 0.000454804
10 *262:25 0.000421941
11 *262:8 0.00050796
12 *262:6 0.000673464
13 *1064:CLK *1066:RESET_B 5.52302e-05
14 *1064:CLK *271:16 0.000139913
15 *1066:CLK *1054:A1 5.33005e-05
16 *1066:CLK *1066:RESET_B 0.000226885
17 *1066:CLK *296:161 0.000197173
18 *1073:CLK *876:A1 5.33882e-05
19 *1073:CLK *275:8 0.00030513
20 *1073:CLK *310:28 3.87848e-05
21 *262:6 *856:A 2.95726e-05
22 *262:6 *877:A1 9.83388e-05
23 *262:6 *276:22 0.000365846
24 *262:25 *876:A1 6.85409e-05
25 *262:34 *844:A 0
26 *262:34 *873:A1 0.00015234
27 *262:34 *1066:RESET_B 1.52978e-05
28 *262:45 *1066:RESET_B 0.000103275
29 *856:B *1070:CLK 0
30 *856:B *262:6 0.000204699
31 *864:B *1064:CLK 5.52302e-05
32 *872:B1 *262:25 6.4934e-05
33 *872:B1 *262:34 6.54381e-05
34 *873:B1 *262:34 0.000150618
35 *910:B *262:6 5.52302e-05
36 *1054:A3 *262:25 0.000101555
37 *1054:A3 *262:34 0.000138155
38 *1066:D *1066:CLK 2.84026e-05
39 *1073:D *1073:CLK 6.65302e-05
40 *211:105 *1073:CLK 7.50807e-05
41 *243:110 *1073:CLK 0.000103285
42 *243:121 *1073:CLK 0.000128941
43 *243:121 *262:25 7.51489e-05
*RES
1 *1079:X *262:6 19.6929 
2 *262:6 *262:8 4.5 
3 *262:8 *1073:CLK 24.1214 
4 *262:8 *262:25 4.375 
5 *262:25 *1071:CLK 13.8 
6 *262:25 *262:34 7.41071 
7 *262:34 *1064:CLK 15.1571 
8 *262:34 *262:45 2.55357 
9 *262:45 *1072:CLK 13.8 
10 *262:45 *1066:CLK 23.3536 
11 *262:6 *1070:CLK 10.675 
*END

*D_NET *263 0.0149161
*CONN
*I *849:A I *D sky130_fd_sc_hd__buf_2
*I *958:D I *D sky130_fd_sc_hd__nand4_2
*I *957:B1 I *D sky130_fd_sc_hd__a22o_1
*I *974:D I *D sky130_fd_sc_hd__and4_1
*I *1094:X O *D sky130_fd_sc_hd__clkbuf_2
*CAP
1 *849:A 0.00139887
2 *958:D 0
3 *957:B1 0.000308853
4 *974:D 0.00092109
5 *1094:X 0
6 *263:29 0.000695234
7 *263:10 0.00252559
8 *263:4 0.00261699
9 *849:A *1047:B 4.85715e-05
10 *849:A *1059:B 0.00014183
11 *849:A *1091:A 8.60531e-05
12 *849:A *1092:A 0.000102207
13 *849:A *1126:A 2.98401e-05
14 *849:A *265:10 0
15 *957:B1 *958:C 0.000194465
16 *957:B1 *266:12 9.0573e-05
17 *957:B1 *266:22 1.02504e-05
18 *957:B1 *267:108 9.91086e-05
19 *974:D *296:86 3.81151e-05
20 *263:10 *1119:A 0.00117277
21 *263:10 *276:12 0.000108805
22 *263:10 *278:12 0.000318204
23 *263:10 *281:10 0.000151981
24 *263:29 *1119:A 0.000731063
25 int4_out[0] *263:10 0
26 *929:D *974:D 2.59355e-05
27 *981:A *974:D 0
28 *1036:B1 *974:D 0.000459041
29 *1036:B2 *974:D 2.2131e-05
30 *1048:B1 *849:A 1.40306e-05
31 *1059:A *849:A 0.000327038
32 *1062:A1 *849:A 0.000339107
33 *1074:D *263:10 5.56943e-05
34 *1105:A *263:29 9.48025e-05
35 *1107:A *263:10 0
36 *63:12 *849:A 0.000232123
37 *83:20 *974:D 0.0001802
38 *87:10 *974:D 0.00018265
39 *90:10 *974:D 0.000211147
40 *210:8 *263:10 0
41 *210:23 *849:A 0.000351156
42 *210:49 *263:10 0
43 *211:88 *849:A 0.000239696
44 *211:105 *849:A 9.7519e-05
45 *213:37 *974:D 2.85321e-05
46 *246:97 *974:D 0.00018065
47 *247:111 *974:D 5.24999e-05
48 *249:83 *974:D 3.16805e-05
*RES
1 *1094:X *263:4 9.3 
2 *263:4 *263:10 34 
3 *263:10 *974:D 32.0321 
4 *263:10 *263:29 14.6786 
5 *263:29 *957:B1 23.3714 
6 *263:29 *958:D 9.3 
7 *263:4 *849:A 44.3714 
*END

*D_NET *264 0.0150523
*CONN
*I *939:A I *D sky130_fd_sc_hd__and2_1
*I *953:A I *D sky130_fd_sc_hd__and2_1
*I *924:A I *D sky130_fd_sc_hd__and2_1
*I *881:A I *D sky130_fd_sc_hd__buf_2
*I *897:A I *D sky130_fd_sc_hd__nand2_2
*I *1095:X O *D sky130_fd_sc_hd__clkbuf_2
*CAP
1 *939:A 0
2 *953:A 0.000152726
3 *924:A 0.000123358
4 *881:A 0.000124278
5 *897:A 0
6 *1095:X 0.00237164
7 *264:30 0.000488203
8 *264:24 0.00153033
9 *264:20 0.00130374
10 *264:14 0.000792199
11 *264:8 0.00305587
12 *881:A *897:B 1.37077e-05
13 *881:A *311:46 3.08664e-05
14 *881:A *311:62 5.20751e-05
15 *953:A *272:14 3.54024e-05
16 *953:A *307:14 1.00887e-05
17 *264:8 *285:14 0.00243539
18 *264:20 *939:B 0.000104809
19 *264:24 *272:14 0
20 *264:30 *272:26 0
21 *919:A *264:30 9.82841e-05
22 *919:B *264:30 9.10877e-06
23 *934:B1_N *264:30 0
24 *935:B *264:24 4.46186e-06
25 *935:B *264:30 3.9718e-05
26 *950:A *264:24 0.000100969
27 *964:A *264:14 3.08664e-05
28 *964:A *264:20 2.75452e-05
29 *964:C *264:14 3.1501e-05
30 *965:B *264:24 0
31 *968:B1 *924:A 6.09899e-05
32 *969:B *924:A 0
33 *990:A1 *953:A 6.77355e-05
34 *990:A1 *264:24 0.000104974
35 *990:A2 *953:A 1.03904e-05
36 *990:B1 *264:24 0
37 *992:A *264:14 9.60875e-05
38 *1000:A1 *264:24 0
39 *1038:A1 *264:24 0.00023753
40 *55:6 *881:A 6.92966e-06
41 *55:6 *264:30 3.09985e-05
42 *55:53 *264:30 1.32293e-05
43 *76:21 *264:30 1.18451e-05
44 *91:12 *924:A 1.39841e-05
45 *91:12 *264:24 0.000191321
46 *91:12 *264:30 5.66647e-05
47 *92:12 *264:30 8.00806e-05
48 *106:8 *264:24 2.97074e-05
49 *120:8 *953:A 0
50 *120:8 *264:24 0
51 *123:12 *264:24 0
52 *137:12 *264:14 7.27183e-05
53 *137:14 *264:14 2.47319e-05
54 *141:48 *264:14 0.000193761
55 *144:10 *264:14 0.000148067
56 *144:14 *264:14 7.51885e-05
57 *179:37 *264:30 0.000406868
58 *213:54 *264:24 6.367e-05
59 *213:60 *264:24 7.31905e-05
60 *213:74 *264:24 1.448e-05
61 *214:80 *264:24 0
62 *214:96 *264:24 0
63 *245:51 *264:24 0
*RES
1 *1095:X *264:8 46.3714 
2 *264:8 *264:14 18.3214 
3 *264:14 *264:20 6.69643 
4 *264:20 *264:24 21.3036 
5 *264:24 *264:30 13.4643 
6 *264:30 *897:A 9.3 
7 *264:30 *881:A 11.925 
8 *264:24 *924:A 16.0143 
9 *264:20 *953:A 16.6571 
10 *264:14 *939:A 9.3 
*END

*D_NET *265 0.0161858
*CONN
*I *956:A I *D sky130_fd_sc_hd__and2_1
*I *942:A I *D sky130_fd_sc_hd__and2_1
*I *927:A I *D sky130_fd_sc_hd__and2_1
*I *911:A I *D sky130_fd_sc_hd__and2_1
*I *885:A I *D sky130_fd_sc_hd__buf_2
*I *1096:X O *D sky130_fd_sc_hd__dlymetal6s2s_1
*CAP
1 *956:A 0.00012836
2 *942:A 0.000202556
3 *927:A 0.000129759
4 *911:A 0
5 *885:A 0.0011272
6 *1096:X 0.00118809
7 *265:85 0.000612208
8 *265:68 0.000914314
9 *265:51 0.00182734
10 *265:10 0.00363937
11 *885:A *891:A2 5.33005e-05
12 *885:A *891:B1 1.98839e-05
13 *885:A *1060:A1 4.5539e-05
14 *885:A *276:22 9.41642e-05
15 *885:A *310:62 0.000110446
16 *885:A *310:81 9.77021e-06
17 *927:A *927:B 0.00010096
18 *942:A *296:49 0.000102168
19 *956:A *309:43 3.67279e-06
20 *265:10 *1074:RESET_B 1.0562e-05
21 *265:10 *1084:A 0
22 *265:10 *1091:A 0
23 *265:10 *1126:A 0
24 *265:51 *884:D 0.000307942
25 *265:51 *891:A1 0
26 *265:51 *912:B1 3.50746e-05
27 *265:51 *913:C 7.4826e-05
28 *265:51 *913:D 4.06715e-05
29 *265:51 *1046:A2 6.05161e-06
30 *265:51 *1057:B 3.41848e-05
31 *265:51 *1074:RESET_B 0.000197192
32 *265:51 *1084:A 0
33 *265:51 *1087:A 7.58897e-05
34 *265:51 *266:34 0.000386747
35 *265:51 *293:66 1.34741e-05
36 *265:51 *307:62 0.000266614
37 *265:68 *911:B 5.50052e-05
38 *265:68 *912:B1 3.0114e-05
39 *265:68 *1118:A 0.00020677
40 *265:68 *309:43 7.80492e-05
41 *265:85 *1118:A 0
42 *265:85 *309:43 0.000181727
43 is_outlier *265:51 3.04001e-06
44 sideband_out[5] *265:10 0.000102207
45 *846:A *265:10 0.000170654
46 *849:A *265:10 0
47 *887:D *265:51 0.000123219
48 *899:A *885:A 1.00733e-05
49 *915:B2 *265:51 0.000140162
50 *930:A1 *265:68 2.58997e-05
51 *930:A1 *265:85 1.69115e-05
52 *932:A *265:68 0.000107404
53 *932:A *265:85 0
54 *952:C *265:85 0.000154485
55 *955:A2 *942:A 5.49489e-05
56 *955:B1 *942:A 9.10737e-05
57 *1044:B2 *265:51 1.62025e-05
58 *1044:B2 *265:68 0.000136727
59 *1045:A *265:51 0.000198368
60 *1058:B1 *265:10 8.40012e-05
61 *1062:B1 *265:10 4.91937e-05
62 *1065:CLK *265:51 0
63 *1068:D *265:51 7.74135e-05
64 *1076:CLK *265:10 7.27183e-05
65 *1078:A *885:A 4.3872e-05
66 *85:6 *927:A 9.60939e-05
67 *86:14 *265:68 7.83659e-05
68 *86:26 *265:68 0.000129868
69 *99:12 *265:85 9.91086e-05
70 *116:10 *956:A 0.000182222
71 *116:10 *265:85 0.000344523
72 *209:32 *265:10 7.60228e-05
73 *209:45 *265:10 3.93893e-05
74 *217:44 *885:A 5.51755e-05
75 *243:42 *265:10 0.000259116
76 *244:33 *265:51 0
77 *246:97 *265:68 0.000351306
78 *247:65 *265:51 8.9719e-06
79 *249:83 *265:51 1.27784e-05
80 *249:83 *265:68 0.000306822
81 *252:8 *885:A 0.000157509
82 *254:16 *885:A 0
83 *261:81 *265:51 0
*RES
1 *1096:X *265:10 37.7375 
2 *265:10 *885:A 25.9419 
3 *265:10 *265:51 39.6339 
4 *265:51 *911:A 9.3 
5 *265:51 *265:68 19.3214 
6 *265:68 *927:A 16.3893 
7 *265:68 *265:85 8.60714 
8 *265:85 *942:A 18.05 
9 *265:85 *956:A 16.3536 
*END

*D_NET *266 0.0128834
*CONN
*I *943:A1 I *D sky130_fd_sc_hd__a22o_1
*I *958:B I *D sky130_fd_sc_hd__nand4_2
*I *957:A1 I *D sky130_fd_sc_hd__a22o_1
*I *883:A I *D sky130_fd_sc_hd__buf_2
*I *890:B I *D sky130_fd_sc_hd__and4_1
*I *886:A1 I *D sky130_fd_sc_hd__a22o_1
*I *891:A1 I *D sky130_fd_sc_hd__a22o_1
*I *1097:X O *D sky130_fd_sc_hd__clkbuf_2
*CAP
1 *943:A1 8.40269e-05
2 *958:B 5.36924e-05
3 *957:A1 0
4 *883:A 0.000303379
5 *890:B 0
6 *886:A1 0.000245911
7 *891:A1 0.00053747
8 *1097:X 0.000688848
9 *266:107 0.000137719
10 *266:65 0.000449402
11 *266:34 0.0011726
12 *266:22 0.00158412
13 *266:12 0.000938937
14 *266:10 0.000778681
15 *883:A *884:D 5.90455e-05
16 *883:A *1087:A 0.000179982
17 *886:A1 *884:C 2.89997e-05
18 *886:A1 *886:B1 1.02504e-05
19 *886:A1 *267:10 2.95642e-05
20 *886:A1 *267:79 0.00013308
21 *891:A1 *891:B1 2.79533e-05
22 *891:A1 *891:B2 5.46971e-05
23 *891:A1 *1084:A 0.000121842
24 *891:A1 *276:22 0.000215924
25 *891:A1 *309:63 9.08304e-05
26 *891:A1 *310:100 0
27 *943:A1 *943:B1 4.73286e-05
28 *943:A1 *943:B2 0.000141554
29 *943:A1 *267:108 4.27935e-05
30 *958:B *958:C 2.565e-05
31 *958:B *267:108 9.71197e-05
32 *266:10 *277:14 0.000257723
33 *266:10 *296:59 0
34 *266:10 *309:14 9.84673e-05
35 *266:12 *267:108 2.16719e-05
36 *266:12 *274:41 0
37 *266:12 *277:14 7.79781e-06
38 *266:22 *848:A 5.41797e-06
39 *266:22 *267:79 0.000488442
40 *266:22 *267:91 0.000476778
41 *266:22 *274:16 3.4323e-06
42 *266:22 *274:41 0
43 *266:22 *277:14 2.0997e-05
44 *266:22 *293:62 1.41029e-05
45 *266:22 *293:64 0.00014789
46 *266:22 *293:66 0.000141625
47 *266:34 *1057:B 1.00887e-05
48 *266:34 *267:79 0.000279594
49 *266:34 *293:66 5.92501e-05
50 *266:65 *890:A 9.58126e-05
51 *957:B1 *266:12 9.0573e-05
52 *957:B1 *266:22 1.02504e-05
53 *1007:B1 *891:A1 1.62035e-05
54 *1045:C *266:34 0.000144268
55 *1045:C *266:65 0.000131969
56 *1062:A1 *891:A1 9.25014e-06
57 *1065:D *266:22 0.000451195
58 *1067:D *266:22 0.000126278
59 *1078:A *891:A1 0.000167765
60 *1108:A *266:10 2.27416e-05
61 *1112:A *266:10 3.18676e-05
62 *115:18 *266:10 4.25809e-05
63 *115:18 *266:12 4.71964e-05
64 *116:10 *943:A1 0.00031362
65 *116:10 *958:B 0.000140933
66 *247:14 *883:A 6.05161e-06
67 *248:23 *886:A1 0.00014447
68 *249:62 *886:A1 7.5715e-05
69 *254:16 *886:A1 1.90936e-05
70 *261:8 *891:A1 9.41642e-05
71 *265:51 *891:A1 0
72 *265:51 *266:34 0.000386747
*RES
1 *1097:X *266:10 28.8714 
2 *266:10 *266:12 2.25 
3 *266:12 *266:22 23 
4 *266:22 *266:34 14.6786 
5 *266:34 *891:A1 38.2107 
6 *266:34 *266:65 3.41071 
7 *266:65 *886:A1 23.9429 
8 *266:65 *890:B 9.3 
9 *266:22 *883:A 18.3714 
10 *266:12 *957:A1 13.8 
11 *266:10 *266:107 4.5 
12 *266:107 *958:B 11.0857 
13 *266:107 *943:A1 12.7286 
*END

*D_NET *267 0.015003
*CONN
*I *943:B2 I *D sky130_fd_sc_hd__a22o_1
*I *958:A I *D sky130_fd_sc_hd__nand4_2
*I *957:B2 I *D sky130_fd_sc_hd__a22o_1
*I *882:A I *D sky130_fd_sc_hd__clkbuf_4
*I *891:B2 I *D sky130_fd_sc_hd__a22o_1
*I *890:A I *D sky130_fd_sc_hd__and4_1
*I *1098:X O *D sky130_fd_sc_hd__clkbuf_2
*CAP
1 *943:B2 2.53368e-05
2 *958:A 0
3 *957:B2 0
4 *882:A 1.49752e-05
5 *891:B2 7.4019e-05
6 *890:A 4.13777e-05
7 *1098:X 0.00158255
8 *267:108 0.000152386
9 *267:91 0.000468743
10 *267:79 0.00227834
11 *267:21 0.000138976
12 *267:12 9.13598e-05
13 *267:10 0.0035192
14 *882:A *890:C 4.08637e-05
15 *890:A *890:C 1.24368e-05
16 *891:B2 *309:61 4.22135e-06
17 *891:B2 *309:63 2.51604e-05
18 *891:B2 *310:81 0.000113563
19 *891:B2 *310:100 4.50762e-05
20 *943:B2 *943:B1 3.45225e-05
21 *943:B2 *958:C 0.000106525
22 *267:10 *889:A 0
23 *267:10 *1058:A1 4.98872e-05
24 *267:10 *1060:A1 0
25 *267:10 *1076:RESET_B 0.000102625
26 *267:10 *1093:A 0.000234643
27 *267:10 *1126:A 0
28 *267:10 *1127:A 0.000670527
29 *267:10 *293:84 0.000524075
30 *267:21 *890:C 0.000163455
31 *267:79 *884:C 9.77264e-06
32 *267:79 *887:B 8.25843e-06
33 *267:91 *848:A 0.000140173
34 *267:91 *274:8 3.88908e-05
35 *267:91 *274:16 6.34253e-05
36 *267:108 *958:C 0.000139913
37 *267:108 *274:8 5.33005e-05
38 *267:108 *274:16 0
39 *267:108 *277:14 0.00014576
40 *879:B *267:79 0
41 *880:B1_N *267:79 6.36411e-05
42 *886:A1 *267:10 2.95642e-05
43 *886:A1 *267:79 0.00013308
44 *891:A1 *891:B2 5.46971e-05
45 *892:B *267:10 0
46 *898:A2 *267:10 9.9974e-05
47 *898:B1 *267:10 5.64732e-05
48 *943:A1 *943:B2 0.000141554
49 *943:A1 *267:108 4.27935e-05
50 *957:B1 *267:108 9.91086e-05
51 *958:B *267:108 9.71197e-05
52 *1007:B1 *891:B2 7.05143e-06
53 *1044:B1 *267:79 2.03134e-05
54 *1045:C *882:A 5.33005e-05
55 *1045:C *890:A 0.000139281
56 *1045:C *267:21 0.000178503
57 *1062:A1 *267:10 0
58 *1067:D *267:79 5.54817e-06
59 *1068:CLK *267:79 7.19669e-05
60 *1068:D *267:79 1.21084e-05
61 *1078:A *267:10 6.57603e-05
62 *56:12 *267:10 1.46717e-05
63 *102:20 *267:91 0
64 *211:50 *267:79 0.000347112
65 *213:12 *267:91 6.87265e-05
66 *248:12 *267:79 0.000162117
67 *248:23 *267:79 1.35465e-05
68 *249:26 *267:10 0.000292778
69 *249:26 *267:79 0.000141703
70 *254:16 *891:B2 4.25489e-05
71 *254:16 *267:10 7.13155e-05
72 *266:12 *267:108 2.16719e-05
73 *266:22 *267:79 0.000488442
74 *266:22 *267:91 0.000476778
75 *266:34 *267:79 0.000279594
76 *266:65 *890:A 9.58126e-05
*RES
1 *1098:X *267:10 45.9786 
2 *267:10 *267:12 4.5 
3 *267:12 *890:A 10.6571 
4 *267:12 *267:21 1.76786 
5 *267:21 *891:B2 20.55 
6 *267:21 *882:A 9.83571 
7 *267:10 *267:79 44.0625 
8 *267:79 *267:91 13.7054 
9 *267:91 *957:B2 9.3 
10 *267:91 *267:108 13.2679 
11 *267:108 *958:A 9.3 
12 *267:108 *943:B2 10.6571 
*END

*D_NET *268 0.00305235
*CONN
*I *870:B1 I *D sky130_fd_sc_hd__a21oi_1
*I *1099:X O *D sky130_fd_sc_hd__clkbuf_1
*CAP
1 *870:B1 0.00116207
2 *1099:X 0.00116207
3 *870:B1 *1055:B 0.00027828
4 *870:B1 *1125:A 0.000175861
5 *871:A2_N *870:B1 7.25873e-06
6 *1055:A *870:B1 0.000255155
7 *1056:B1 *870:B1 1.16543e-05
8 *1099:A *870:B1 0
*RES
1 *1099:X *870:B1 48.4929 
*END

*D_NET *269 0.00477823
*CONN
*I *871:B2 I *D sky130_fd_sc_hd__o2bb2a_1
*I *870:A1 I *D sky130_fd_sc_hd__a21oi_1
*I *1100:X O *D sky130_fd_sc_hd__buf_1
*CAP
1 *871:B2 0.000140508
2 *870:A1 0.000292872
3 *1100:X 0.00175058
4 *269:10 0.00218397
5 *871:B2 *275:8 0
6 *269:10 *275:8 0
7 *870:A2 *871:B2 0
8 *871:A2_N *870:A1 2.64202e-05
9 *871:A2_N *871:B2 0
10 *243:20 *871:B2 0.000210725
11 *243:20 *269:10 0.000173159
*RES
1 *1100:X *269:10 38.7286 
2 *269:10 *870:A1 17.5321 
3 *269:10 *871:B2 16.6571 
*END

*D_NET *270 0.00698715
*CONN
*I *867:A I *D sky130_fd_sc_hd__or2_1
*I *872:A1 I *D sky130_fd_sc_hd__a21o_1
*I *1101:X O *D sky130_fd_sc_hd__buf_1
*CAP
1 *867:A 0
2 *872:A1 0.000120268
3 *1101:X 0.000107675
4 *270:16 0.00103479
5 *270:14 0.00228008
6 *270:10 0.00147323
7 *270:10 *1124:A 4.76659e-05
8 *270:14 *1117:A 0.000777512
9 *270:14 *1124:A 0.00101404
10 *270:14 *271:12 0
11 *867:B *872:A1 5.52238e-05
12 *873:B1 *872:A1 1.15172e-05
13 *873:B1 *270:16 3.67257e-05
14 *231:16 *872:A1 2.8428e-05
*RES
1 *1101:X *270:10 16.2732 
2 *270:10 *270:14 38.6339 
3 *270:14 *270:16 14.9107 
4 *270:16 *872:A1 11.4964 
5 *270:16 *867:A 9.3 
*END

*D_NET *271 0.00651301
*CONN
*I *864:A I *D sky130_fd_sc_hd__or2_1
*I *873:A1 I *D sky130_fd_sc_hd__a22o_1
*I *1102:X O *D sky130_fd_sc_hd__buf_1
*CAP
1 *864:A 0
2 *873:A1 6.7875e-05
3 *1102:X 0.00124622
4 *271:16 0.000869066
5 *271:12 0.00204742
6 *271:12 *1124:A 0.000986696
7 *271:16 *1064:D 4.02191e-05
8 *271:16 *1064:RESET_B 2.81497e-05
9 *271:16 *1066:RESET_B 0.000157399
10 *271:16 *1080:A 5.49489e-05
11 *271:16 *1129:A 0.000198058
12 *271:16 *277:28 0.000117553
13 *271:16 *293:12 0.000296415
14 int4_out[1] *271:12 4.04012e-05
15 *864:B *271:16 2.3299e-05
16 *873:A2 *873:A1 4.35511e-05
17 *1064:CLK *271:16 0.000139913
18 *228:10 *873:A1 3.4846e-06
19 *262:34 *873:A1 0.00015234
20 *270:14 *271:12 0
*RES
1 *1102:X *271:12 47.3893 
2 *271:12 *271:16 18.2143 
3 *271:16 *873:A1 20.2464 
4 *271:16 *864:A 9.3 
*END

*D_NET *272 0.0102813
*CONN
*I *861:A I *D sky130_fd_sc_hd__or2_1
*I *874:A1 I *D sky130_fd_sc_hd__a22o_1
*I *1103:X O *D sky130_fd_sc_hd__buf_1
*CAP
1 *861:A 0.000307342
2 *874:A1 0.000187125
3 *1103:X 0.000944164
4 *272:26 0.00210596
5 *272:14 0.00255566
6 *272:14 *939:B 0.000116101
7 *272:14 *307:14 6.02223e-05
8 *272:14 *309:14 0.000182004
9 *272:26 *860:A 7.3237e-05
10 *272:26 *924:B 6.07328e-05
11 *861:B *861:A 7.99581e-05
12 *861:B *874:A1 5.52302e-05
13 *874:B1 *861:A 3.29898e-05
14 *874:B1 *874:A1 0
15 *874:B2 *861:A 6.66635e-05
16 *918:A_N *272:26 0.000221186
17 *919:B *272:26 5.68713e-05
18 *922:A *272:26 0.000127651
19 *922:B_N *272:26 8.40314e-05
20 *950:A *272:14 4.75908e-05
21 *950:B *272:14 0.000105689
22 *953:A *272:14 3.54024e-05
23 *963:A1 *272:14 2.6949e-05
24 *971:A *272:14 3.41848e-05
25 *979:C *272:14 0.000110458
26 *980:A2 *272:14 7.89362e-05
27 *982:A2 *272:26 0.000121866
28 *990:A2 *272:14 0.000166471
29 *1007:A1 *272:26 0
30 *1015:B1 *874:A1 5.52238e-05
31 *1015:B1 *272:26 0.000121733
32 *1038:B2 *272:26 0.000167586
33 *68:41 *272:26 0.000104643
34 *72:12 *272:26 0
35 *77:6 *272:26 8.49048e-05
36 *80:12 *272:26 1.04766e-05
37 *82:8 *272:26 0.00021314
38 *91:12 *272:14 7.53331e-05
39 *91:12 *272:26 0.000357514
40 *96:10 *272:14 9.57263e-05
41 *97:19 *272:14 7.81431e-05
42 *106:8 *272:14 9.15804e-05
43 *107:10 *272:14 0.000197984
44 *111:10 *272:14 0.000144987
45 *173:10 *272:26 0.00014183
46 *179:37 *272:26 8.32893e-05
47 *225:8 *861:A 0.000137983
48 *225:8 *874:A1 7.45908e-05
49 *264:24 *272:14 0
50 *264:30 *272:26 0
*RES
1 *1103:X *272:14 35.4161 
2 *272:14 *272:26 38.2946 
3 *272:26 *874:A1 13.175 
4 *272:26 *861:A 15.3893 
*END

*D_NET *273 0.00909151
*CONN
*I *875:A1 I *D sky130_fd_sc_hd__a22o_1
*I *876:B2 I *D sky130_fd_sc_hd__o221a_1
*I *1104:X O *D sky130_fd_sc_hd__buf_1
*CAP
1 *875:A1 0.000111075
2 *876:B2 0.000231865
3 *1104:X 0.00036243
4 *273:16 0.00245848
5 *273:10 0.00247797
6 *273:10 *296:14 0.000446215
7 *273:10 *296:155 0.000357063
8 *273:10 *307:14 0.00136707
9 *273:16 *293:44 7.35596e-05
10 *273:16 *296:155 0
11 *273:16 *296:161 0
12 *863:B *273:16 0.000123288
13 *875:A2 *876:B2 1.34698e-05
14 *875:B1 *875:A1 9.56266e-05
15 *875:B1 *273:16 7.6997e-05
16 *876:B1 *876:B2 3.41517e-06
17 *876:C1 *875:A1 2.78512e-05
18 *876:C1 *876:B2 0.000117134
19 *1032:A1 *273:16 0
20 *1052:A1 *876:B2 0.000143758
21 *1052:A1 *273:16 0.000270489
22 *1066:D *273:16 0.00016606
23 *212:108 *273:16 0.000167691
24 *214:55 *273:16 0
25 *228:10 *273:16 0
*RES
1 *1104:X *273:10 27.0857 
2 *273:10 *273:16 39.0357 
3 *273:16 *876:B2 18.925 
4 *273:16 *875:A1 16.425 
*END

*D_NET *274 0.00294878
*CONN
*I *957:A2 I *D sky130_fd_sc_hd__a22o_1
*I *943:B1 I *D sky130_fd_sc_hd__a22o_1
*I *958:C I *D sky130_fd_sc_hd__nand4_2
*I *848:A I *D sky130_fd_sc_hd__clkbuf_4
*I *1105:X O *D sky130_fd_sc_hd__buf_1
*CAP
1 *957:A2 0
2 *943:B1 4.55464e-05
3 *958:C 0.000167365
4 *848:A 0.000139005
5 *1105:X 0.000395553
6 *274:41 0.000374815
7 *274:16 0.000385158
8 *274:8 0.000479803
9 *943:A1 *943:B1 4.73286e-05
10 *943:B2 *943:B1 3.45225e-05
11 *943:B2 *958:C 0.000106525
12 *957:B1 *958:C 0.000194465
13 *958:B *958:C 2.565e-05
14 *102:20 *848:A 0
15 *115:18 *274:41 8.00806e-05
16 *213:12 *848:A 2.84109e-05
17 *266:12 *274:41 0
18 *266:22 *848:A 5.41797e-06
19 *266:22 *274:16 3.4323e-06
20 *266:22 *274:41 0
21 *267:91 *848:A 0.000140173
22 *267:91 *274:8 3.88908e-05
23 *267:91 *274:16 6.34253e-05
24 *267:108 *958:C 0.000139913
25 *267:108 *274:8 5.33005e-05
26 *267:108 *274:16 0
*RES
1 *1105:X *274:8 14.2643 
2 *274:8 *274:16 6.15179 
3 *274:16 *848:A 17.3982 
4 *274:16 *274:41 7.89286 
5 *274:41 *958:C 13.3446 
6 *274:41 *943:B1 10.4518 
7 *274:8 *957:A2 9.3 
*END

*D_NET *275 0.00421307
*CONN
*I *876:A1 I *D sky130_fd_sc_hd__o221a_1
*I *856:A I *D sky130_fd_sc_hd__and2_1
*I *1106:X O *D sky130_fd_sc_hd__clkbuf_1
*CAP
1 *876:A1 0.000243367
2 *856:A 9.49804e-05
3 *1106:X 0.000982613
4 *275:8 0.00132096
5 *856:B *856:A 1.82029e-05
6 *870:A2 *275:8 8.45518e-05
7 *871:A2_N *275:8 8.46259e-06
8 *871:B2 *275:8 0
9 *872:B1 *876:A1 0.000233271
10 *872:B1 *275:8 0.000457262
11 *1052:A1 *876:A1 0.000312762
12 *1073:CLK *876:A1 5.33882e-05
13 *1073:CLK *275:8 0.00030513
14 *209:22 *275:8 0
15 *243:20 *275:8 0
16 *262:6 *856:A 2.95726e-05
17 *262:25 *876:A1 6.85409e-05
18 *269:10 *275:8 0
*RES
1 *1106:X *275:8 34.2643 
2 *275:8 *856:A 15.6036 
3 *275:8 *876:A1 19.9607 
*END

*D_NET *276 0.00896247
*CONN
*I *877:A1 I *D sky130_fd_sc_hd__o22a_1
*I *878:A1 I *D sky130_fd_sc_hd__a21oi_4
*I *1107:X O *D sky130_fd_sc_hd__dlymetal6s2s_1
*CAP
1 *877:A1 0.000201981
2 *878:A1 0
3 *1107:X 0.000124461
4 *276:22 0.00219601
5 *276:12 0.00211849
6 *276:22 *891:A2 1.98839e-05
7 *276:22 *891:B1 5.74499e-06
8 *276:22 *1057:B 6.21189e-05
9 *855:B *877:A1 1.42712e-05
10 *885:A *276:22 9.41642e-05
11 *891:A1 *276:22 0.000215924
12 *892:A_N *276:22 0.00026353
13 *910:B *276:22 0.000154305
14 *920:B1 *276:22 0.000126771
15 *1058:B1 *276:22 9.41642e-05
16 *1078:A *276:22 8.75405e-05
17 *68:10 *276:22 0.000137983
18 *210:49 *276:12 4.1331e-06
19 *210:49 *276:22 0.000262504
20 *217:23 *276:22 0.000787983
21 *217:40 *276:22 4.29615e-05
22 *220:10 *877:A1 0.000168039
23 *223:16 *877:A1 0
24 *243:14 *877:A1 4.7938e-05
25 *243:65 *276:12 0
26 *255:10 *276:22 0.000216755
27 *259:14 *276:22 0.000919038
28 *261:8 *276:22 2.27766e-05
29 *262:6 *877:A1 9.83388e-05
30 *262:6 *276:22 0.000365846
31 *263:10 *276:12 0.000108805
*RES
1 *1107:X *276:12 21.2821 
2 *276:12 *276:22 41.0714 
3 *276:22 *878:A1 9.3 
4 *276:22 *877:A1 23.0679 
*END

*D_NET *277 0.0134434
*CONN
*I *1064:D I *D sky130_fd_sc_hd__dfrtp_1
*I *844:A I *D sky130_fd_sc_hd__clkbuf_4
*I *1108:X O *D sky130_fd_sc_hd__buf_1
*CAP
1 *1064:D 6.46138e-05
2 *844:A 0.00015358
3 *1108:X 0.00151044
4 *277:28 0.000685401
5 *277:24 0.00354758
6 *277:14 0.00459081
7 *844:A *1066:RESET_B 5.10822e-05
8 *277:14 *1119:A 0
9 *277:14 *293:62 3.22888e-05
10 *277:14 *293:64 4.20528e-05
11 *277:24 *850:A 0.000270427
12 *277:24 *913:D 2.40379e-05
13 *277:24 *296:161 3.6346e-05
14 *863:B *277:24 0.000240026
15 *864:B *277:28 3.47797e-05
16 *874:B1 *277:28 3.06878e-06
17 *1004:A2 *277:24 4.70078e-05
18 *1004:B1 *277:24 2.89114e-05
19 *1036:A1 *277:14 0.000174682
20 *1036:B2 *277:14 1.34741e-05
21 *1054:A3 *844:A 0.000115091
22 *1065:CLK *277:24 7.17699e-05
23 *1065:D *277:24 1.50787e-05
24 *1067:CLK *277:14 0
25 *162:10 *277:24 0.000218685
26 *180:6 *277:24 1.34703e-05
27 *209:10 *844:A 2.51343e-06
28 *214:96 *277:24 9.21602e-05
29 *228:10 *277:24 9.41642e-05
30 *245:51 *277:24 9.58181e-05
31 *245:72 *277:24 0.000143255
32 *247:73 *277:24 0.000440718
33 *262:34 *844:A 0
34 *266:10 *277:14 0.000257723
35 *266:12 *277:14 7.79781e-06
36 *266:22 *277:14 2.0997e-05
37 *267:108 *277:14 0.00014576
38 *271:16 *1064:D 4.02191e-05
39 *271:16 *277:28 0.000117553
*RES
1 *1108:X *277:14 48.6393 
2 *277:14 *277:24 46.3571 
3 *277:24 *277:28 9.96429 
4 *277:28 *844:A 21.6929 
5 *277:28 *1064:D 10.1616 
*END

*D_NET *278 0.0011609
*CONN
*I *1086:A I *D sky130_fd_sc_hd__dlygate4sd3_1
*I *1116:A I *D sky130_fd_sc_hd__clkbuf_4
*I *1065:Q O *D sky130_fd_sc_hd__dfrtp_1
*CAP
1 *1086:A 0
2 *1116:A 9.37731e-05
3 *1065:Q 0.000281866
4 *278:12 0.000375639
5 *1116:A *1119:A 9.14222e-05
6 *263:10 *278:12 0.000318204
*RES
1 *1065:Q *278:12 24.1393 
2 *278:12 *1116:A 20.55 
3 *278:12 *1086:A 9.3 
*END

*D_NET *279 0.00396638
*CONN
*I *1117:A I *D sky130_fd_sc_hd__clkbuf_4
*I *1088:A I *D sky130_fd_sc_hd__dlygate4sd3_1
*I *1066:Q O *D sky130_fd_sc_hd__dfrtp_1
*CAP
1 *1117:A 0.0011572
2 *1088:A 0
3 *1066:Q 0.000107988
4 *279:10 0.00126518
5 *1117:A *312:10 0.000170519
6 *1040:A1 *1117:A 0.000487985
7 *270:14 *1117:A 0.000777512
*RES
1 *1066:Q *279:10 20.2464 
2 *279:10 *1088:A 9.3 
3 *279:10 *1117:A 43.5857 
*END

*D_NET *280 0.00525208
*CONN
*I *1118:A I *D sky130_fd_sc_hd__clkbuf_4
*I *1089:A I *D sky130_fd_sc_hd__dlygate4sd3_1
*I *1067:Q O *D sky130_fd_sc_hd__dfrtp_1
*CAP
1 *1118:A 0.000932934
2 *1089:A 3.59657e-05
3 *1067:Q 0.000212508
4 *280:10 0.00118141
5 *1118:A *296:49 0.000107686
6 *1118:A *296:86 0.000136146
7 *280:10 *296:86 0.000146146
8 *928:A1 *1118:A 0.000211906
9 *930:A1 *1118:A 0.000117369
10 *955:A2 *1118:A 6.96346e-05
11 *972:C *1118:A 0.000214731
12 *1044:B2 *280:10 0.000223542
13 *87:10 *1118:A 6.0064e-05
14 *87:23 *1118:A 0.000119441
15 *98:14 *1118:A 0.000168939
16 *103:14 *1118:A 6.42338e-05
17 *115:18 *1118:A 0.0005912
18 *116:10 *1118:A 4.06875e-05
19 *117:12 *1118:A 0.000126278
20 *193:20 *1089:A 1.58163e-05
21 *212:14 *1118:A 0
22 *249:83 *1118:A 0.000122527
23 *249:83 *280:10 0.000146146
24 *265:68 *1118:A 0.00020677
25 *265:85 *1118:A 0
*RES
1 *1067:Q *280:10 17.925 
2 *280:10 *1089:A 14.3357 
3 *280:10 *1118:A 38.2107 
*END

*D_NET *281 0.00651569
*CONN
*I *1119:A I *D sky130_fd_sc_hd__clkbuf_4
*I *1087:A I *D sky130_fd_sc_hd__dlygate4sd3_1
*I *1068:Q O *D sky130_fd_sc_hd__dfrtp_1
*CAP
1 *1119:A 0.00125356
2 *1087:A 0.000425612
3 *1068:Q 0.000160659
4 *281:10 0.00183983
5 *1087:A *884:D 6.05161e-06
6 *1087:A *1046:A2 7.32272e-05
7 *1119:A *293:64 0
8 *1119:A *293:66 0
9 int4_out[3] *1119:A 0
10 *883:A *1087:A 0.000179982
11 *1046:A1 *1087:A 2.59355e-05
12 *1046:B1_N *281:10 2.29112e-05
13 *1063:D *1119:A 0.000104974
14 *1067:CLK *1119:A 0.000199828
15 *1116:A *1119:A 9.14222e-05
16 *211:10 *281:10 0
17 *211:35 *1119:A 0
18 *211:35 *281:10 0
19 *263:10 *1119:A 0.00117277
20 *263:10 *281:10 0.000151981
21 *263:29 *1119:A 0.000731063
22 *265:51 *1087:A 7.58897e-05
23 *277:14 *1119:A 0
*RES
1 *1068:Q *281:10 16.6929 
2 *281:10 *1087:A 21.8893 
3 *281:10 *1119:A 46.4429 
*END

*D_NET *282 0.00151182
*CONN
*I *1120:A I *D sky130_fd_sc_hd__clkbuf_4
*I *1081:A I *D sky130_fd_sc_hd__dlygate4sd3_1
*I *1063:Q O *D sky130_fd_sc_hd__dfrtp_1
*CAP
1 *1120:A 0.000302296
2 *1081:A 0.000101265
3 *1063:Q 0
4 *282:6 0.000403561
5 *879:A *1120:A 2.59355e-05
6 *879:B *1081:A 0.000121425
7 *879:B *1120:A 5.63882e-05
8 *880:B1_N *1081:A 0.000123072
9 *880:B1_N *1120:A 0.000150042
10 *211:35 *1081:A 4.87953e-05
11 *211:50 *1120:A 2.09177e-05
12 *244:33 *1120:A 0.000125125
13 *261:91 *1120:A 3.29979e-05
*RES
1 *1063:Q *282:6 13.8 
2 *282:6 *1081:A 16.3893 
3 *282:6 *1120:A 19.2821 
*END

*D_NET *283 0.0020085
*CONN
*I *1092:A I *D sky130_fd_sc_hd__dlygate4sd3_1
*I *1121:A I *D sky130_fd_sc_hd__clkbuf_4
*I *1069:Q O *D sky130_fd_sc_hd__dfrtp_1
*CAP
1 *1092:A 0.000213026
2 *1121:A 0.000645372
3 *1069:Q 0
4 *283:6 0.000858398
5 *849:A *1092:A 0.000102207
6 *906:B *1092:A 0
7 *1048:A1 *1092:A 0
8 *1048:B1 *1092:A 0
9 *211:88 *1092:A 2.8266e-06
10 *211:105 *1092:A 0.000186669
*RES
1 *1069:Q *283:6 13.8 
2 *283:6 *1121:A 25.4607 
3 *283:6 *1092:A 18.7286 
*END

*D_NET *284 0.00134137
*CONN
*I *1122:A I *D sky130_fd_sc_hd__buf_2
*I *1090:A I *D sky130_fd_sc_hd__dlygate4sd3_1
*I *1070:Q O *D sky130_fd_sc_hd__dfrtp_1
*CAP
1 *1122:A 0.000420933
2 *1090:A 0
3 *1070:Q 0.000233253
4 *284:8 0.000654186
5 sideband_out[1] *1122:A 3.29959e-05
*RES
1 *1070:Q *284:8 13.1393 
2 *284:8 *1090:A 9.3 
3 *284:8 *1122:A 25.7286 
*END

*D_NET *285 0.00785472
*CONN
*I *847:A I *D sky130_fd_sc_hd__clkbuf_4
*I *956:B I *D sky130_fd_sc_hd__and2_1
*I *1109:X O *D sky130_fd_sc_hd__buf_1
*CAP
1 *847:A 0
2 *956:B 0.000178895
3 *1109:X 0.00107712
4 *285:20 0.000661371
5 *285:14 0.00155959
6 *962:A1 *285:20 0.000136682
7 *962:A2 *285:20 2.36643e-05
8 *978:A1 *285:20 5.49995e-05
9 *979:A *285:20 5.33005e-05
10 *979:B *285:20 4.58194e-05
11 *979:C *285:14 1.95435e-05
12 *979:C *285:20 0.000634503
13 *985:A_N *285:20 5.33005e-05
14 *985:B *285:20 6.43034e-05
15 *999:A1 *285:14 7.22772e-05
16 *999:A2 *285:14 0.000189995
17 *111:17 *285:20 0.000216755
18 *118:12 *956:B 0.00020829
19 *118:12 *285:20 9.14454e-05
20 *119:8 *285:20 1.12713e-05
21 *119:19 *285:20 1.38323e-05
22 *137:8 *285:14 5.23735e-05
23 *264:8 *285:14 0.00243539
*RES
1 *1109:X *285:14 48.0857 
2 *285:14 *285:20 12.1786 
3 *285:20 *956:B 13.1393 
4 *285:20 *847:A 9.3 
*END

*D_NET *286 0.00417605
*CONN
*I *1083:A I *D sky130_fd_sc_hd__dlygate4sd3_1
*I *1123:A I *D sky130_fd_sc_hd__clkbuf_4
*I *1071:Q O *D sky130_fd_sc_hd__dfrtp_1
*CAP
1 *1083:A 0.000161721
2 *1123:A 0.00118853
3 *1071:Q 6.91701e-05
4 *286:6 0.00141942
5 *1123:A *1049:B 0.000153054
6 *1123:A *1051:B 0.00015244
7 *1123:A *1073:RESET_B 0
8 *1123:A *310:16 0.00103171
*RES
1 *1071:Q *286:6 10.2464 
2 *286:6 *1123:A 44.8357 
3 *286:6 *1083:A 11.9071 
*END

*D_NET *287 0.00535071
*CONN
*I *1124:A I *D sky130_fd_sc_hd__buf_2
*I *1085:A I *D sky130_fd_sc_hd__dlygate4sd3_1
*I *1072:Q O *D sky130_fd_sc_hd__dfrtp_1
*CAP
1 *1124:A 0.000995503
2 *1085:A 0
3 *1072:Q 0.000445908
4 *287:12 0.00144141
5 *287:12 *1072:RESET_B 0.000269384
6 *287:12 *312:10 0.000150103
7 *270:10 *1124:A 4.76659e-05
8 *270:14 *1124:A 0.00101404
9 *271:12 *1124:A 0.000986696
*RES
1 *1072:Q *287:12 25.3 
2 *287:12 *1085:A 9.3 
3 *287:12 *1124:A 48.9607 
*END

*D_NET *288 0.00271724
*CONN
*I *1125:A I *D sky130_fd_sc_hd__buf_2
*I *1082:A I *D sky130_fd_sc_hd__dlygate4sd3_1
*I *1073:Q O *D sky130_fd_sc_hd__dfrtp_1
*CAP
1 *1125:A 0.000663639
2 *1082:A 0
3 *1073:Q 0.00032591
4 *288:8 0.000989548
5 *1125:A *311:12 0.000464632
6 *288:8 *310:16 9.76491e-05
7 *870:B1 *1125:A 0.000175861
*RES
1 *1073:Q *288:8 15.1929 
2 *288:8 *1082:A 9.3 
3 *288:8 *1125:A 32.3714 
*END

*D_NET *289 0.0045534
*CONN
*I *1084:A I *D sky130_fd_sc_hd__dlygate4sd3_1
*I *1126:A I *D sky130_fd_sc_hd__clkbuf_4
*I *1074:Q O *D sky130_fd_sc_hd__dfrtp_1
*CAP
1 *1084:A 0.000218323
2 *1126:A 0.000987334
3 *1074:Q 6.70319e-05
4 *289:8 0.00127269
5 *1126:A *1091:A 0.000307535
6 *1126:A *1127:A 0
7 *1126:A *1128:A 0.000453597
8 *289:8 *293:84 9.83388e-05
9 *846:A *1126:A 0
10 *849:A *1126:A 2.98401e-05
11 *891:A1 *1084:A 0.000121842
12 *1069:CLK *1126:A 0.000128531
13 *261:10 *1084:A 0.000209551
14 *261:12 *1084:A 0.000102779
15 *261:12 *1126:A 0.000441144
16 *261:70 *1084:A 0.000114861
17 *265:10 *1084:A 0
18 *265:10 *1126:A 0
19 *265:51 *1084:A 0
20 *267:10 *1126:A 0
*RES
1 *1074:Q *289:8 14.7464 
2 *289:8 *1126:A 35.7464 
3 *289:8 *1084:A 19.3893 
*END

*D_NET *290 0.0023522
*CONN
*I *1093:A I *D sky130_fd_sc_hd__dlygate4sd3_1
*I *1127:A I *D sky130_fd_sc_hd__clkbuf_4
*I *1075:Q O *D sky130_fd_sc_hd__dfrtp_1
*CAP
1 *1093:A 0.000167839
2 *1127:A 0.000499676
3 *1075:Q 4.17337e-05
4 *290:8 0.000709249
5 *1093:A *1060:A1 0
6 *1060:B1 *1093:A 0
7 *1069:CLK *290:8 2.85321e-05
8 *1126:A *1127:A 0
9 *267:10 *1093:A 0.000234643
10 *267:10 *1127:A 0.000670527
*RES
1 *1075:Q *290:8 14.3357 
2 *290:8 *1127:A 25.4607 
3 *290:8 *1093:A 16.9607 
*END

*D_NET *291 0.00266314
*CONN
*I *1091:A I *D sky130_fd_sc_hd__dlygate4sd3_1
*I *1128:A I *D sky130_fd_sc_hd__clkbuf_4
*I *1076:Q O *D sky130_fd_sc_hd__dfrtp_1
*CAP
1 *1091:A 0.000189531
2 *1128:A 0.000635335
3 *1076:Q 4.2258e-05
4 *291:8 0.000867124
5 *849:A *1091:A 8.60531e-05
6 *1062:A1 *1091:A 5.33005e-05
7 *1126:A *1091:A 0.000307535
8 *1126:A *1128:A 0.000453597
9 *243:42 *291:8 2.84026e-05
10 *265:10 *1091:A 0
*RES
1 *1076:Q *291:8 14.3357 
2 *291:8 *1128:A 26.3893 
3 *291:8 *1091:A 18.4071 
*END

*D_NET *292 0.00156137
*CONN
*I *1129:A I *D sky130_fd_sc_hd__clkbuf_4
*I *1064:Q O *D sky130_fd_sc_hd__dfrtp_1
*CAP
1 *1129:A 0.000572279
2 *1064:Q 0.000572279
3 *1129:A *1080:A 3.08664e-05
4 *1129:A *293:12 0.000187887
5 *271:16 *1129:A 0.000198058
*RES
1 *1064:Q *1129:A 26.5464 
*END

*D_NET *293 0.0195177
*CONN
*I *1064:RESET_B I *D sky130_fd_sc_hd__dfrtp_1
*I *1065:RESET_B I *D sky130_fd_sc_hd__dfrtp_1
*I *1063:RESET_B I *D sky130_fd_sc_hd__dfrtp_1
*I *1068:RESET_B I *D sky130_fd_sc_hd__dfrtp_1
*I *1069:RESET_B I *D sky130_fd_sc_hd__dfrtp_1
*I *1075:RESET_B I *D sky130_fd_sc_hd__dfrtp_1
*I *1076:RESET_B I *D sky130_fd_sc_hd__dfrtp_1
*I *1074:RESET_B I *D sky130_fd_sc_hd__dfrtp_1
*I *1067:RESET_B I *D sky130_fd_sc_hd__dfrtp_1
*I *1066:RESET_B I *D sky130_fd_sc_hd__dfrtp_1
*I *1080:X O *D sky130_fd_sc_hd__buf_4
*CAP
1 *1064:RESET_B 3.99586e-06
2 *1065:RESET_B 0
3 *1063:RESET_B 0
4 *1068:RESET_B 0
5 *1069:RESET_B 0.000414147
6 *1075:RESET_B 0.000414147
7 *1076:RESET_B 0.000246628
8 *1074:RESET_B 0.000866575
9 *1067:RESET_B 0.000566798
10 *1066:RESET_B 0.00256594
11 *1080:X 0.000415106
12 *293:84 0.000765927
13 *293:66 0.00057512
14 *293:64 0.000347523
15 *293:62 0.000526071
16 *293:44 0.00197578
17 *293:12 0.00116966
18 *1066:RESET_B *1054:A1 1.99271e-05
19 *1067:RESET_B *296:86 2.34372e-06
20 *293:44 *1040:A2 0.000356238
21 *293:84 *889:A 6.76152e-05
22 *844:A *1066:RESET_B 5.10822e-05
23 *880:A2 *1074:RESET_B 0.000202936
24 *880:A2 *293:66 0.000184246
25 *889:B *1074:RESET_B 0
26 *889:B *293:84 6.28767e-05
27 *893:A *293:84 0.000264825
28 *925:C *293:44 3.471e-05
29 *926:A2 *293:44 1.90936e-05
30 *982:B1 *293:44 5.33005e-05
31 *982:B2 *293:44 8.43386e-05
32 *994:A *293:44 0.000184375
33 *996:B *293:44 0.000336312
34 *996:D *293:44 0.000139281
35 *1020:A *293:44 3.11088e-05
36 *1020:B *293:44 0.000185403
37 *1020:C *293:44 3.02916e-05
38 *1022:A3 *293:44 0.000143828
39 *1033:A *293:44 5.33005e-05
40 *1033:B *293:44 0.000119969
41 *1033:C *293:44 5.66971e-05
42 *1040:A1 *293:44 2.12087e-05
43 *1040:B1 *293:44 0.000313093
44 *1041:A *293:44 0.000181899
45 *1044:B2 *1067:RESET_B 5.20669e-05
46 *1045:A *1074:RESET_B 0.000198368
47 *1054:A3 *1066:RESET_B 0
48 *1058:B1 *1074:RESET_B 0.000125717
49 *1063:D *293:66 0
50 *1064:CLK *1066:RESET_B 5.52302e-05
51 *1065:D *293:62 7.79859e-05
52 *1066:CLK *1066:RESET_B 0.000226885
53 *1066:D *293:44 5.06672e-05
54 *1067:CLK *293:64 0
55 *1067:D *293:62 4.27381e-05
56 *1068:D *293:66 7.89362e-05
57 *1069:CLK *1069:RESET_B 0.000162419
58 *1072:D *1066:RESET_B 5.26283e-05
59 *1074:CLK *1074:RESET_B 0.000120833
60 *1074:CLK *293:84 6.06493e-05
61 *1075:D *1076:RESET_B 0.000123352
62 *1119:A *293:64 0
63 *1119:A *293:66 0
64 *1129:A *293:12 0.000187887
65 *83:20 *293:44 1.00887e-05
66 *154:8 *293:44 7.9077e-05
67 *193:20 *293:44 0.000435643
68 *209:32 *1076:RESET_B 0.000276985
69 *209:58 *1074:RESET_B 4.56594e-05
70 *211:88 *293:84 3.42301e-05
71 *243:42 *1076:RESET_B 0.000520668
72 *244:33 *1067:RESET_B 1.5077e-05
73 *245:107 *293:44 3.63575e-05
74 *247:86 *293:44 0.000154296
75 *247:94 *293:44 5.33005e-05
76 *249:91 *293:44 3.63127e-05
77 *249:102 *293:44 9.23637e-05
78 *261:12 *293:84 0
79 *262:34 *1066:RESET_B 1.52978e-05
80 *262:45 *1066:RESET_B 0.000103275
81 *265:10 *1074:RESET_B 1.0562e-05
82 *265:51 *1074:RESET_B 0.000197192
83 *265:51 *293:66 1.34741e-05
84 *266:22 *293:62 1.41029e-05
85 *266:22 *293:64 0.00014789
86 *266:22 *293:66 0.000141625
87 *266:34 *293:66 5.92501e-05
88 *267:10 *1076:RESET_B 0.000102625
89 *267:10 *293:84 0.000524075
90 *271:16 *1064:RESET_B 2.81497e-05
91 *271:16 *1066:RESET_B 0.000157399
92 *271:16 *293:12 0.000296415
93 *273:16 *293:44 7.35596e-05
94 *277:14 *293:62 3.22888e-05
95 *277:14 *293:64 4.20528e-05
96 *289:8 *293:84 9.83388e-05
*RES
1 *1080:X *293:12 16.9786 
2 *293:12 *1066:RESET_B 22.6339 
3 *1066:RESET_B *293:44 49.8869 
4 *293:44 *1067:RESET_B 10.6064 
5 *1067:RESET_B *293:62 10.3304 
6 *293:62 *293:64 3.46429 
7 *293:64 *293:66 6.5 
8 *293:66 *1074:RESET_B 15.0625 
9 *1074:RESET_B *293:84 16.8304 
10 *293:84 *1076:RESET_B 12.3482 
11 *293:84 *1075:RESET_B 4.5 
12 *1075:RESET_B *1069:RESET_B 6.75 
13 *293:66 *1068:RESET_B 4.5 
14 *293:64 *1063:RESET_B 4.5 
15 *293:62 *1065:RESET_B 4.5 
16 *293:12 *1064:RESET_B 0.473214 
*END

*D_NET *294 0.000438313
*CONN
*I *880:A1 I *D sky130_fd_sc_hd__o21ba_1
*I *1081:X O *D sky130_fd_sc_hd__dlygate4sd3_1
*CAP
1 *880:A1 4.35867e-05
2 *1081:X 4.35867e-05
3 *880:B1_N *880:A1 0.000180501
4 *211:35 *880:A1 0.000170638
*RES
1 *1081:X *880:A1 20.3679 
*END

*D_NET *295 0.000398692
*CONN
*I *1036:A2 I *D sky130_fd_sc_hd__a22o_1
*I *1086:X O *D sky130_fd_sc_hd__dlygate4sd3_1
*CAP
1 *1036:A2 8.80527e-05
2 *1086:X 8.80527e-05
3 *1036:B1 *1036:A2 6.01916e-05
4 *1036:B2 *1036:A2 8.34584e-05
5 *1065:D *1036:A2 7.89362e-05
*RES
1 *1086:X *1036:A2 29.9036 
*END

*D_NET *296 0.0225391
*CONN
*I *1054:A1 I *D sky130_fd_sc_hd__a31o_1
*I *863:A I *D sky130_fd_sc_hd__xnor2_1
*I *850:A I *D sky130_fd_sc_hd__or4_1
*I *977:A2 I *D sky130_fd_sc_hd__a31o_1
*I *942:B I *D sky130_fd_sc_hd__and2_1
*I *928:A2 I *D sky130_fd_sc_hd__a22o_1
*I *912:B1 I *D sky130_fd_sc_hd__a22o_1
*I *913:D I *D sky130_fd_sc_hd__nand4_2
*I *929:C I *D sky130_fd_sc_hd__nand4_1
*I *984:B I *D sky130_fd_sc_hd__nand2_1
*I *1110:X O *D sky130_fd_sc_hd__clkbuf_4
*CAP
1 *1054:A1 0.000269923
2 *863:A 0
3 *850:A 0.000329999
4 *977:A2 2.8261e-05
5 *942:B 2.13113e-05
6 *928:A2 0.000250853
7 *912:B1 0.000523287
8 *913:D 0.000181273
9 *929:C 0
10 *984:B 1.51408e-05
11 *1110:X 0
12 *296:161 0.000727556
13 *296:155 0.0026273
14 *296:86 0.00105384
15 *296:71 0.000562484
16 *296:59 0.0008825
17 *296:49 0.00208443
18 *296:29 0.00215458
19 *296:14 0.000917691
20 *296:4 0.00238073
21 *912:B1 *911:B 0.000152861
22 *296:49 *307:14 5.00858e-06
23 *296:155 *307:14 0.000138404
24 *863:B *296:161 0.000139202
25 *912:A1 *912:B1 9.58689e-05
26 *912:B2 *912:B1 3.67636e-05
27 *926:B1 *912:B1 3.14948e-05
28 *928:A1 *296:86 3.14003e-05
29 *928:B1 *928:A2 5.46383e-06
30 *928:B2 *928:A2 5.49544e-05
31 *929:B *296:86 5.49211e-05
32 *929:D *296:71 0.000137969
33 *929:D *296:86 1.24368e-05
34 *942:A *296:49 0.000102168
35 *944:B *928:A2 9.41642e-05
36 *944:B *296:71 1.65482e-05
37 *945:A1 *296:59 0.000143373
38 *954:A *296:59 5.48781e-05
39 *954:B *296:59 6.05161e-06
40 *955:B1 *296:49 1.82328e-05
41 *955:B1 *296:59 2.59355e-05
42 *962:A2 *296:49 4.00349e-05
43 *971:C *296:49 0.000133721
44 *974:D *296:86 3.81151e-05
45 *977:A1 *296:29 0.000134492
46 *977:A1 *296:49 2.84109e-05
47 *982:B1 *912:B1 3.49456e-06
48 *984:A *984:B 1.87331e-05
49 *984:A *296:29 0.000359279
50 *985:A_N *296:49 0
51 *986:A *296:29 6.74795e-05
52 *986:B *296:29 5.50052e-05
53 *1044:B2 *296:86 0
54 *1066:CLK *1054:A1 5.33005e-05
55 *1066:CLK *296:161 0.000197173
56 *1066:RESET_B *1054:A1 1.99271e-05
57 *1067:RESET_B *296:86 2.34372e-06
58 *1118:A *296:49 0.000107686
59 *1118:A *296:86 0.000136146
60 *69:14 *912:B1 0.000138432
61 *70:10 *912:B1 5.74499e-06
62 *72:12 *912:B1 5.33005e-05
63 *100:13 *296:59 2.59355e-05
64 *102:20 *296:59 0.000518309
65 *102:20 *296:71 8.31322e-05
66 *102:26 *296:59 7.54868e-05
67 *112:14 *296:59 6.05161e-06
68 *115:18 *296:59 0
69 *118:22 *296:49 0.000426235
70 *119:8 *296:49 0.000100368
71 *129:10 *296:49 8.43535e-06
72 *134:8 *296:49 0.000120791
73 *135:10 *296:29 9.56313e-05
74 *161:10 *850:A 0
75 *212:12 *296:59 0.000202535
76 *212:14 *296:59 0.000516752
77 *212:14 *296:71 9.29691e-05
78 *212:42 *928:A2 3.78275e-05
79 *212:61 *928:A2 2.79421e-05
80 *212:88 *850:A 0.000150625
81 *213:74 *850:A 0
82 *213:87 *850:A 0
83 *228:10 *296:161 7.589e-05
84 *244:33 *296:71 1.55574e-05
85 *244:33 *296:86 0
86 *246:97 *913:D 1.3701e-05
87 *246:97 *296:86 0.000182592
88 *247:73 *913:D 0
89 *247:111 *296:86 5.33005e-05
90 *247:113 *296:86 0.000182431
91 *249:83 *913:D 0.000126121
92 *249:83 *296:86 5.23261e-05
93 *265:51 *912:B1 3.50746e-05
94 *265:51 *913:D 4.06715e-05
95 *265:68 *912:B1 3.0114e-05
96 *266:10 *296:59 0
97 *273:10 *296:14 0.000446215
98 *273:10 *296:155 0.000357063
99 *273:16 *296:155 0
100 *273:16 *296:161 0
101 *277:24 *850:A 0.000270427
102 *277:24 *913:D 2.40379e-05
103 *277:24 *296:161 3.6346e-05
104 *280:10 *296:86 0.000146146
*RES
1 *1110:X *296:4 9.3 
2 *296:4 *296:14 15.4107 
3 *296:14 *984:B 9.72857 
4 *296:14 *296:29 9.92857 
5 *296:29 *296:49 28.1712 
6 *296:49 *296:59 17.7679 
7 *296:59 *296:71 9.58929 
8 *296:71 *929:C 9.3 
9 *296:71 *296:86 12.8393 
10 *296:86 *913:D 17.2464 
11 *296:86 *912:B1 21.9071 
12 *296:59 *928:A2 18.0679 
13 *296:49 *942:B 9.72857 
14 *296:29 *977:A2 9.72857 
15 *296:4 *296:155 37.8929 
16 *296:155 *296:161 12.8214 
17 *296:161 *850:A 25.8 
18 *296:161 *863:A 9.3 
19 *296:155 *1054:A1 18.175 
*END

*D_NET *297 0.000222077
*CONN
*I *1046:A2 I *D sky130_fd_sc_hd__a21bo_1
*I *1087:X O *D sky130_fd_sc_hd__dlygate4sd3_1
*CAP
1 *1046:A2 7.13991e-05
2 *1087:X 7.13991e-05
3 *1087:A *1046:A2 7.32272e-05
4 *265:51 *1046:A2 6.05161e-06
*RES
1 *1087:X *1046:A2 19.9571 
*END

*D_NET *298 0.00111798
*CONN
*I *1040:A2 I *D sky130_fd_sc_hd__a22o_1
*I *1088:X O *D sky130_fd_sc_hd__dlygate4sd3_1
*CAP
1 *1040:A2 0.000115148
2 *1088:X 0.000115148
3 *1040:A1 *1040:A2 0.000531444
4 *293:44 *1040:A2 0.000356238
*RES
1 *1088:X *1040:A2 23.6536 
*END

*D_NET *299 0.000542171
*CONN
*I *1044:A2 I *D sky130_fd_sc_hd__a22o_1
*I *1089:X O *D sky130_fd_sc_hd__dlygate4sd3_1
*CAP
1 *1044:A2 5.89185e-05
2 *1089:X 5.89185e-05
3 *1036:A1 *1044:A2 5.29983e-05
4 *1044:B1 *1044:A2 5.65955e-05
5 *1044:B2 *1044:A2 5.49489e-05
6 *193:20 *1044:A2 0.000226867
7 *211:50 *1044:A2 3.29242e-05
*RES
1 *1089:X *1044:A2 21.2071 
*END

*D_NET *300 0.000915074
*CONN
*I *1049:B I *D sky130_fd_sc_hd__and2_1
*I *1090:X O *D sky130_fd_sc_hd__dlygate4sd3_1
*CAP
1 *1049:B 0.000354343
2 *1090:X 0.000354343
3 *1049:A *1049:B 5.33334e-05
4 *1123:A *1049:B 0.000153054
*RES
1 *1090:X *1049:B 34.1893 
*END

*D_NET *301 0.00103503
*CONN
*I *1061:B I *D sky130_fd_sc_hd__and2_1
*I *1091:X O *D sky130_fd_sc_hd__dlygate4sd3_1
*CAP
1 *1061:B 0.000400953
2 *1091:X 0.000400953
3 *1075:D *1061:B 6.05161e-06
4 *1076:CLK *1061:B 1.84865e-05
5 *243:42 *1061:B 0.000196381
6 *261:33 *1061:B 1.22076e-05
*RES
1 *1091:X *1061:B 33.7786 
*END

*D_NET *302 0.000264514
*CONN
*I *1047:B I *D sky130_fd_sc_hd__and2_1
*I *1092:X O *D sky130_fd_sc_hd__dlygate4sd3_1
*CAP
1 *1047:B 7.93975e-05
2 *1092:X 7.93975e-05
3 *849:A *1047:B 4.85715e-05
4 *211:105 *1047:B 5.71472e-05
*RES
1 *1092:X *1047:B 20.3857 
*END

*D_NET *303 0.00027643
*CONN
*I *1059:B I *D sky130_fd_sc_hd__and2_1
*I *1093:X O *D sky130_fd_sc_hd__dlygate4sd3_1
*CAP
1 *1059:B 2.92035e-05
2 *1093:X 2.92035e-05
3 *849:A *1059:B 0.00014183
4 *1059:A *1059:B 7.61932e-05
*RES
1 *1093:X *1059:B 19.9571 
*END

*D_NET *304 0.00110303
*CONN
*I *1055:B I *D sky130_fd_sc_hd__and2_1
*I *1082:X O *D sky130_fd_sc_hd__dlygate4sd3_1
*CAP
1 *1055:B 0.000343111
2 *1082:X 0.000343111
3 *1055:B *310:16 3.83577e-05
4 *870:B1 *1055:B 0.00027828
5 *1055:A *1055:B 0.000100165
*RES
1 *1082:X *1055:B 35.2429 
*END

*D_NET *305 0.000864712
*CONN
*I *1051:B I *D sky130_fd_sc_hd__and2_1
*I *1083:X O *D sky130_fd_sc_hd__dlygate4sd3_1
*CAP
1 *1051:B 0.000328657
2 *1083:X 0.000328657
3 *1123:A *1051:B 0.00015244
4 *211:128 *1051:B 5.4959e-05
*RES
1 *1083:X *1051:B 33.8143 
*END

*D_NET *306 0.000635879
*CONN
*I *1057:B I *D sky130_fd_sc_hd__and2_1
*I *1084:X O *D sky130_fd_sc_hd__dlygate4sd3_1
*CAP
1 *1057:B 0.0002167
2 *1084:X 0.0002167
3 *845:A *1057:B 0
4 *210:49 *1057:B 9.60875e-05
5 *265:51 *1057:B 3.41848e-05
6 *266:34 *1057:B 1.00887e-05
7 *276:22 *1057:B 6.21189e-05
*RES
1 *1084:X *1057:B 31.6714 
*END

*D_NET *307 0.024588
*CONN
*I *953:B I *D sky130_fd_sc_hd__and2_1
*I *927:B I *D sky130_fd_sc_hd__and2_1
*I *912:A2 I *D sky130_fd_sc_hd__a22o_1
*I *913:C I *D sky130_fd_sc_hd__nand4_2
*I *860:A I *D sky130_fd_sc_hd__xor2_1
*I *1056:A1 I *D sky130_fd_sc_hd__a31o_1
*I *851:B I *D sky130_fd_sc_hd__or3_1
*I *857:A1 I *D sky130_fd_sc_hd__o21a_1
*I *886:B1 I *D sky130_fd_sc_hd__a22o_1
*I *884:D I *D sky130_fd_sc_hd__nand4_1
*I *1111:X O *D sky130_fd_sc_hd__clkbuf_4
*CAP
1 *953:B 1.34337e-05
2 *927:B 0.000182287
3 *912:A2 0
4 *913:C 5.01574e-05
5 *860:A 3.5568e-05
6 *1056:A1 0.000667582
7 *851:B 6.50886e-05
8 *857:A1 0
9 *886:B1 8.33222e-05
10 *884:D 0.000240933
11 *1111:X 0.00150718
12 *307:123 0.000824175
13 *307:114 0.000682055
14 *307:108 0.00244997
15 *307:89 0.00206928
16 *307:62 0.000750717
17 *307:50 0.00108309
18 *307:42 0.00125944
19 *307:30 0.00119695
20 *307:20 0.000535215
21 *307:14 0.00158848
22 *884:D *886:A2 1.17091e-05
23 *1056:A1 *310:28 2.18902e-05
24 *307:14 *309:14 0
25 *307:30 *939:B 4.17963e-05
26 *307:30 *309:43 0.000140243
27 *307:42 *309:43 0
28 *307:114 *851:A 0.000123652
29 *307:114 *858:A 4.49293e-05
30 *307:123 *851:A 1.39726e-05
31 is_outlier *307:62 7.83659e-05
32 is_outlier *307:89 5.53561e-05
33 is_outlier *307:108 8.87461e-06
34 *857:A2 *307:114 5.6902e-05
35 *857:A2 *307:123 5.47001e-05
36 *858:B *307:114 0.000151879
37 *879:B *884:D 9.91224e-05
38 *883:A *884:D 5.90455e-05
39 *886:A1 *886:B1 1.02504e-05
40 *886:B2 *307:108 0.000339187
41 *910:B *307:114 5.90322e-05
42 *915:B1 *307:62 2.89114e-05
43 *927:A *927:B 0.00010096
44 *949:A1 *307:42 0.000169329
45 *949:A2 *307:42 0.000100831
46 *951:A1 *307:30 3.94882e-05
47 *951:A2 *927:B 1.04232e-05
48 *951:A2 *307:30 1.21258e-05
49 *953:A *307:14 1.00887e-05
50 *962:A2 *307:14 8.44271e-06
51 *963:A1 *307:30 0.000222885
52 *971:A *307:14 0.000140632
53 *971:B *307:14 0.00011969
54 *971:C *307:14 1.12578e-05
55 *979:C *307:14 1.65144e-05
56 *980:A2 *307:14 2.48421e-05
57 *980:A2 *307:20 7.4854e-05
58 *980:A2 *307:30 7.25873e-06
59 *982:B1 *307:42 0.000167586
60 *1015:B1 *860:A 0.000139913
61 *1015:C1 *307:114 0
62 *1056:A3 *1056:A1 4.18895e-05
63 *1068:CLK *884:D 5.49489e-05
64 *1073:D *1056:A1 5.52238e-05
65 *1087:A *884:D 6.05161e-06
66 *1104:A *307:14 5.71472e-05
67 *1110:A *307:14 5.62995e-05
68 *1111:A *307:14 5.62995e-05
69 *66:10 *851:B 5.71472e-05
70 *66:10 *307:114 0.000229211
71 *66:10 *307:123 0.000126294
72 *72:12 *307:50 4.33438e-05
73 *82:8 *307:42 0.000137172
74 *82:8 *307:50 0.000103557
75 *90:10 *307:42 9.79125e-05
76 *97:19 *307:30 2.23279e-05
77 *107:10 *307:30 1.46624e-05
78 *132:19 *307:30 0.000549815
79 *132:19 *307:42 0.000211966
80 *163:10 *307:108 0
81 *170:12 *307:114 0.000309201
82 *213:30 *307:42 5.62114e-05
83 *215:16 *307:123 4.27935e-05
84 *216:6 *1056:A1 3.06878e-06
85 *217:8 *307:114 1.76135e-05
86 *217:17 *307:114 5.27603e-05
87 *217:81 *307:114 9.43102e-05
88 *217:98 *307:108 2.05413e-05
89 *217:98 *307:114 9.39732e-05
90 *217:126 *1056:A1 0.000212239
91 *243:106 *1056:A1 0.000569613
92 *247:14 *884:D 2.67489e-05
93 *247:30 *884:D 1.17091e-05
94 *247:30 *307:89 3.67324e-05
95 *247:30 *307:108 1.36353e-05
96 *247:65 *884:D 3.18747e-05
97 *247:73 *307:50 0.000198095
98 *247:86 *307:42 9.48954e-05
99 *247:86 *307:50 3.29297e-05
100 *248:23 *886:B1 7.05143e-06
101 *249:62 *886:B1 2.26973e-05
102 *249:83 *913:C 0.000150618
103 *249:83 *307:62 0.000111011
104 *249:91 *307:42 2.62601e-05
105 *261:81 *884:D 1.85361e-05
106 *261:81 *307:62 5.63971e-05
107 *265:51 *884:D 0.000307942
108 *265:51 *913:C 7.4826e-05
109 *265:51 *307:62 0.000266614
110 *272:14 *307:14 6.02223e-05
111 *272:26 *860:A 7.3237e-05
112 *273:10 *307:14 0.00136707
113 *296:49 *307:14 5.00858e-06
114 *296:155 *307:14 0.000138404
*RES
1 *1111:X *307:14 47.4607 
2 *307:14 *307:20 6.28571 
3 *307:20 *307:30 19.6429 
4 *307:30 *307:42 18.5 
5 *307:42 *307:50 18.9464 
6 *307:50 *307:62 16.4554 
7 *307:62 *884:D 29.0054 
8 *307:62 *307:89 3.81733 
9 *307:89 *886:B1 17.6403 
10 *307:89 *307:108 7.92896 
11 *307:108 *307:114 18.9464 
12 *307:114 *857:A1 9.3 
13 *307:114 *307:123 2.5 
14 *307:123 *851:B 10.2464 
15 *307:123 *1056:A1 21.0857 
16 *307:108 *860:A 15.1571 
17 *307:50 *913:C 15.7464 
18 *307:42 *912:A2 13.8 
19 *307:30 *927:B 12.7286 
20 *307:20 *953:B 9.72857 
*END

*D_NET *308 0.000661185
*CONN
*I *1053:B I *D sky130_fd_sc_hd__and2_1
*I *1085:X O *D sky130_fd_sc_hd__dlygate4sd3_1
*CAP
1 *1053:B 0.000316326
2 *1085:X 0.000316326
3 *1053:A *1053:B 2.85321e-05
*RES
1 *1085:X *1053:B 23.6714 
*END

*D_NET *309 0.0246584
*CONN
*I *911:B I *D sky130_fd_sc_hd__and2_1
*I *886:A2 I *D sky130_fd_sc_hd__a22o_1
*I *884:C I *D sky130_fd_sc_hd__nand4_1
*I *890:D I *D sky130_fd_sc_hd__and4_1
*I *858:A I *D sky130_fd_sc_hd__xnor2_1
*I *851:A I *D sky130_fd_sc_hd__or3_1
*I *891:B1 I *D sky130_fd_sc_hd__a22o_1
*I *1058:A1 I *D sky130_fd_sc_hd__a31o_1
*I *939:B I *D sky130_fd_sc_hd__and2_1
*I *1112:X O *D sky130_fd_sc_hd__buf_2
*CAP
1 *911:B 8.94301e-05
2 *886:A2 0.000339073
3 *884:C 0.00035437
4 *890:D 4.36033e-05
5 *858:A 4.19926e-05
6 *851:A 0.000292597
7 *891:B1 0.000372352
8 *1058:A1 0.000545542
9 *939:B 0.000284818
10 *1112:X 0.00159593
11 *309:117 0.00141909
12 *309:86 0.00171944
13 *309:63 0.000993976
14 *309:61 0.00029617
15 *309:59 0.000702872
16 *309:49 0.00113155
17 *309:43 0.00178899
18 *309:14 0.00306962
19 *858:A *310:43 2.59355e-05
20 *890:D *890:C 5.33005e-05
21 *891:B1 *891:A2 7.66995e-05
22 *891:B1 *1060:A1 8.32171e-05
23 *891:B1 *310:62 0.000139923
24 *891:B1 *310:81 1.90936e-05
25 *309:49 *915:A2 2.47093e-05
26 *309:59 *310:100 3.54498e-05
27 *309:61 *310:100 2.61151e-05
28 *309:86 *310:47 1.40415e-05
29 *309:86 *311:72 2.42516e-05
30 *309:117 *310:43 0.000252761
31 *309:117 *310:47 6.12902e-05
32 int4_out[2] *309:14 1.12926e-05
33 *854:B *851:A 0
34 *857:A2 *851:A 5.41953e-05
35 *884:A *884:C 0.000387163
36 *884:D *886:A2 1.17091e-05
37 *885:A *891:B1 1.98839e-05
38 *886:A1 *884:C 2.89997e-05
39 *886:B2 *886:A2 1.24435e-05
40 *887:D *884:C 1.00733e-05
41 *888:A *886:A2 3.50949e-06
42 *888:B *886:A2 2.59355e-05
43 *891:A1 *891:B1 2.79533e-05
44 *891:A1 *309:63 9.08304e-05
45 *891:B2 *309:61 4.22135e-06
46 *891:B2 *309:63 2.51604e-05
47 *892:A_N *1058:A1 1.17968e-05
48 *892:A_N *309:63 8.20871e-05
49 *893:B *1058:A1 0.000199231
50 *898:A2 *1058:A1 1.02504e-05
51 *898:A2 *309:63 8.75452e-05
52 *898:A3 *309:86 7.02611e-05
53 *899:A *891:B1 4.4085e-05
54 *903:A *309:117 0.00010096
55 *903:B *891:B1 1.48119e-05
56 *912:B1 *911:B 0.000152861
57 *912:B2 *911:B 0
58 *925:A *309:43 9.96553e-05
59 *925:B *309:43 2.5329e-05
60 *925:B *309:49 2.2918e-05
61 *926:B1 *309:49 1.18451e-05
62 *931:A1 *309:43 0.00021298
63 *931:A2 *309:43 0.000200177
64 *931:B1 *309:43 1.21859e-05
65 *932:A *309:43 1.44986e-05
66 *949:A1 *309:43 0
67 *952:A *309:43 0
68 *952:B *309:43 0
69 *952:C *309:43 8.12795e-05
70 *956:A *309:43 3.67279e-06
71 *964:A *939:B 4.72917e-05
72 *972:A *309:14 0.000146676
73 *972:C *309:14 2.83425e-05
74 *1007:B1 *886:A2 3.06878e-06
75 *1007:B1 *309:49 0.000112787
76 *1007:B1 *309:59 0.000188877
77 *1008:A3 *309:59 0.000135028
78 *1012:S *858:A 5.33005e-05
79 *1012:S *309:117 0.000528978
80 *1044:B2 *911:B 0.000129261
81 *1058:A2 *1058:A1 6.05161e-06
82 *1068:CLK *884:C 5.49995e-05
83 *1103:A *309:14 2.89016e-05
84 *56:12 *1058:A1 8.00806e-05
85 *69:14 *911:B 5.33005e-05
86 *69:14 *309:43 4.28123e-05
87 *69:14 *309:49 3.04901e-05
88 *71:19 *309:49 6.562e-05
89 *79:12 *309:117 2.84109e-05
90 *84:12 *309:43 0.000321905
91 *84:12 *309:49 0.000145923
92 *88:8 *309:43 3.454e-05
93 *97:6 *939:B 0.000175892
94 *97:19 *939:B 1.72894e-05
95 *111:10 *309:14 0.000142808
96 *118:22 *309:14 9.59532e-06
97 *130:12 *309:14 0.000272338
98 *132:19 *309:14 0
99 *132:19 *309:43 0
100 *211:10 *1058:A1 0.000308186
101 *211:88 *1058:A1 0.000406791
102 *215:16 *851:A 6.7116e-05
103 *217:17 *851:A 7.6644e-05
104 *217:17 *858:A 5.41794e-05
105 *246:36 *309:49 1.01156e-05
106 *246:55 *309:49 1.03196e-05
107 *246:70 *309:49 7.6033e-05
108 *246:78 *309:49 2.07158e-05
109 *246:97 *309:43 1.52087e-05
110 *247:14 *884:C 2.24718e-05
111 *247:30 *884:C 9.83442e-05
112 *247:65 *886:A2 3.51025e-05
113 *247:65 *309:49 0.000122762
114 *248:12 *884:C 6.59544e-05
115 *249:18 *309:59 1.52131e-05
116 *249:26 *309:59 6.8255e-05
117 *249:26 *309:61 0.000108628
118 *249:26 *309:63 0.000257568
119 *249:62 *309:59 5.50052e-05
120 *251:27 *309:49 3.34687e-05
121 *252:8 *891:B1 8.6918e-06
122 *252:8 *309:49 9.15842e-06
123 *252:8 *309:59 0.000191065
124 *254:16 *309:61 4.09607e-05
125 *254:16 *309:63 9.15842e-06
126 *259:14 *891:B1 0.000195378
127 *259:14 *309:86 1.33343e-05
128 *259:14 *309:117 4.18895e-05
129 *264:20 *939:B 0.000104809
130 *265:68 *911:B 5.50052e-05
131 *265:68 *309:43 7.80492e-05
132 *265:85 *309:43 0.000181727
133 *266:10 *309:14 9.84673e-05
134 *267:10 *1058:A1 4.98872e-05
135 *267:79 *884:C 9.77264e-06
136 *272:14 *939:B 0.000116101
137 *272:14 *309:14 0.000182004
138 *276:22 *891:B1 5.74499e-06
139 *307:14 *309:14 0
140 *307:30 *939:B 4.17963e-05
141 *307:30 *309:43 0.000140243
142 *307:42 *309:43 0
143 *307:114 *851:A 0.000123652
144 *307:114 *858:A 4.49293e-05
145 *307:123 *851:A 1.39726e-05
*RES
1 *1112:X *309:14 38.0143 
2 *309:14 *939:B 20.0321 
3 *309:14 *309:43 34.375 
4 *309:43 *309:49 11.4107 
5 *309:49 *309:59 14.7679 
6 *309:59 *309:61 1.64286 
7 *309:61 *309:63 4.67857 
8 *309:63 *1058:A1 26.3179 
9 *309:63 *309:86 8.32143 
10 *309:86 *891:B1 25.7821 
11 *309:86 *309:117 23.6607 
12 *309:117 *851:A 18.5679 
13 *309:117 *858:A 15.0679 
14 *309:61 *890:D 14.3357 
15 *309:59 *884:C 29.2286 
16 *309:49 *886:A2 17.9429 
17 *309:43 *911:B 16.5321 
*END

*D_NET *310 0.0213585
*CONN
*I *853:A I *D sky130_fd_sc_hd__or3b_2
*I *924:B I *D sky130_fd_sc_hd__and2_1
*I *899:B I *D sky130_fd_sc_hd__nand2_1
*I *915:A2 I *D sky130_fd_sc_hd__a22o_1
*I *887:B I *D sky130_fd_sc_hd__nand4_1
*I *1006:A I *D sky130_fd_sc_hd__nand2_1
*I *890:C I *D sky130_fd_sc_hd__and4_1
*I *891:A2 I *D sky130_fd_sc_hd__a22o_1
*I *1060:A1 I *D sky130_fd_sc_hd__a31o_1
*I *855:A I *D sky130_fd_sc_hd__xor2_1
*I *1113:X O *D sky130_fd_sc_hd__clkbuf_4
*CAP
1 *853:A 0
2 *924:B 0.000580885
3 *899:B 2.52229e-05
4 *915:A2 0.000304717
5 *887:B 0.000117739
6 *1006:A 0
7 *890:C 0.000141513
8 *891:A2 3.06394e-05
9 *1060:A1 0.000575955
10 *855:A 0
11 *1113:X 0.00166753
12 *310:135 0.000728976
13 *310:104 0.000136378
14 *310:100 0.000490476
15 *310:81 0.000452141
16 *310:62 0.000245345
17 *310:47 0.000919036
18 *310:43 0.00142871
19 *310:30 0.00116119
20 *310:28 0.000724863
21 *310:16 0.00226516
22 *853:B *310:28 3.34783e-05
23 *853:C_N *310:28 6.56312e-06
24 *854:B *310:28 5.65955e-05
25 *855:B *310:28 0.000179947
26 *855:B *310:30 0.000257619
27 *858:A *310:43 2.59355e-05
28 *878:A2 *310:28 5.54655e-05
29 *878:A2 *310:30 2.59355e-05
30 *882:A *890:C 4.08637e-05
31 *885:A *891:A2 5.33005e-05
32 *885:A *1060:A1 4.5539e-05
33 *885:A *310:62 0.000110446
34 *885:A *310:81 9.77021e-06
35 *886:B2 *915:A2 1.94879e-05
36 *887:D *887:B 3.48083e-05
37 *890:A *890:C 1.24368e-05
38 *890:D *890:C 5.33005e-05
39 *891:A1 *310:100 0
40 *891:B1 *891:A2 7.66995e-05
41 *891:B1 *1060:A1 8.32171e-05
42 *891:B1 *310:62 0.000139923
43 *891:B1 *310:81 1.90936e-05
44 *891:B2 *310:81 0.000113563
45 *891:B2 *310:100 4.50762e-05
46 *894:A_N *1060:A1 9.03841e-05
47 *895:A *1060:A1 3.38136e-05
48 *900:B *924:B 6.14702e-06
49 *903:A *310:47 3.67142e-05
50 *903:A *310:135 3.92854e-05
51 *903:B *924:B 0
52 *903:B *310:135 0
53 *915:A1 *915:A2 1.24368e-05
54 *918:A_N *924:B 0.000413081
55 *968:B1 *924:B 0
56 *1006:B *915:A2 8.6229e-06
57 *1006:B *310:100 0.000143222
58 *1007:B1 *915:A2 1.67004e-05
59 *1007:B1 *310:81 0.000111506
60 *1007:B1 *310:100 0.000100711
61 *1009:S *924:B 7.89362e-05
62 *1012:S *310:30 5.33005e-05
63 *1012:S *310:43 0.0006201
64 *1045:C *890:C 3.50746e-05
65 *1045:C *924:B 0.000195126
66 *1048:A3 *1060:A1 3.49456e-06
67 *1048:B1 *1060:A1 0
68 *1055:B *310:16 3.83577e-05
69 *1056:A1 *310:28 2.18902e-05
70 *1056:A3 *310:28 2.59355e-05
71 *1060:B1 *1060:A1 0.000628938
72 *1073:CLK *310:28 3.87848e-05
73 *1073:D *310:28 0.000125717
74 *1078:A *310:81 0.000251754
75 *1093:A *1060:A1 0
76 *1123:A *310:16 0.00103171
77 *55:20 *924:B 0
78 *55:20 *310:135 0
79 *61:14 *1060:A1 0
80 *72:12 *924:B 0
81 *73:8 *915:A2 6.05161e-06
82 *79:12 *310:43 4.5001e-05
83 *165:14 *924:B 6.29947e-05
84 *170:12 *310:43 0.00048939
85 *209:16 *310:28 4.73656e-05
86 *209:22 *310:28 0.000246057
87 *209:24 *1060:A1 0.000402747
88 *211:88 *1060:A1 0
89 *211:105 *310:16 1.53434e-05
90 *214:55 *310:28 0
91 *217:44 *310:81 0.000201965
92 *217:126 *310:28 4.73286e-05
93 *223:16 *310:30 5.96516e-05
94 *243:24 *1060:A1 4.51234e-05
95 *243:106 *310:28 0.0003009
96 *243:110 *310:28 5.66157e-05
97 *246:70 *924:B 0
98 *247:65 *915:A2 0.000172734
99 *248:23 *887:B 1.24368e-05
100 *249:18 *887:B 5.56974e-05
101 *249:18 *310:104 5.33005e-05
102 *249:62 *915:A2 8.77395e-05
103 *249:62 *310:100 5.2732e-05
104 *251:10 *887:B 9.58632e-05
105 *251:10 *915:A2 0.00012199
106 *251:10 *310:104 1.98839e-05
107 *251:27 *915:A2 0.000138174
108 *252:8 *1060:A1 5.58875e-06
109 *252:8 *310:62 9.21418e-06
110 *252:8 *310:81 4.75956e-06
111 *259:14 *899:B 5.52238e-05
112 *259:14 *1060:A1 2.49484e-05
113 *267:10 *1060:A1 0
114 *267:21 *890:C 0.000163455
115 *267:79 *887:B 8.25843e-06
116 *272:26 *924:B 6.07328e-05
117 *276:22 *891:A2 1.98839e-05
118 *288:8 *310:16 9.76491e-05
119 *309:49 *915:A2 2.47093e-05
120 *309:59 *310:100 3.54498e-05
121 *309:61 *310:100 2.61151e-05
122 *309:86 *310:47 1.40415e-05
123 *309:117 *310:43 0.000252761
124 *309:117 *310:47 6.12902e-05
*RES
1 *1113:X *310:16 49.3714 
2 *310:16 *310:28 27.1429 
3 *310:28 *310:30 3 
4 *310:30 *855:A 9.3 
5 *310:30 *310:43 19.4821 
6 *310:43 *310:47 7.91071 
7 *310:47 *1060:A1 28.4964 
8 *310:47 *310:62 1.94643 
9 *310:62 *891:A2 14.7464 
10 *310:62 *310:81 8.99519 
11 *310:81 *890:C 16.8357 
12 *310:81 *310:100 4.125 
13 *310:100 *310:104 5.03571 
14 *310:104 *1006:A 9.3 
15 *310:104 *887:B 11.925 
16 *310:100 *915:A2 19.7286 
17 *310:43 *310:135 6.44643 
18 *310:135 *899:B 14.3357 
19 *310:135 *924:B 26.425 
20 *310:28 *853:A 9.3 
*END

*D_NET *311 0.0152536
*CONN
*I *868:A I *D sky130_fd_sc_hd__nand2_1
*I *852:A I *D sky130_fd_sc_hd__buf_2
*I *897:B I *D sky130_fd_sc_hd__nand2_2
*I *902:A I *D sky130_fd_sc_hd__and3_1
*I *898:A1 I *D sky130_fd_sc_hd__a31o_1
*I *889:A I *D sky130_fd_sc_hd__nand2_1
*I *1114:X O *D sky130_fd_sc_hd__clkbuf_2
*CAP
1 *868:A 0
2 *852:A 0
3 *897:B 1.65813e-05
4 *902:A 0
5 *898:A1 2.37855e-05
6 *889:A 9.45033e-05
7 *1114:X 0.00223152
8 *311:72 0.000500666
9 *311:62 0.000886741
10 *311:46 0.00188211
11 *311:32 0.00163982
12 *311:22 0.000464633
13 *311:12 0.0024175
14 *881:A *897:B 1.37077e-05
15 *881:A *311:46 3.08664e-05
16 *881:A *311:62 5.20751e-05
17 *884:A *311:72 3.69047e-06
18 *889:B *889:A 0.000182881
19 *889:B *311:72 9.60875e-05
20 *898:A2 *311:72 1.98839e-05
21 *898:A3 *311:72 0.000178847
22 *898:B1 *889:A 8.08476e-06
23 *900:A *311:62 0.000210301
24 *900:A *311:72 2.38501e-05
25 *900:B *311:62 6.79683e-05
26 *902:C *311:62 2.66502e-05
27 *910:B *311:46 0
28 *923:A *311:46 1.47872e-05
29 *923:B *311:46 1.24368e-05
30 *934:B1_N *311:46 6.68359e-05
31 *934:B1_N *311:62 2.976e-05
32 *1007:B1 *311:72 0.000175106
33 *1009:A0 *311:62 5.23735e-05
34 *1009:S *311:62 0.000111329
35 *1012:A0 *311:46 0.000267099
36 *1045:C *311:62 0.000287861
37 *1045:C *311:72 0.000139337
38 *1062:A1 *311:72 0.000132341
39 *1079:A *311:46 4.92083e-05
40 *1125:A *311:12 0.000464632
41 *3:27 *311:32 0.000171726
42 *55:6 *311:62 2.78576e-05
43 *55:10 *311:62 5.66064e-05
44 *79:12 *311:46 0
45 *209:22 *311:12 0.000164249
46 *211:105 *311:32 0.000126566
47 *211:105 *311:46 0.000758153
48 *214:35 *311:22 8.32707e-05
49 *214:35 *311:32 0.000254501
50 *214:55 *311:32 1.37292e-05
51 *217:40 *311:46 0
52 *217:126 *311:32 4.884e-05
53 *217:126 *311:46 4.01768e-05
54 *243:20 *311:12 5.49489e-05
55 *243:20 *311:22 0.000119709
56 *245:8 *311:46 1.49303e-05
57 *246:21 *311:72 2.19907e-05
58 *252:8 *311:72 0.000297296
59 *261:10 *889:A 4.6025e-06
60 *261:12 *889:A 2.6726e-05
61 *267:10 *889:A 0
62 *293:84 *889:A 6.76152e-05
63 *309:86 *311:72 2.42516e-05
*RES
1 *1114:X *311:12 49.925 
2 *311:12 *311:22 12.4286 
3 *311:22 *311:32 16.0179 
4 *311:32 *311:46 34.0893 
5 *311:46 *311:62 20.8929 
6 *311:62 *311:72 17.8393 
7 *311:72 *889:A 20.8 
8 *311:72 *898:A1 9.72857 
9 *311:62 *902:A 9.3 
10 *311:46 *897:B 9.72857 
11 *311:32 *852:A 9.3 
12 *311:22 *868:A 9.3 
*END

*D_NET *312 0.00611331
*CONN
*I *1071:RESET_B I *D sky130_fd_sc_hd__dfrtp_1
*I *1070:RESET_B I *D sky130_fd_sc_hd__dfrtp_1
*I *1073:RESET_B I *D sky130_fd_sc_hd__dfrtp_1
*I *1072:RESET_B I *D sky130_fd_sc_hd__dfrtp_1
*I *1080:A I *D sky130_fd_sc_hd__buf_4
*I *1115:X O *D sky130_fd_sc_hd__clkbuf_2
*CAP
1 *1071:RESET_B 0
2 *1070:RESET_B 0.000119962
3 *1073:RESET_B 0.0005646
4 *1072:RESET_B 0.00066906
5 *1080:A 0.00018352
6 *1115:X 0.000499003
7 *312:33 0.000883247
8 *312:31 0.000568655
9 *312:10 0.000981614
10 *1055:A *1073:RESET_B 0
11 *1117:A *312:10 0.000170519
12 *1123:A *1073:RESET_B 0
13 *1129:A *1080:A 3.08664e-05
14 *211:122 *1073:RESET_B 0
15 *211:128 *1073:RESET_B 0
16 *211:132 *312:31 0.000768041
17 *211:132 *312:33 0.000199782
18 *271:16 *1080:A 5.49489e-05
19 *287:12 *1072:RESET_B 0.000269384
20 *287:12 *312:10 0.000150103
*RES
1 *1115:X *312:10 22.8179 
2 *312:10 *1080:A 17.1929 
3 *312:10 *1072:RESET_B 10.7232 
4 *1072:RESET_B *312:31 14.3393 
5 *312:31 *312:33 4.375 
6 *312:33 *1073:RESET_B 14.1964 
7 *312:33 *1070:RESET_B 6.11607 
8 *312:31 *1071:RESET_B 4.5 
*END
