*SPEF "ieee 1481-1999"
*DESIGN "gear_quantizer"
*DATE "11:11:11 Fri 11 11, 1111"
*VENDOR "OpenRCX"
*PROGRAM "Parallel Extraction"
*VERSION "1.0"
*DESIGN_FLOW "NAME_SCOPE LOCAL" "PIN_CAP NONE"
*DIVIDER /
*DELIMITER :
*BUS_DELIMITER []
*T_UNIT 1 NS
*C_UNIT 1 PF
*R_UNIT 1 OHM
*L_UNIT 1 HENRY

*NAME_MAP
*3 clk
*4 data_in[0]
*5 data_in[1]
*6 data_in[2]
*7 data_in[3]
*8 data_in[4]
*9 data_in[5]
*10 data_in[6]
*11 data_in[7]
*12 int4_out[0]
*13 int4_out[1]
*14 int4_out[2]
*15 int4_out[3]
*16 is_outlier
*17 round_mode
*18 rst_n
*19 scale[0]
*20 scale[1]
*21 scale[2]
*22 scale[3]
*23 sideband_out[0]
*24 sideband_out[1]
*25 sideband_out[2]
*26 sideband_out[3]
*27 sideband_out[4]
*28 sideband_out[5]
*29 sideband_out[6]
*30 sideband_out[7]
*31 threshold[0]
*32 threshold[1]
*33 threshold[2]
*34 threshold[3]
*35 threshold[4]
*36 threshold[5]
*37 threshold[6]
*38 threshold[7]
*39 valid_in
*40 valid_out
*41 _000_
*42 _001_
*43 _002_
*44 _003_
*45 _004_
*46 _005_
*47 _006_
*48 _007_
*49 _008_
*50 _009_
*51 _010_
*52 _011_
*53 _012_
*54 _013_
*55 _014_
*56 _015_
*57 _016_
*58 _017_
*59 _018_
*60 _019_
*61 _020_
*62 _021_
*63 _022_
*64 _023_
*65 _024_
*66 _025_
*67 _026_
*68 _027_
*69 _028_
*70 _029_
*71 _030_
*72 _031_
*73 _032_
*74 _033_
*75 _034_
*76 _035_
*77 _036_
*78 _037_
*79 _038_
*80 _039_
*81 _040_
*82 _041_
*83 _042_
*84 _043_
*85 _044_
*86 _045_
*87 _046_
*88 _047_
*89 _048_
*90 _049_
*91 _050_
*92 _051_
*93 _052_
*94 _053_
*95 _054_
*96 _055_
*97 _056_
*98 _057_
*99 _058_
*100 _059_
*101 _060_
*102 _061_
*103 _062_
*104 _063_
*105 _064_
*106 _065_
*107 _066_
*108 _067_
*109 _068_
*110 _069_
*111 _070_
*112 _071_
*113 _072_
*114 _073_
*115 _074_
*116 _075_
*117 _076_
*118 _077_
*119 _078_
*120 _079_
*121 _080_
*122 _081_
*123 _082_
*124 _083_
*125 _084_
*126 _085_
*127 _086_
*128 _087_
*129 _088_
*130 _089_
*131 _090_
*132 _091_
*133 _092_
*134 _093_
*135 _094_
*136 _095_
*137 _096_
*138 _097_
*139 _098_
*140 _099_
*141 _100_
*142 _101_
*143 _102_
*144 _103_
*145 _104_
*146 _105_
*147 _106_
*148 _107_
*149 _108_
*150 _109_
*151 _110_
*152 _111_
*153 _112_
*154 _113_
*155 _114_
*156 _115_
*157 _116_
*158 _117_
*159 _118_
*160 _119_
*161 _120_
*162 _121_
*163 _122_
*164 _123_
*165 _124_
*166 _125_
*167 _126_
*168 _127_
*169 _128_
*170 _129_
*171 _130_
*172 _131_
*173 _132_
*174 _133_
*175 _134_
*176 _135_
*177 _136_
*178 _137_
*179 _138_
*180 _139_
*181 _140_
*182 _141_
*183 _142_
*184 _143_
*185 _144_
*186 _145_
*187 _146_
*188 _147_
*189 _148_
*190 _149_
*191 _150_
*192 _151_
*193 _152_
*194 _153_
*195 _154_
*196 _155_
*197 _156_
*198 _157_
*199 _158_
*200 _159_
*201 _160_
*202 _161_
*203 _162_
*204 _163_
*205 _164_
*206 _165_
*207 _166_
*208 _167_
*209 _168_
*210 _169_
*211 _170_
*212 _171_
*213 _172_
*214 _173_
*215 _174_
*216 _175_
*217 _176_
*218 _177_
*219 _178_
*220 _179_
*221 _180_
*222 _181_
*223 _182_
*224 _183_
*225 _184_
*226 _185_
*227 _186_
*228 _187_
*229 _188_
*230 _189_
*231 _190_
*232 _191_
*233 _192_
*234 _193_
*235 _194_
*236 _195_
*237 _196_
*238 _197_
*239 _198_
*240 _199_
*241 _200_
*242 _201_
*243 _202_
*244 _203_
*245 _204_
*246 _205_
*247 _206_
*248 _207_
*249 _208_
*250 _209_
*251 _210_
*252 _211_
*253 _212_
*254 _213_
*255 _214_
*256 _215_
*257 _216_
*258 _217_
*259 _218_
*260 clknet_0_clk
*261 clknet_1_0__leaf_clk
*262 clknet_1_1__leaf_clk
*263 net1
*264 net10
*265 net11
*266 net12
*267 net13
*268 net14
*269 net15
*270 net16
*271 net17
*272 net18
*273 net19
*274 net2
*275 net20
*276 net21
*277 net22
*278 net23
*279 net24
*280 net25
*281 net26
*282 net27
*283 net28
*284 net29
*285 net3
*286 net30
*287 net31
*288 net32
*289 net33
*290 net34
*291 net35
*292 net36
*293 net37
*294 net38
*295 net39
*296 net4
*297 net40
*298 net41
*299 net42
*300 net43
*301 net44
*302 net45
*303 net46
*304 net47
*305 net48
*306 net49
*307 net5
*308 net50
*309 net6
*310 net7
*311 net8
*312 net9
*313 FILLER_0_0_109
*314 FILLER_0_0_113
*315 FILLER_0_0_118
*316 FILLER_0_0_130
*317 FILLER_0_0_141
*318 FILLER_0_0_149
*319 FILLER_0_0_161
*320 FILLER_0_0_19
*321 FILLER_0_0_27
*322 FILLER_0_0_35
*323 FILLER_0_0_47
*324 FILLER_0_0_57
*325 FILLER_0_0_69
*326 FILLER_0_0_76
*327 FILLER_0_0_85
*328 FILLER_0_0_97
*329 FILLER_0_10_101
*330 FILLER_0_10_111
*331 FILLER_0_10_126
*332 FILLER_0_10_132
*333 FILLER_0_10_141
*334 FILLER_0_10_153
*335 FILLER_0_10_157
*336 FILLER_0_10_26
*337 FILLER_0_10_50
*338 FILLER_0_10_82
*339 FILLER_0_10_95
*340 FILLER_0_11_105
*341 FILLER_0_11_111
*342 FILLER_0_11_113
*343 FILLER_0_11_145
*344 FILLER_0_11_157
*345 FILLER_0_11_161
*346 FILLER_0_11_28
*347 FILLER_0_11_34
*348 FILLER_0_11_50
*349 FILLER_0_11_66
*350 FILLER_0_11_70
*351 FILLER_0_11_87
*352 FILLER_0_11_94
*353 FILLER_0_12_107
*354 FILLER_0_12_122
*355 FILLER_0_12_134
*356 FILLER_0_12_141
*357 FILLER_0_12_153
*358 FILLER_0_12_161
*359 FILLER_0_12_3
*360 FILLER_0_12_41
*361 FILLER_0_12_48
*362 FILLER_0_12_56
*363 FILLER_0_12_63
*364 FILLER_0_12_67
*365 FILLER_0_12_7
*366 FILLER_0_12_85
*367 FILLER_0_13_120
*368 FILLER_0_13_127
*369 FILLER_0_13_139
*370 FILLER_0_13_15
*371 FILLER_0_13_151
*372 FILLER_0_13_159
*373 FILLER_0_13_26
*374 FILLER_0_13_3
*375 FILLER_0_13_47
*376 FILLER_0_13_72
*377 FILLER_0_13_81
*378 FILLER_0_13_93
*379 FILLER_0_14_108
*380 FILLER_0_14_119
*381 FILLER_0_14_147
*382 FILLER_0_14_155
*383 FILLER_0_14_26
*384 FILLER_0_14_35
*385 FILLER_0_14_47
*386 FILLER_0_14_54
*387 FILLER_0_14_67
*388 FILLER_0_14_85
*389 FILLER_0_14_95
*390 FILLER_0_15_108
*391 FILLER_0_15_113
*392 FILLER_0_15_137
*393 FILLER_0_15_149
*394 FILLER_0_15_161
*395 FILLER_0_15_23
*396 FILLER_0_15_45
*397 FILLER_0_15_53
*398 FILLER_0_15_57
*399 FILLER_0_15_70
*400 FILLER_0_15_87
*401 FILLER_0_15_99
*402 FILLER_0_16_100
*403 FILLER_0_16_133
*404 FILLER_0_16_139
*405 FILLER_0_16_149
*406 FILLER_0_16_161
*407 FILLER_0_16_29
*408 FILLER_0_16_3
*409 FILLER_0_16_51
*410 FILLER_0_16_7
*411 FILLER_0_16_92
*412 FILLER_0_17_104
*413 FILLER_0_17_121
*414 FILLER_0_17_133
*415 FILLER_0_17_145
*416 FILLER_0_17_15
*417 FILLER_0_17_157
*418 FILLER_0_17_3
*419 FILLER_0_17_32
*420 FILLER_0_17_36
*421 FILLER_0_17_41
*422 FILLER_0_17_54
*423 FILLER_0_17_57
*424 FILLER_0_17_66
*425 FILLER_0_17_75
*426 FILLER_0_17_83
*427 FILLER_0_18_109
*428 FILLER_0_18_121
*429 FILLER_0_18_133
*430 FILLER_0_18_139
*431 FILLER_0_18_141
*432 FILLER_0_18_153
*433 FILLER_0_18_16
*434 FILLER_0_18_161
*435 FILLER_0_18_22
*436 FILLER_0_18_29
*437 FILLER_0_18_41
*438 FILLER_0_18_49
*439 FILLER_0_18_58
*440 FILLER_0_18_79
*441 FILLER_0_18_97
*442 FILLER_0_19_106
*443 FILLER_0_19_113
*444 FILLER_0_19_125
*445 FILLER_0_19_137
*446 FILLER_0_19_149
*447 FILLER_0_19_15
*448 FILLER_0_19_161
*449 FILLER_0_19_3
*450 FILLER_0_19_35
*451 FILLER_0_19_42
*452 FILLER_0_19_55
*453 FILLER_0_19_57
*454 FILLER_0_19_67
*455 FILLER_0_19_79
*456 FILLER_0_19_89
*457 FILLER_0_19_94
*458 FILLER_0_1_105
*459 FILLER_0_1_111
*460 FILLER_0_1_113
*461 FILLER_0_1_125
*462 FILLER_0_1_137
*463 FILLER_0_1_149
*464 FILLER_0_1_161
*465 FILLER_0_1_19
*466 FILLER_0_1_31
*467 FILLER_0_1_43
*468 FILLER_0_1_55
*469 FILLER_0_1_57
*470 FILLER_0_1_69
*471 FILLER_0_1_7
*472 FILLER_0_1_81
*473 FILLER_0_1_93
*474 FILLER_0_20_103
*475 FILLER_0_20_115
*476 FILLER_0_20_127
*477 FILLER_0_20_139
*478 FILLER_0_20_141
*479 FILLER_0_20_15
*480 FILLER_0_20_153
*481 FILLER_0_20_161
*482 FILLER_0_20_24
*483 FILLER_0_20_29
*484 FILLER_0_20_3
*485 FILLER_0_20_38
*486 FILLER_0_20_46
*487 FILLER_0_20_53
*488 FILLER_0_20_71
*489 FILLER_0_20_80
*490 FILLER_0_20_85
*491 FILLER_0_21_10
*492 FILLER_0_21_107
*493 FILLER_0_21_111
*494 FILLER_0_21_113
*495 FILLER_0_21_125
*496 FILLER_0_21_137
*497 FILLER_0_21_149
*498 FILLER_0_21_155
*499 FILLER_0_21_18
*500 FILLER_0_21_26
*501 FILLER_0_21_43
*502 FILLER_0_21_47
*503 FILLER_0_21_52
*504 FILLER_0_21_6
*505 FILLER_0_21_84
*506 FILLER_0_22_104
*507 FILLER_0_22_116
*508 FILLER_0_22_128
*509 FILLER_0_22_141
*510 FILLER_0_22_153
*511 FILLER_0_22_16
*512 FILLER_0_22_161
*513 FILLER_0_22_25
*514 FILLER_0_22_29
*515 FILLER_0_22_3
*516 FILLER_0_22_42
*517 FILLER_0_22_46
*518 FILLER_0_22_59
*519 FILLER_0_22_63
*520 FILLER_0_22_70
*521 FILLER_0_22_79
*522 FILLER_0_23_109
*523 FILLER_0_23_113
*524 FILLER_0_23_125
*525 FILLER_0_23_137
*526 FILLER_0_23_149
*527 FILLER_0_23_15
*528 FILLER_0_23_161
*529 FILLER_0_23_3
*530 FILLER_0_23_31
*531 FILLER_0_23_53
*532 FILLER_0_23_67
*533 FILLER_0_23_79
*534 FILLER_0_23_97
*535 FILLER_0_24_107
*536 FILLER_0_24_119
*537 FILLER_0_24_131
*538 FILLER_0_24_139
*539 FILLER_0_24_141
*540 FILLER_0_24_15
*541 FILLER_0_24_153
*542 FILLER_0_24_161
*543 FILLER_0_24_3
*544 FILLER_0_24_35
*545 FILLER_0_24_47
*546 FILLER_0_24_58
*547 FILLER_0_24_64
*548 FILLER_0_24_72
*549 FILLER_0_24_95
*550 FILLER_0_25_111
*551 FILLER_0_25_113
*552 FILLER_0_25_125
*553 FILLER_0_25_137
*554 FILLER_0_25_149
*555 FILLER_0_25_157
*556 FILLER_0_25_21
*557 FILLER_0_25_33
*558 FILLER_0_25_41
*559 FILLER_0_25_48
*560 FILLER_0_25_65
*561 FILLER_0_25_77
*562 FILLER_0_25_87
*563 FILLER_0_25_9
*564 FILLER_0_25_99
*565 FILLER_0_26_100
*566 FILLER_0_26_112
*567 FILLER_0_26_124
*568 FILLER_0_26_136
*569 FILLER_0_26_141
*570 FILLER_0_26_15
*571 FILLER_0_26_153
*572 FILLER_0_26_27
*573 FILLER_0_26_29
*574 FILLER_0_26_3
*575 FILLER_0_26_60
*576 FILLER_0_26_88
*577 FILLER_0_27_100
*578 FILLER_0_27_113
*579 FILLER_0_27_121
*580 FILLER_0_27_133
*581 FILLER_0_27_139
*582 FILLER_0_27_14
*583 FILLER_0_27_141
*584 FILLER_0_27_153
*585 FILLER_0_27_161
*586 FILLER_0_27_26
*587 FILLER_0_27_29
*588 FILLER_0_27_41
*589 FILLER_0_27_49
*590 FILLER_0_27_55
*591 FILLER_0_27_57
*592 FILLER_0_27_69
*593 FILLER_0_27_76
*594 FILLER_0_27_85
*595 FILLER_0_27_93
*596 FILLER_0_2_109
*597 FILLER_0_2_121
*598 FILLER_0_2_133
*599 FILLER_0_2_139
*600 FILLER_0_2_141
*601 FILLER_0_2_153
*602 FILLER_0_2_157
*603 FILLER_0_2_21
*604 FILLER_0_2_27
*605 FILLER_0_2_29
*606 FILLER_0_2_41
*607 FILLER_0_2_53
*608 FILLER_0_2_65
*609 FILLER_0_2_77
*610 FILLER_0_2_83
*611 FILLER_0_2_85
*612 FILLER_0_2_9
*613 FILLER_0_2_97
*614 FILLER_0_3_105
*615 FILLER_0_3_111
*616 FILLER_0_3_113
*617 FILLER_0_3_125
*618 FILLER_0_3_137
*619 FILLER_0_3_149
*620 FILLER_0_3_15
*621 FILLER_0_3_161
*622 FILLER_0_3_27
*623 FILLER_0_3_3
*624 FILLER_0_3_39
*625 FILLER_0_3_51
*626 FILLER_0_3_55
*627 FILLER_0_3_57
*628 FILLER_0_3_69
*629 FILLER_0_3_81
*630 FILLER_0_3_93
*631 FILLER_0_4_109
*632 FILLER_0_4_121
*633 FILLER_0_4_133
*634 FILLER_0_4_139
*635 FILLER_0_4_141
*636 FILLER_0_4_153
*637 FILLER_0_4_161
*638 FILLER_0_4_23
*639 FILLER_0_4_27
*640 FILLER_0_4_36
*641 FILLER_0_4_42
*642 FILLER_0_4_50
*643 FILLER_0_4_62
*644 FILLER_0_4_74
*645 FILLER_0_4_82
*646 FILLER_0_4_85
*647 FILLER_0_4_97
*648 FILLER_0_5_101
*649 FILLER_0_5_105
*650 FILLER_0_5_111
*651 FILLER_0_5_117
*652 FILLER_0_5_130
*653 FILLER_0_5_142
*654 FILLER_0_5_154
*655 FILLER_0_5_3
*656 FILLER_0_5_55
*657 FILLER_0_5_57
*658 FILLER_0_5_69
*659 FILLER_0_5_81
*660 FILLER_0_5_9
*661 FILLER_0_5_93
*662 FILLER_0_6_114
*663 FILLER_0_6_136
*664 FILLER_0_6_149
*665 FILLER_0_6_157
*666 FILLER_0_6_17
*667 FILLER_0_6_26
*668 FILLER_0_6_29
*669 FILLER_0_6_46
*670 FILLER_0_6_7
*671 FILLER_0_6_71
*672 FILLER_0_6_83
*673 FILLER_0_6_85
*674 FILLER_0_6_92
*675 FILLER_0_6_98
*676 FILLER_0_7_105
*677 FILLER_0_7_111
*678 FILLER_0_7_113
*679 FILLER_0_7_117
*680 FILLER_0_7_125
*681 FILLER_0_7_137
*682 FILLER_0_7_149
*683 FILLER_0_7_15
*684 FILLER_0_7_161
*685 FILLER_0_7_21
*686 FILLER_0_7_3
*687 FILLER_0_7_40
*688 FILLER_0_7_47
*689 FILLER_0_7_7
*690 FILLER_0_7_77
*691 FILLER_0_7_85
*692 FILLER_0_7_98
*693 FILLER_0_8_113
*694 FILLER_0_8_131
*695 FILLER_0_8_139
*696 FILLER_0_8_141
*697 FILLER_0_8_153
*698 FILLER_0_8_161
*699 FILLER_0_8_23
*700 FILLER_0_8_36
*701 FILLER_0_8_51
*702 FILLER_0_8_63
*703 FILLER_0_8_78
*704 FILLER_0_9_118
*705 FILLER_0_9_147
*706 FILLER_0_9_159
*707 FILLER_0_9_3
*708 FILLER_0_9_50
*709 FILLER_0_9_57
*710 FILLER_0_9_7
*711 FILLER_0_9_72
*712 FILLER_0_9_98
*713 PHY_0
*714 PHY_1
*715 PHY_10
*716 PHY_11
*717 PHY_12
*718 PHY_13
*719 PHY_14
*720 PHY_15
*721 PHY_16
*722 PHY_17
*723 PHY_18
*724 PHY_19
*725 PHY_2
*726 PHY_20
*727 PHY_21
*728 PHY_22
*729 PHY_23
*730 PHY_24
*731 PHY_25
*732 PHY_26
*733 PHY_27
*734 PHY_28
*735 PHY_29
*736 PHY_3
*737 PHY_30
*738 PHY_31
*739 PHY_32
*740 PHY_33
*741 PHY_34
*742 PHY_35
*743 PHY_36
*744 PHY_37
*745 PHY_38
*746 PHY_39
*747 PHY_4
*748 PHY_40
*749 PHY_41
*750 PHY_42
*751 PHY_43
*752 PHY_44
*753 PHY_45
*754 PHY_46
*755 PHY_47
*756 PHY_48
*757 PHY_49
*758 PHY_5
*759 PHY_50
*760 PHY_51
*761 PHY_52
*762 PHY_53
*763 PHY_54
*764 PHY_55
*765 PHY_6
*766 PHY_7
*767 PHY_8
*768 PHY_9
*769 TAP_100
*770 TAP_101
*771 TAP_102
*772 TAP_103
*773 TAP_104
*774 TAP_105
*775 TAP_106
*776 TAP_107
*777 TAP_108
*778 TAP_109
*779 TAP_110
*780 TAP_111
*781 TAP_112
*782 TAP_113
*783 TAP_114
*784 TAP_115
*785 TAP_116
*786 TAP_117
*787 TAP_118
*788 TAP_119
*789 TAP_120
*790 TAP_121
*791 TAP_122
*792 TAP_123
*793 TAP_124
*794 TAP_125
*795 TAP_126
*796 TAP_127
*797 TAP_128
*798 TAP_129
*799 TAP_130
*800 TAP_56
*801 TAP_57
*802 TAP_58
*803 TAP_59
*804 TAP_60
*805 TAP_61
*806 TAP_62
*807 TAP_63
*808 TAP_64
*809 TAP_65
*810 TAP_66
*811 TAP_67
*812 TAP_68
*813 TAP_69
*814 TAP_70
*815 TAP_71
*816 TAP_72
*817 TAP_73
*818 TAP_74
*819 TAP_75
*820 TAP_76
*821 TAP_77
*822 TAP_78
*823 TAP_79
*824 TAP_80
*825 TAP_81
*826 TAP_82
*827 TAP_83
*828 TAP_84
*829 TAP_85
*830 TAP_86
*831 TAP_87
*832 TAP_88
*833 TAP_89
*834 TAP_90
*835 TAP_91
*836 TAP_92
*837 TAP_93
*838 TAP_94
*839 TAP_95
*840 TAP_96
*841 TAP_97
*842 TAP_98
*843 TAP_99
*844 _219_
*845 _220_
*846 _221_
*847 _222_
*848 _223_
*849 _224_
*850 _225_
*851 _226_
*852 _227_
*853 _228_
*854 _229_
*855 _230_
*856 _231_
*857 _232_
*858 _233_
*859 _234_
*860 _235_
*861 _236_
*862 _237_
*863 _238_
*864 _239_
*865 _240_
*866 _241_
*867 _242_
*868 _243_
*869 _244_
*870 _245_
*871 _246_
*872 _247_
*873 _248_
*874 _249_
*875 _250_
*876 _251_
*877 _252_
*878 _253_
*879 _254_
*880 _255_
*881 _256_
*882 _257_
*883 _258_
*884 _259_
*885 _260_
*886 _261_
*887 _262_
*888 _263_
*889 _264_
*890 _265_
*891 _266_
*892 _267_
*893 _268_
*894 _269_
*895 _270_
*896 _271_
*897 _272_
*898 _273_
*899 _274_
*900 _275_
*901 _276_
*902 _277_
*903 _278_
*904 _279_
*905 _280_
*906 _281_
*907 _282_
*908 _283_
*909 _284_
*910 _285_
*911 _286_
*912 _287_
*913 _288_
*914 _289_
*915 _290_
*916 _291_
*917 _292_
*918 _293_
*919 _294_
*920 _295_
*921 _296_
*922 _297_
*923 _298_
*924 _299_
*925 _300_
*926 _301_
*927 _302_
*928 _303_
*929 _304_
*930 _305_
*931 _306_
*932 _307_
*933 _308_
*934 _309_
*935 _310_
*936 _311_
*937 _312_
*938 _313_
*939 _314_
*940 _315_
*941 _316_
*942 _317_
*943 _318_
*944 _319_
*945 _320_
*946 _321_
*947 _322_
*948 _323_
*949 _324_
*950 _325_
*951 _326_
*952 _327_
*953 _328_
*954 _329_
*955 _330_
*956 _331_
*957 _332_
*958 _333_
*959 _334_
*960 _335_
*961 _336_
*962 _337_
*963 _338_
*964 _339_
*965 _340_
*966 _341_
*967 _342_
*968 _343_
*969 _344_
*970 _345_
*971 _346_
*972 _347_
*973 _348_
*974 _349_
*975 _350_
*976 _351_
*977 _352_
*978 _353_
*979 _354_
*980 _355_
*981 _356_
*982 _357_
*983 _358_
*984 _359_
*985 _360_
*986 _361_
*987 _362_
*988 _363_
*989 _364_
*990 _365_
*991 _366_
*992 _367_
*993 _368_
*994 _369_
*995 _370_
*996 _371_
*997 _372_
*998 _373_
*999 _374_
*1000 _375_
*1001 _376_
*1002 _377_
*1003 _378_
*1004 _379_
*1005 _380_
*1006 _381_
*1007 _382_
*1008 _383_
*1009 _384_
*1010 _385_
*1011 _386_
*1012 _387_
*1013 _388_
*1014 _389_
*1015 _390_
*1016 _391_
*1017 _392_
*1018 _393_
*1019 _394_
*1020 _395_
*1021 _396_
*1022 _397_
*1023 _398_
*1024 _399_
*1025 _400_
*1026 _401_
*1027 _402_
*1028 _403_
*1029 _404_
*1030 _405_
*1031 _406_
*1032 _407_
*1033 _408_
*1034 _409_
*1035 _410_
*1036 _411_
*1037 _412_
*1038 _413_
*1039 _414_
*1040 _415_
*1041 _416_
*1042 _417_
*1043 _418_
*1044 _419_
*1045 _420_
*1046 _421_
*1047 _422_
*1048 _423_
*1049 _424_
*1050 _425_
*1051 _426_
*1052 _427_
*1053 _428_
*1054 _429_
*1055 _430_
*1056 _431_
*1057 _432_
*1058 _433_
*1059 _434_
*1060 _435_
*1061 _436_
*1062 _437_
*1063 _438_
*1064 _439_
*1065 _440_
*1066 _441_
*1067 _442_
*1068 _443_
*1069 _444_
*1070 _445_
*1071 _446_
*1072 _447_
*1073 _448_
*1074 _449_
*1075 _450_
*1076 _451_
*1077 clkbuf_0_clk
*1078 clkbuf_1_0__f_clk
*1079 clkbuf_1_1__f_clk
*1080 fanout37
*1081 hold1
*1082 hold10
*1083 hold11
*1084 hold12
*1085 hold13
*1086 hold2
*1087 hold3
*1088 hold4
*1089 hold5
*1090 hold6
*1091 hold7
*1092 hold8
*1093 hold9
*1094 input1
*1095 input10
*1096 input11
*1097 input12
*1098 input13
*1099 input14
*1100 input15
*1101 input16
*1102 input17
*1103 input18
*1104 input19
*1105 input2
*1106 input20
*1107 input21
*1108 input22
*1109 input3
*1110 input4
*1111 input5
*1112 input6
*1113 input7
*1114 input8
*1115 input9
*1116 output23
*1117 output24
*1118 output25
*1119 output26
*1120 output27
*1121 output28
*1122 output29
*1123 output30
*1124 output31
*1125 output32
*1126 output33
*1127 output34
*1128 output35
*1129 output36

*PORTS
clk I
data_in[0] I
data_in[1] I
data_in[2] I
data_in[3] I
data_in[4] I
data_in[5] I
data_in[6] I
data_in[7] I
int4_out[0] O
int4_out[1] O
int4_out[2] O
int4_out[3] O
is_outlier O
round_mode I
rst_n I
scale[0] I
scale[1] I
scale[2] I
scale[3] I
sideband_out[0] O
sideband_out[1] O
sideband_out[2] O
sideband_out[3] O
sideband_out[4] O
sideband_out[5] O
sideband_out[6] O
sideband_out[7] O
threshold[0] I
threshold[1] I
threshold[2] I
threshold[3] I
threshold[4] I
threshold[5] I
threshold[6] I
threshold[7] I
valid_in I
valid_out O

*D_NET *3 0.00565833
*CONN
*P clk I
*I *1077:A I *D sky130_fd_sc_hd__clkbuf_16
*CAP
1 clk 0.00179276
2 *1077:A 0.000467194
3 *3:19 0.00225995
4 *1077:A *1013:A 3.33646e-05
5 *1077:A *1013:B 8.75357e-05
6 *1077:A *68:10 0.000190479
7 *1077:A *167:8 0.000279219
8 *1077:A *215:16 0.000145915
9 *1077:A *217:17 4.08488e-05
10 *3:19 *66:10 7.57281e-06
11 *3:19 *213:93 3.88786e-05
12 *3:19 *214:55 0
13 *3:19 *215:16 0.000124094
14 *3:19 *217:8 0
15 *3:19 *217:17 0
16 *3:19 *311:32 0.000190521
*RES
1 clk *3:19 47.2193 
2 *3:19 *1077:A 48.2639 
*END

*D_NET *4 0.000566888
*CONN
*P data_in[0] I
*I *1094:A I *D sky130_fd_sc_hd__clkbuf_2
*CAP
1 data_in[0] 0.000283444
2 *1094:A 0.000283444
3 *1094:A *1061:A 0
*RES
1 data_in[0] *1094:A 47.5169 
*END

*D_NET *5 0.000645192
*CONN
*P data_in[1] I
*I *1105:A I *D sky130_fd_sc_hd__buf_1
*CAP
1 data_in[1] 0.000269896
2 *1105:A 0.000269896
3 *1105:A *263:29 0.000105399
*RES
1 data_in[1] *1105:A 48.1354 
*END

*D_NET *6 0.00100615
*CONN
*P data_in[2] I
*I *1109:A I *D sky130_fd_sc_hd__buf_1
*CAP
1 data_in[2] 0.000503073
2 *1109:A 0.000503073
*RES
1 data_in[2] *1109:A 48.2743 
*END

*D_NET *7 0.000943531
*CONN
*P data_in[3] I
*I *1110:A I *D sky130_fd_sc_hd__clkbuf_4
*CAP
1 data_in[3] 0.000443245
2 *1110:A 0.000443245
3 *1110:A *307:8 5.70419e-05
*RES
1 data_in[3] *1110:A 47.4457 
*END

*D_NET *8 0.000943531
*CONN
*P data_in[4] I
*I *1111:A I *D sky130_fd_sc_hd__clkbuf_4
*CAP
1 data_in[4] 0.000443245
2 *1111:A 0.000443245
3 *1111:A *307:8 5.70419e-05
*RES
1 data_in[4] *1111:A 47.4457 
*END

*D_NET *9 0.000903102
*CONN
*P data_in[5] I
*I *1112:A I *D sky130_fd_sc_hd__buf_2
*CAP
1 data_in[5] 0.000435407
2 *1112:A 0.000435407
3 *1112:A *266:8 3.22879e-05
*RES
1 data_in[5] *1112:A 47.3214 
*END

*D_NET *10 0.00198989
*CONN
*P data_in[6] I
*I *1113:A I *D sky130_fd_sc_hd__clkbuf_4
*CAP
1 data_in[6] 0.000923964
2 *1113:A 0
3 *10:11 0.000923964
4 *10:11 *1114:A 0.00014196
*RES
1 data_in[6] *10:11 34.8236 
2 *10:11 *1113:A 23 
*END

*D_NET *11 0.00107905
*CONN
*P data_in[7] I
*I *1114:A I *D sky130_fd_sc_hd__clkbuf_2
*CAP
1 data_in[7] 0.000468546
2 *1114:A 0.000468546
3 *10:11 *1114:A 0.00014196
*RES
1 data_in[7] *1114:A 47.9221 
*END

*D_NET *12 0.000758587
*CONN
*P int4_out[0] O
*I *1116:X O *D sky130_fd_sc_hd__clkbuf_4
*CAP
1 int4_out[0] 9.83601e-05
2 *1116:X 0.000280933
3 *12:10 0.000379293
4 *12:10 *263:10 0
*RES
1 *1116:X *12:10 43.3132 
2 *12:10 int4_out[0] 8.32853 
*END

*D_NET *13 0.000689395
*CONN
*P int4_out[1] O
*I *1117:X O *D sky130_fd_sc_hd__clkbuf_4
*CAP
1 int4_out[1] 0.00032357
2 *1117:X 0.00032357
3 int4_out[1] *271:12 4.2255e-05
*RES
1 *1117:X int4_out[1] 48.4905 
*END

*D_NET *14 0.00102225
*CONN
*P int4_out[2] O
*I *1118:X O *D sky130_fd_sc_hd__clkbuf_4
*CAP
1 int4_out[2] 0.000502792
2 *1118:X 0.000502792
3 int4_out[2] *972:C 6.17437e-06
4 int4_out[2] *309:10 1.04883e-05
*RES
1 *1118:X int4_out[2] 47.57 
*END

*D_NET *15 0.00070979
*CONN
*P int4_out[3] O
*I *1119:X O *D sky130_fd_sc_hd__clkbuf_4
*CAP
1 int4_out[3] 8.53373e-05
2 *1119:X 0.000269558
3 *15:10 0.000354895
4 *15:10 *281:27 0
*RES
1 *1119:X *15:10 42.0289 
2 *15:10 int4_out[3] 8.32853 
*END

*D_NET *16 0.00328493
*CONN
*P is_outlier O
*I *1120:X O *D sky130_fd_sc_hd__clkbuf_4
*CAP
1 is_outlier 0.00144179
2 *1120:X 6.15633e-05
3 *16:10 0.00150335
4 is_outlier *307:89 5.54855e-05
5 is_outlier *307:108 9.0331e-06
6 *16:10 *249:62 4.73716e-05
7 *16:10 *249:83 7.70737e-05
8 *16:10 *265:51 2.97097e-06
9 *16:10 *307:62 8.62876e-05
*RES
1 *1120:X *16:10 47.7296 
2 *16:10 is_outlier 3.33387 
*END

*D_NET *18 0.00063277
*CONN
*P rst_n I
*I *1115:A I *D sky130_fd_sc_hd__clkbuf_2
*CAP
1 rst_n 0.000316385
2 *1115:A 0.000316385
*RES
1 rst_n *1115:A 49.7006 
*END

*D_NET *19 0.000741756
*CONN
*P scale[0] I
*I *1095:A I *D sky130_fd_sc_hd__clkbuf_2
*CAP
1 scale[0] 0.000370878
2 *1095:A 0
3 *19:13 0.000370878
*RES
1 scale[0] *19:13 28.1092 
2 *19:13 *1095:A 23 
*END

*D_NET *20 0.00150771
*CONN
*P scale[1] I
*I *1096:A I *D sky130_fd_sc_hd__dlymetal6s2s_1
*CAP
1 scale[1] 0.000753856
2 *1096:A 0
3 *20:9 0.000753856
*RES
1 scale[1] *20:9 30.9914 
2 *20:9 *1096:A 23 
*END

*D_NET *21 0.00169664
*CONN
*P scale[2] I
*I *1097:A I *D sky130_fd_sc_hd__clkbuf_2
*CAP
1 scale[2] 0.00071128
2 *1097:A 0
3 *21:11 0.00071128
4 *21:11 *39:15 0.000274078
*RES
1 scale[2] *21:11 31.6129 
2 *21:11 *1097:A 23 
*END

*D_NET *22 0.00130877
*CONN
*P scale[3] I
*I *1098:A I *D sky130_fd_sc_hd__clkbuf_2
*CAP
1 scale[3] 0.000654383
2 *1098:A 0
3 *22:15 0.000654383
4 *22:15 sideband_out[5] 0
*RES
1 scale[3] *22:15 31.7987 
2 *22:15 *1098:A 23 
*END

*D_NET *23 0.000740866
*CONN
*P sideband_out[0] O
*I *1121:X O *D sky130_fd_sc_hd__clkbuf_4
*CAP
1 sideband_out[0] 0.000370433
2 *1121:X 0.000370433
*RES
1 *1121:X sideband_out[0] 45.9957 
*END

*D_NET *24 0.000618012
*CONN
*P sideband_out[1] O
*I *1122:X O *D sky130_fd_sc_hd__buf_2
*CAP
1 sideband_out[1] 0.000291938
2 *1122:X 0.000291938
3 sideband_out[1] *284:23 3.41361e-05
*RES
1 *1122:X sideband_out[1] 47.955 
*END

*D_NET *25 0.000740866
*CONN
*P sideband_out[2] O
*I *1123:X O *D sky130_fd_sc_hd__clkbuf_4
*CAP
1 sideband_out[2] 0.000370433
2 *1123:X 0.000370433
*RES
1 *1123:X sideband_out[2] 45.9957 
*END

*D_NET *26 0.00108317
*CONN
*P sideband_out[3] O
*I *1124:X O *D sky130_fd_sc_hd__buf_2
*CAP
1 sideband_out[3] 0.000469756
2 *1124:X 0.000469756
3 sideband_out[3] *33:17 0.000143655
*RES
1 *1124:X sideband_out[3] 47.57 
*END

*D_NET *27 0.000778317
*CONN
*P sideband_out[4] O
*I *1125:X O *D sky130_fd_sc_hd__buf_2
*CAP
1 sideband_out[4] 0.000129422
2 *1125:X 0.000259737
3 *27:12 0.000389158
*RES
1 *1125:X *27:12 42.0496 
2 *27:12 sideband_out[4] 8.50027 
*END

*D_NET *28 0.00108115
*CONN
*P sideband_out[5] O
*I *1126:X O *D sky130_fd_sc_hd__clkbuf_4
*CAP
1 sideband_out[5] 0.000488751
2 *1126:X 0.000488751
3 sideband_out[5] *265:8 0.000103647
4 *22:15 sideband_out[5] 0
*RES
1 *1126:X sideband_out[5] 48.3986 
*END

*D_NET *29 0.000740866
*CONN
*P sideband_out[6] O
*I *1127:X O *D sky130_fd_sc_hd__clkbuf_4
*CAP
1 sideband_out[6] 0.000370433
2 *1127:X 0.000370433
*RES
1 *1127:X sideband_out[6] 45.9957 
*END

*D_NET *30 0.000535797
*CONN
*P sideband_out[7] O
*I *1128:X O *D sky130_fd_sc_hd__clkbuf_4
*CAP
1 sideband_out[7] 0.000267898
2 *1128:X 0.000267898
*RES
1 *1128:X sideband_out[7] 49.1767 
*END

*D_NET *31 0.000617524
*CONN
*P threshold[0] I
*I *1099:A I *D sky130_fd_sc_hd__clkbuf_1
*CAP
1 threshold[0] 0.000308762
2 *1099:A 0
3 *31:15 0.000308762
4 *31:15 *268:8 0
*RES
1 threshold[0] *31:15 27.1119 
2 *31:15 *1099:A 23 
*END

*D_NET *32 0.00085858
*CONN
*P threshold[1] I
*I *1100:A I *D sky130_fd_sc_hd__buf_1
*CAP
1 threshold[1] 0.00042929
2 *1100:A 0.00042929
*RES
1 threshold[1] *1100:A 47.4664 
*END

*D_NET *33 0.0012096
*CONN
*P threshold[2] I
*I *1101:A I *D sky130_fd_sc_hd__buf_1
*CAP
1 threshold[2] 0.00053297
2 *1101:A 0
3 *33:17 0.00053297
4 sideband_out[3] *33:17 0.000143655
*RES
1 threshold[2] *33:17 30.5802 
2 *33:17 *1101:A 23 
*END

*D_NET *34 0.0018217
*CONN
*P threshold[3] I
*I *1102:A I *D sky130_fd_sc_hd__buf_1
*CAP
1 threshold[3] 0.000910851
2 *1102:A 0
3 *34:9 0.000910851
*RES
1 threshold[3] *34:9 34.6371 
2 *34:9 *1102:A 23 
*END

*D_NET *35 0.00092486
*CONN
*P threshold[4] I
*I *1103:A I *D sky130_fd_sc_hd__buf_1
*CAP
1 threshold[4] 0.000447743
2 *1103:A 0.000447743
3 *1103:A *309:10 2.93747e-05
*RES
1 threshold[4] *1103:A 47.4664 
*END

*D_NET *36 0.000937844
*CONN
*P threshold[5] I
*I *1104:A I *D sky130_fd_sc_hd__buf_1
*CAP
1 threshold[5] 0.000440569
2 *1104:A 0.000440569
3 *1104:A *307:8 5.67058e-05
*RES
1 threshold[5] *1104:A 47.4664 
*END

*D_NET *37 0.00100427
*CONN
*P threshold[6] I
*I *1106:A I *D sky130_fd_sc_hd__clkbuf_1
*CAP
1 threshold[6] 0.000502134
2 *1106:A 0.000502134
*RES
1 threshold[6] *1106:A 48.2743 
*END

*D_NET *38 0.00062066
*CONN
*P threshold[7] I
*I *1107:A I *D sky130_fd_sc_hd__dlymetal6s2s_1
*CAP
1 threshold[7] 0.00031033
2 *1107:A 0
3 *38:13 0.00031033
4 *38:13 *263:10 0
*RES
1 threshold[7] *38:13 27.5853 
2 *38:13 *1107:A 23 
*END

*D_NET *39 0.00117351
*CONN
*P valid_in I
*I *1108:A I *D sky130_fd_sc_hd__buf_1
*CAP
1 valid_in 0.000438201
2 *1108:A 0
3 *39:15 0.000438201
4 *39:15 *266:8 2.30292e-05
5 *21:11 *39:15 0.000274078
*RES
1 valid_in *39:15 31.0446 
2 *39:15 *1108:A 23 
*END

*D_NET *40 0.00084974
*CONN
*P valid_out O
*I *1129:X O *D sky130_fd_sc_hd__clkbuf_4
*CAP
1 valid_out 0.000121352
2 *1129:X 0.000303518
3 *40:12 0.00042487
*RES
1 *1129:X *40:12 42.8782 
2 *40:12 valid_out 8.4144 
*END

*D_NET *41 0.000347046
*CONN
*I *1063:D I *D sky130_fd_sc_hd__dfrtp_1
*I *880:X O *D sky130_fd_sc_hd__o21ba_1
*CAP
1 *1063:D 0
2 *880:X 0.000115366
3 *41:10 0.000115366
4 *41:10 *281:27 0.000116314
5 *41:10 *293:66 0
*RES
1 *880:X *41:10 40.175 
2 *41:10 *1063:D 38 
*END

*D_NET *42 0.00160001
*CONN
*I *1065:D I *D sky130_fd_sc_hd__dfrtp_1
*I *1036:X O *D sky130_fd_sc_hd__a22o_1
*CAP
1 *1065:D 0.000202412
2 *1036:X 0.000226936
3 *42:8 0.000429347
4 *1065:D *277:20 1.44464e-05
5 *42:8 *193:28 5.03503e-05
6 *42:8 *266:22 0.000502561
7 *42:8 *293:62 8.6074e-05
8 *42:8 *295:8 8.78864e-05
*RES
1 *1036:X *42:8 44.8357 
2 *42:8 *1065:D 40.5479 
*END

*D_NET *43 0.000753512
*CONN
*I *1066:D I *D sky130_fd_sc_hd__dfrtp_1
*I *1040:X O *D sky130_fd_sc_hd__a22o_1
*CAP
1 *1066:D 3.29918e-05
2 *1040:X 0.000211685
3 *43:10 0.000244677
4 *1066:D *1066:CLK 2.93335e-05
5 *43:10 *273:16 0.00018258
6 *43:10 *293:40 5.22448e-05
*RES
1 *1040:X *43:10 41.7079 
2 *43:10 *1066:D 38.6214 
*END

*D_NET *44 0.000721861
*CONN
*I *1067:D I *D sky130_fd_sc_hd__dfrtp_1
*I *1044:X O *D sky130_fd_sc_hd__a22o_1
*CAP
1 *1067:D 0.000190471
2 *1044:X 7.56954e-05
3 *44:8 0.000266166
4 *1067:D *293:62 4.28861e-05
5 *44:8 *266:22 0.000140884
6 *44:8 *267:91 5.75756e-06
*RES
1 *1044:X *44:8 39.9057 
2 *44:8 *1067:D 41.0036 
*END

*D_NET *45 0.000658297
*CONN
*I *1068:D I *D sky130_fd_sc_hd__dfrtp_1
*I *1046:X O *D sky130_fd_sc_hd__a21bo_1
*CAP
1 *1068:D 0.000200241
2 *1046:X 3.62511e-05
3 *45:8 0.000236492
4 *1068:D *267:55 1.1669e-05
5 *45:8 *265:37 8.57577e-05
6 *45:8 *293:66 8.78864e-05
*RES
1 *1046:X *45:8 39.2014 
2 *45:8 *1068:D 40.6929 
*END

*D_NET *46 0.000812692
*CONN
*I *1069:D I *D sky130_fd_sc_hd__dfrtp_1
*I *1048:X O *D sky130_fd_sc_hd__a31o_1
*CAP
1 *1069:D 0
2 *1048:X 0.000272405
3 *46:10 0.000272405
4 *46:10 *207:8 3.84905e-05
5 *46:10 *243:24 0.000229392
*RES
1 *1048:X *46:10 42.4329 
2 *46:10 *1069:D 38 
*END

*D_NET *47 0.000606958
*CONN
*I *1070:D I *D sky130_fd_sc_hd__dfrtp_1
*I *1050:X O *D sky130_fd_sc_hd__a31o_1
*CAP
1 *1070:D 0
2 *1050:X 0.000179969
3 *47:10 0.000179969
4 *47:10 *1050:A2 2.93845e-05
5 *47:10 *1050:A3 2.98648e-05
6 *47:10 *209:14 0.000141879
7 *47:10 *211:128 4.58924e-05
*RES
1 *1050:X *47:10 41.48 
2 *47:10 *1070:D 38 
*END

*D_NET *48 0.000440799
*CONN
*I *1071:D I *D sky130_fd_sc_hd__dfrtp_1
*I *1052:X O *D sky130_fd_sc_hd__a31o_1
*CAP
1 *1071:D 0
2 *1052:X 0.000107216
3 *48:10 0.000107216
4 *48:10 *1052:A3 1.84917e-05
5 *48:10 *209:10 6.68378e-05
6 *48:10 *243:138 0.000141038
*RES
1 *1052:X *48:10 40.5271 
2 *48:10 *1071:D 38 
*END

*D_NET *49 0.000304139
*CONN
*I *1072:D I *D sky130_fd_sc_hd__dfrtp_1
*I *1054:X O *D sky130_fd_sc_hd__a31o_1
*CAP
1 *1072:D 4.01985e-05
2 *1054:X 5.72362e-05
3 *49:8 9.74347e-05
4 *49:8 *1066:RESET_B 5.47354e-05
5 *49:8 *243:138 5.45343e-05
*RES
1 *1054:X *49:8 39.5536 
2 *49:8 *1072:D 38.6214 
*END

*D_NET *50 0.000469731
*CONN
*I *1073:D I *D sky130_fd_sc_hd__dfrtp_1
*I *1056:X O *D sky130_fd_sc_hd__a31o_1
*CAP
1 *1073:D 0
2 *1056:X 0.000103336
3 *50:10 0.000103336
4 *50:10 *1056:A1 5.50049e-05
5 *50:10 *1073:CLK 6.93449e-05
6 *50:10 *310:22 0.000138708
*RES
1 *1056:X *50:10 40.5271 
2 *50:10 *1073:D 38 
*END

*D_NET *51 0.000376335
*CONN
*I *1074:D I *D sky130_fd_sc_hd__dfrtp_1
*I *1058:X O *D sky130_fd_sc_hd__a31o_1
*CAP
1 *1074:D 0
2 *1058:X 0.000141292
3 *51:10 0.000141292
4 *51:10 *210:8 3.56537e-05
5 *51:10 *263:10 5.80963e-05
*RES
1 *1058:X *51:10 40.6514 
2 *51:10 *1074:D 38 
*END

*D_NET *52 0.00110376
*CONN
*I *1075:D I *D sky130_fd_sc_hd__dfrtp_1
*I *1060:X O *D sky130_fd_sc_hd__a31o_1
*CAP
1 *1075:D 0.000290465
2 *1060:X 8.77808e-05
3 *52:8 0.000378246
4 *1075:D *1061:B 6.17437e-06
5 *1075:D *1069:CLK 0.000100543
6 *1075:D *261:33 0.000103948
7 *52:8 *1076:RESET_B 0.0001366
*RES
1 *1060:X *52:8 39.9057 
2 *52:8 *1075:D 43.3857 
*END

*D_NET *53 0.000894964
*CONN
*I *1076:D I *D sky130_fd_sc_hd__dfrtp_1
*I *1062:X O *D sky130_fd_sc_hd__a31o_1
*CAP
1 *1076:D 7.2125e-05
2 *1062:X 0.000189868
3 *53:8 0.000261993
4 *1076:D *261:45 0.000104578
5 *53:8 *1061:A 0.00016885
6 *53:8 *209:32 9.75495e-05
*RES
1 *1062:X *53:8 42.7229 
2 *53:8 *1076:D 40.0507 
*END

*D_NET *54 0.00249562
*CONN
*I *921:A I *D sky130_fd_sc_hd__nor2_1
*I *908:A2 I *D sky130_fd_sc_hd__o21ai_2
*I *909:C I *D sky130_fd_sc_hd__or3_1
*I *896:X O *D sky130_fd_sc_hd__and3_1
*CAP
1 *921:A 5.45094e-06
2 *908:A2 0.000187818
3 *909:C 1.34499e-05
4 *896:X 0.000174491
5 *54:18 0.00051936
6 *54:10 0.000498034
7 *908:A2 *908:A1 4.95081e-05
8 *908:A2 *908:B1 0.000185434
9 *908:A2 *65:8 2.43944e-05
10 *908:A2 *66:10 5.37348e-06
11 *908:A2 *67:10 0.000274078
12 *909:C *62:8 3.85196e-05
13 *909:C *65:8 5.90675e-06
14 *921:A *55:20 0
15 *54:10 *78:8 0.000160074
16 *54:10 *79:12 0.000111462
17 *54:18 *55:20 0
18 *54:18 *62:8 0.000235687
19 *54:18 *65:8 6.57815e-06
*RES
1 *896:X *54:10 41.0554 
2 *54:10 *54:18 20.2304 
3 *54:18 *909:C 23.4971 
4 *54:18 *908:A2 28.4064 
5 *54:10 *921:A 38.3211 
*END

*D_NET *55 0.0067436
*CONN
*I *934:B1_N I *D sky130_fd_sc_hd__a21bo_1
*I *1021:A I *D sky130_fd_sc_hd__and2_1
*I *918:A_N I *D sky130_fd_sc_hd__nand3b_1
*I *1009:A1 I *D sky130_fd_sc_hd__mux2_1
*I *1011:A1 I *D sky130_fd_sc_hd__o21ai_1
*I *907:A I *D sky130_fd_sc_hd__xnor2_1
*I *897:Y O *D sky130_fd_sc_hd__nand2_2
*CAP
1 *934:B1_N 0
2 *1021:A 0
3 *918:A_N 0
4 *1009:A1 0
5 *1011:A1 0
6 *907:A 0
7 *897:Y 0
8 *55:79 0.000493255
9 *55:61 0.000288187
10 *55:53 0.000356383
11 *55:37 0.000219805
12 *55:20 0.000825739
13 *55:10 0.000768671
14 *55:6 0.000380381
15 *55:4 0.000642703
16 *55:6 *881:A 6.63159e-06
17 *55:6 *264:30 3.0918e-05
18 *55:6 *311:62 2.86398e-05
19 *55:10 *179:31 1.0092e-05
20 *55:10 *311:62 5.35231e-05
21 *55:20 *896:B 0
22 *55:20 *57:8 0
23 *55:20 *61:8 0
24 *55:20 *61:14 0
25 *55:20 *61:21 0.000143655
26 *55:20 *61:35 0.000131002
27 *55:20 *62:8 0.000133436
28 *55:20 *79:12 0
29 *55:20 *258:10 4.2158e-05
30 *55:20 *260:18 0
31 *55:20 *310:135 0
32 *55:20 *310:152 0
33 *55:37 *907:B 5.3304e-05
34 *55:37 *1011:A2 2.02872e-05
35 *55:37 *61:35 0.000237826
36 *55:37 *62:8 0.000111238
37 *55:37 *63:12 6.17437e-06
38 *55:37 *63:24 0.000206892
39 *55:37 *168:23 4.00259e-06
40 *55:37 *169:10 6.17437e-06
41 *55:37 *211:103 2.18506e-05
42 *55:37 *258:10 2.29313e-05
43 *55:53 *264:30 1.35999e-05
44 *55:61 *1021:B 0.000100486
45 *55:61 *179:31 0.000101506
46 *55:61 *272:20 0.000244609
47 *55:61 *310:152 0.000459393
48 *55:79 *919:B 0
49 *55:79 *76:21 0
50 *55:79 *245:10 0.000141724
51 *55:79 *245:51 0.000336579
52 *55:79 *264:30 0
53 *55:79 *311:46 6.9046e-05
54 *55:79 *311:62 3.07986e-05
55 *921:A *55:20 0
56 *54:18 *55:20 0
*RES
1 *897:Y *55:4 23 
2 *55:4 *55:6 2.05071 
3 *55:6 *55:10 17.9621 
4 *55:10 *55:20 26.6466 
5 *55:20 *907:A 23 
6 *55:20 *55:37 35.7948 
7 *55:37 *1011:A1 23 
8 *55:10 *1009:A1 38 
9 *55:6 *55:53 1.47071 
10 *55:53 *55:61 38.1821 
11 *55:61 *918:A_N 23 
12 *55:53 *1021:A 23 
13 *55:4 *55:79 38.5343 
14 *55:79 *934:B1_N 23 
*END

*D_NET *56 0.00418542
*CONN
*I *905:A I *D sky130_fd_sc_hd__nor2_1
*I *904:A I *D sky130_fd_sc_hd__and2_1
*I *1010:A I *D sky130_fd_sc_hd__nand2_1
*I *898:X O *D sky130_fd_sc_hd__a31o_1
*CAP
1 *905:A 0
2 *904:A 0
3 *1010:A 0
4 *898:X 7.14222e-05
5 *56:30 0.000987512
6 *56:16 0.00103745
7 *56:12 0.000369464
8 *56:8 0.000390952
9 *56:8 *892:B 1.22906e-05
10 *56:8 *254:33 0.000116314
11 *56:8 *267:10 1.44813e-05
12 *56:8 *309:77 8.85189e-05
13 *56:12 *892:A_N 0.000136738
14 *56:12 *892:B 2.93747e-05
15 *56:12 *894:A_N 5.67058e-05
16 *56:12 *894:B 8.46575e-05
17 *56:12 *61:14 0.000143655
18 *56:12 *257:8 4.39488e-05
19 *56:12 *258:10 0.000173278
20 *56:16 *61:14 4.7881e-05
21 *56:16 *61:21 9.84794e-05
22 *56:16 *61:35 0
23 *56:16 *258:10 0.000187129
24 *56:30 *63:24 4.41048e-05
25 *56:30 *169:10 5.10686e-05
26 *56:30 *217:40 0
27 *56:30 *217:44 0
*RES
1 *898:X *56:8 39.9057 
2 *56:8 *56:12 23.7207 
3 *56:12 *56:16 2.54786 
4 *56:16 *56:30 36.2055 
5 *56:30 *1010:A 38 
6 *56:16 *904:A 23 
7 *56:12 *905:A 23 
*END

*D_NET *57 0.000466378
*CONN
*I *903:A I *D sky130_fd_sc_hd__xnor2_1
*I *899:Y O *D sky130_fd_sc_hd__nand2_1
*CAP
1 *903:A 2.29716e-05
2 *899:Y 9.87042e-05
3 *57:8 0.000121676
4 *903:A *309:117 0.00010018
5 *903:A *310:47 3.71251e-05
6 *57:8 *60:12 4.48568e-05
7 *57:8 *259:10 0
8 *57:8 *310:135 4.08641e-05
9 *55:20 *57:8 0
*RES
1 *899:Y *57:8 40.2579 
2 *57:8 *903:A 39.0979 
*END

*D_NET *58 0.00174209
*CONN
*I *902:B I *D sky130_fd_sc_hd__and3_1
*I *1006:B I *D sky130_fd_sc_hd__nand2_1
*I *900:Y O *D sky130_fd_sc_hd__nand2_1
*CAP
1 *902:B 0
2 *1006:B 0
3 *900:Y 0.000157119
4 *58:14 0.000357099
5 *58:6 0.000514218
6 *58:6 *900:A 5.63404e-05
7 *58:6 *900:B 5.58003e-05
8 *58:14 *900:A 4.22172e-05
9 *58:14 *915:A2 9.28078e-06
10 *58:14 *217:63 0.000157932
11 *58:14 *246:12 9.66668e-05
12 *58:14 *246:21 0.000137525
13 *58:14 *310:100 0.000157895
*RES
1 *900:Y *58:6 25.0507 
2 *58:6 *58:14 35.7379 
3 *58:14 *1006:B 23 
4 *58:6 *902:B 23 
*END

*D_NET *59 0.00176673
*CONN
*I *1007:A2 I *D sky130_fd_sc_hd__o21ai_1
*I *1008:A2 I *D sky130_fd_sc_hd__a31o_1
*I *902:C I *D sky130_fd_sc_hd__and3_1
*I *901:X O *D sky130_fd_sc_hd__or2_1
*CAP
1 *1007:A2 0.00015975
2 *1008:A2 0
3 *902:C 0
4 *901:X 7.76397e-05
5 *59:25 0.000293323
6 *59:14 0.000105323
7 *59:6 0.000316535
8 *1007:A2 *165:10 0.00014028
9 *1007:A2 *246:36 0
10 *1007:A2 *249:14 4.90185e-05
11 *59:6 *164:8 9.79925e-05
12 *59:14 *899:A 8.78864e-05
13 *59:14 *179:14 2.914e-05
14 *59:14 *246:23 4.29197e-05
15 *59:14 *249:8 0.000123361
16 *59:14 *249:14 6.12731e-05
17 *59:14 *311:62 2.6652e-05
18 *59:25 *164:8 9.41704e-05
19 *59:25 *166:8 2.35118e-06
20 *59:25 *249:14 5.91105e-05
*RES
1 *901:X *59:6 24.0979 
2 *59:6 *59:14 32.9207 
3 *59:14 *902:C 23 
4 *59:6 *59:25 16.9471 
5 *59:25 *1008:A2 38 
6 *59:25 *1007:A2 40.9621 
*END

*D_NET *60 0.00118781
*CONN
*I *903:B I *D sky130_fd_sc_hd__xnor2_1
*I *902:X O *D sky130_fd_sc_hd__and3_1
*CAP
1 *903:B 0
2 *902:X 0.000375739
3 *60:12 0.000375739
4 *60:12 *900:B 1.13812e-05
5 *60:12 *249:8 0.000185517
6 *60:12 *259:10 0.000180456
7 *60:12 *309:104 1.41172e-05
8 *60:12 *310:135 0
9 *60:12 *310:152 0
10 *57:8 *60:12 4.48568e-05
*RES
1 *902:X *60:12 44.8979 
2 *60:12 *903:B 38 
*END

*D_NET *61 0.00258509
*CONN
*I *904:B I *D sky130_fd_sc_hd__and2_1
*I *1010:B I *D sky130_fd_sc_hd__nand2_1
*I *905:B I *D sky130_fd_sc_hd__nor2_1
*I *903:Y O *D sky130_fd_sc_hd__xnor2_1
*CAP
1 *904:B 0
2 *1010:B 0
3 *905:B 0
4 *903:Y 9.3877e-05
5 *61:35 0.000391884
6 *61:21 0.000427239
7 *61:14 0.000161908
8 *61:8 0.00022043
9 *61:8 *310:55 0
10 *61:21 *258:10 4.19743e-05
11 *61:35 *63:8 0
12 *61:35 *63:24 0.000100697
13 *61:35 *168:6 5.0806e-05
14 *61:35 *169:10 9.77922e-06
15 *61:35 *211:103 0.000137804
16 *61:35 *258:10 0.000146197
17 *55:20 *61:8 0
18 *55:20 *61:14 0
19 *55:20 *61:21 0.000143655
20 *55:20 *61:35 0.000131002
21 *55:37 *61:35 0.000237826
22 *56:12 *61:14 0.000143655
23 *56:16 *61:14 4.7881e-05
24 *56:16 *61:21 9.84794e-05
25 *56:16 *61:35 0
*RES
1 *903:Y *61:8 39.5536 
2 *61:8 *61:14 18.0243 
3 *61:14 *905:B 23 
4 *61:14 *61:21 2.05071 
5 *61:21 *61:35 38.1304 
6 *61:35 *1010:B 23 
7 *61:21 *904:B 23 
*END

*D_NET *62 0.00101333
*CONN
*I *906:A I *D sky130_fd_sc_hd__nor2_1
*I *904:X O *D sky130_fd_sc_hd__and2_1
*CAP
1 *906:A 0
2 *904:X 0.00017191
3 *62:8 0.00017191
4 *62:8 *907:B 3.59318e-05
5 *62:8 *63:24 0.000100069
6 *62:8 *65:8 1.46286e-05
7 *909:C *62:8 3.85196e-05
8 *54:18 *62:8 0.000235687
9 *55:20 *62:8 0.000133436
10 *55:37 *62:8 0.000111238
*RES
1 *904:X *62:8 28.4064 
2 *62:8 *906:A 23 
*END

*D_NET *63 0.00265278
*CONN
*I *1011:A2 I *D sky130_fd_sc_hd__o21ai_1
*I *906:B I *D sky130_fd_sc_hd__nor2_1
*I *905:Y O *D sky130_fd_sc_hd__nor2_1
*CAP
1 *1011:A2 5.06203e-05
2 *906:B 0
3 *905:Y 7.73247e-05
4 *63:24 0.000491079
5 *63:12 0.00082477
6 *63:8 0.000360396
7 *63:12 *849:A 0.000231229
8 *63:12 *211:103 3.90643e-05
9 *63:24 *907:B 0.000100069
10 *63:24 *1092:A 0
11 *63:24 *169:10 0
12 *55:37 *1011:A2 2.02872e-05
13 *55:37 *63:12 6.17437e-06
14 *55:37 *63:24 0.000206892
15 *56:30 *63:24 4.41048e-05
16 *61:35 *63:8 0
17 *61:35 *63:24 0.000100697
18 *62:8 *63:24 0.000100069
*RES
1 *905:Y *63:8 39.2014 
2 *63:8 *63:12 19.4329 
3 *63:12 *63:24 38.5964 
4 *63:24 *906:B 23 
5 *63:12 *1011:A2 23.6214 
*END

*D_NET *64 0.000526151
*CONN
*I *907:B I *D sky130_fd_sc_hd__xnor2_1
*I *906:Y O *D sky130_fd_sc_hd__nor2_1
*CAP
1 *907:B 8.50665e-05
2 *906:Y 8.50665e-05
3 *907:B *65:8 0.000100061
4 *907:B *258:10 6.66531e-05
5 *55:37 *907:B 5.3304e-05
6 *62:8 *907:B 3.59318e-05
7 *63:24 *907:B 0.000100069
*RES
1 *906:Y *907:B 48.5271 
*END

*D_NET *65 0.00113404
*CONN
*I *908:B1 I *D sky130_fd_sc_hd__o21ai_2
*I *909:A I *D sky130_fd_sc_hd__or3_1
*I *907:Y O *D sky130_fd_sc_hd__xnor2_1
*CAP
1 *908:B1 3.22038e-05
2 *909:A 0
3 *907:Y 0.000129952
4 *65:8 0.000162156
5 *908:B1 *908:A1 0.00015405
6 *65:8 *908:A1 0.000133309
7 *65:8 *258:10 0.000185364
8 *907:B *65:8 0.000100061
9 *908:A2 *908:B1 0.000185434
10 *908:A2 *65:8 2.43944e-05
11 *909:C *65:8 5.90675e-06
12 *54:18 *65:8 6.57815e-06
13 *62:8 *65:8 1.46286e-05
*RES
1 *907:Y *65:8 26.8529 
2 *65:8 *909:A 23 
3 *65:8 *908:B1 25.0507 
*END

*D_NET *66 0.00459407
*CONN
*I *910:A I *D sky130_fd_sc_hd__nand2_2
*I *1012:S I *D sky130_fd_sc_hd__mux2_1
*I *908:Y O *D sky130_fd_sc_hd__o21ai_2
*CAP
1 *910:A 9.64569e-05
2 *1012:S 0
3 *908:Y 0.000439757
4 *66:18 0.000370609
5 *66:10 0.000906823
6 *910:A *213:93 0.000271392
7 *910:A *215:16 0.000258096
8 *66:10 *851:B 5.67058e-05
9 *66:10 *67:10 2.65879e-05
10 *66:10 *213:93 0.000213551
11 *66:10 *215:16 0.000135547
12 *66:10 *217:8 0
13 *66:10 *217:17 0
14 *66:10 *222:10 1.32939e-05
15 *66:10 *307:114 0.000228139
16 *66:10 *307:123 0.000126277
17 *66:18 *858:A 5.3304e-05
18 *66:18 *223:10 0.000180507
19 *66:18 *309:117 0.000531159
20 *66:18 *310:30 5.3304e-05
21 *66:18 *310:43 0.000619612
22 *908:A2 *66:10 5.37348e-06
23 *3:19 *66:10 7.57281e-06
*RES
1 *908:Y *66:10 47.3007 
2 *66:10 *66:18 27.5736 
3 *66:18 *1012:S 23 
4 *66:10 *910:A 41.6664 
*END

*D_NET *67 0.00231906
*CONN
*I *910:B I *D sky130_fd_sc_hd__nand2_2
*I *909:X O *D sky130_fd_sc_hd__or3_1
*CAP
1 *910:B 0.000210662
2 *909:X 0.000514762
3 *67:10 0.000725424
4 *910:B *217:23 0.000221992
5 *910:B *262:6 5.50106e-05
6 *910:B *276:22 0.000154121
7 *67:10 *222:10 7.81176e-05
8 *67:10 *307:114 5.83085e-05
9 *67:10 *311:38 0
10 *908:A2 *67:10 0.000274078
11 *66:10 *67:10 2.65879e-05
*RES
1 *909:X *67:10 47.0314 
2 *67:10 *910:B 42.4329 
*END

*D_NET *68 0.00377314
*CONN
*I *1005:A0 I *D sky130_fd_sc_hd__mux2_1
*I *1015:A1 I *D sky130_fd_sc_hd__o211ai_2
*I *923:A I *D sky130_fd_sc_hd__xor2_1
*I *1014:A1 I *D sky130_fd_sc_hd__o22a_1
*I *910:Y O *D sky130_fd_sc_hd__nand2_2
*CAP
1 *1005:A0 0
2 *1015:A1 0
3 *923:A 0
4 *1014:A1 0
5 *910:Y 0.000242577
6 *68:51 0.000172541
7 *68:41 0.000422984
8 *68:29 0.000721793
9 *68:10 0.000713928
10 *68:10 *215:16 1.41891e-05
11 *68:10 *217:17 1.58805e-05
12 *68:10 *217:81 0.000103835
13 *68:10 *276:22 0.000137651
14 *68:29 *859:A 2.95526e-05
15 *68:29 *859:B 0
16 *68:29 *1005:S 9.91548e-05
17 *68:29 *80:31 0.000187548
18 *68:29 *171:8 9.10017e-05
19 *68:29 *215:16 1.98991e-05
20 *68:29 *217:81 2.96123e-05
21 *68:29 *217:98 3.70768e-05
22 *68:41 *1015:B1 6.72075e-05
23 *68:41 *80:10 0.00022823
24 *68:41 *163:10 3.6608e-05
25 *68:41 *172:10 8.36198e-05
26 *68:41 *272:26 0.000105391
27 *68:51 *923:B 7.61229e-06
28 *68:51 *1005:S 0
29 *68:51 *311:46 1.47709e-05
30 *1077:A *68:10 0.000190479
*RES
1 *910:Y *68:10 42.8886 
2 *68:10 *1014:A1 38 
3 *68:10 *68:29 23.8864 
4 *68:29 *68:41 35.8 
5 *68:41 *68:51 33.0243 
6 *68:51 *923:A 23 
7 *68:41 *1015:A1 23 
8 *68:29 *1005:A0 23 
*END

*D_NET *69 0.00184318
*CONN
*I *925:A I *D sky130_fd_sc_hd__nand3_1
*I *926:B1 I *D sky130_fd_sc_hd__a21o_1
*I *914:A1 I *D sky130_fd_sc_hd__a21bo_1
*I *911:X O *D sky130_fd_sc_hd__and2_1
*CAP
1 *925:A 9.42274e-05
2 *926:B1 0
3 *914:A1 0
4 *911:X 8.81957e-05
5 *69:29 0.00012336
6 *69:14 0.000233279
7 *69:8 0.000292342
8 *925:A *925:B 0.00010724
9 *925:A *309:43 0.000110267
10 *69:8 *199:12 9.41704e-05
11 *69:14 *911:B 5.3304e-05
12 *69:14 *912:B1 0.000140021
13 *69:14 *925:B 7.97045e-05
14 *69:14 *199:12 3.50667e-05
15 *69:14 *309:43 4.64843e-05
16 *69:14 *309:49 3.32202e-05
17 *69:29 *912:B1 3.32096e-05
18 *69:29 *912:B2 0.000179592
19 *69:29 *70:10 7.61229e-06
20 *69:29 *84:12 5.38891e-05
21 *69:29 *199:12 1.61385e-05
22 *69:29 *246:78 1.01436e-05
23 *69:29 *309:49 1.17152e-05
*RES
1 *911:X *69:8 39.0979 
2 *69:8 *69:14 17.7757 
3 *69:14 *914:A1 23 
4 *69:14 *69:29 33.3764 
5 *69:29 *926:B1 23 
6 *69:8 *925:A 40.3511 
*END

*D_NET *70 0.00175667
*CONN
*I *926:A2 I *D sky130_fd_sc_hd__a21o_1
*I *914:A2 I *D sky130_fd_sc_hd__a21bo_1
*I *925:C I *D sky130_fd_sc_hd__nand3_1
*I *912:X O *D sky130_fd_sc_hd__a22o_1
*CAP
1 *926:A2 0
2 *914:A2 0
3 *925:C 0
4 *912:X 1.64853e-05
5 *70:40 0.000179869
6 *70:18 0.000216839
7 *70:10 0.000271783
8 *70:6 0.000251298
9 *70:6 *912:B2 4.33627e-05
10 *70:6 *199:12 5.3304e-05
11 *70:10 *912:B1 5.61255e-06
12 *70:10 *912:B2 6.67823e-05
13 *70:10 *199:12 0.000103113
14 *70:18 *83:14 3.17638e-05
15 *70:18 *84:12 0.000114383
16 *70:18 *247:94 3.39102e-05
17 *70:18 *293:40 3.23062e-05
18 *70:40 *912:B2 0.000140361
19 *70:40 *926:A1 1.89493e-05
20 *70:40 *72:10 0.000110583
21 *70:40 *84:12 0
22 *70:40 *246:97 0
23 *70:40 *247:73 1.40958e-05
24 *70:40 *247:86 2.37049e-05
25 *70:40 *293:40 2.05503e-05
26 *69:29 *70:10 7.61229e-06
*RES
1 *912:X *70:6 23.6214 
2 *70:6 *70:10 1.595 
3 *70:10 *70:18 33.9357 
4 *70:18 *925:C 23 
5 *70:10 *914:A2 23 
6 *70:6 *70:40 34.2257 
7 *70:40 *926:A2 23 
*END

*D_NET *71 0.00225007
*CONN
*I *925:B I *D sky130_fd_sc_hd__nand3_1
*I *914:B1_N I *D sky130_fd_sc_hd__a21bo_1
*I *926:A1 I *D sky130_fd_sc_hd__a21o_1
*I *913:Y O *D sky130_fd_sc_hd__nand4_2
*CAP
1 *925:B 0.000319177
2 *914:B1_N 0
3 *926:A1 0.000125288
4 *913:Y 0
5 *71:19 0.000385419
6 *71:4 0.000191529
7 *925:B *193:18 9.97994e-06
8 *925:B *246:97 0.000276484
9 *925:B *309:43 2.62774e-05
10 *925:B *309:49 2.37148e-05
11 *926:A1 *246:78 9.67842e-05
12 *926:A1 *246:97 5.38612e-05
13 *926:A1 *247:73 0.000351487
14 *71:19 *246:97 8.82119e-05
15 *71:19 *247:65 1.14452e-05
16 *71:19 *249:83 1.62615e-05
17 *71:19 *309:49 6.82589e-05
18 *925:A *925:B 0.00010724
19 *69:14 *925:B 7.97045e-05
20 *70:40 *926:A1 1.89493e-05
*RES
1 *913:Y *71:4 23 
2 *71:4 *926:A1 27.4743 
3 *71:4 *71:19 16.9057 
4 *71:19 *914:B1_N 38 
5 *71:19 *925:B 44.7062 
*END

*D_NET *72 0.00194935
*CONN
*I *916:B I *D sky130_fd_sc_hd__nand3_1
*I *917:B1 I *D sky130_fd_sc_hd__a21o_1
*I *914:X O *D sky130_fd_sc_hd__a21bo_1
*CAP
1 *916:B 2.90584e-05
2 *917:B1 6.18859e-05
3 *914:X 0.000364299
4 *72:12 9.09442e-05
5 *72:10 0.000364299
6 *916:B *916:A 2.4754e-05
7 *917:B1 *916:A 0.000190434
8 *917:B1 *916:C 0.000141052
9 *917:B1 *917:A1 0
10 *917:B1 *74:14 5.90675e-06
11 *72:10 *912:B1 5.3304e-05
12 *72:10 *912:B2 7.38891e-05
13 *72:10 *246:70 0.000177555
14 *72:10 *247:73 0.000216392
15 *72:10 *272:20 0
16 *72:10 *307:50 4.49946e-05
17 *72:10 *310:152 0
18 *70:40 *72:10 0.000110583
*RES
1 *914:X *72:10 46.1614 
2 *72:10 *72:12 15 
3 *72:12 *917:B1 25.5479 
4 *72:12 *916:B 23.6214 
*END

*D_NET *73 0.000771637
*CONN
*I *916:C I *D sky130_fd_sc_hd__nand3_1
*I *917:A2 I *D sky130_fd_sc_hd__a21o_1
*I *915:X O *D sky130_fd_sc_hd__a22o_1
*CAP
1 *916:C 0.000172137
2 *917:A2 0
3 *915:X 6.64632e-05
4 *73:8 0.0002386
5 *916:C *915:A1 4.00259e-06
6 *916:C *916:A 4.5051e-05
7 *916:C *917:A1 1.14154e-05
8 *916:C *251:27 7.44161e-06
9 *73:8 *915:A2 6.17437e-06
10 *73:8 *917:A1 2.77232e-05
11 *73:8 *251:27 5.15762e-05
12 *917:B1 *916:C 0.000141052
*RES
1 *915:X *73:8 24.4707 
2 *73:8 *917:A2 23 
3 *73:8 *916:C 26.5007 
*END

*D_NET *74 0.00192701
*CONN
*I *934:A1 I *D sky130_fd_sc_hd__a21bo_1
*I *919:A I *D sky130_fd_sc_hd__and2_1
*I *918:B I *D sky130_fd_sc_hd__nand3b_1
*I *916:Y O *D sky130_fd_sc_hd__nand3_1
*CAP
1 *934:A1 4.48518e-05
2 *919:A 0
3 *918:B 1.32235e-05
4 *916:Y 0.000267637
5 *74:35 0.000100953
6 *74:29 0.00020882
7 *74:14 0.000343876
8 *918:B *918:C 1.22308e-05
9 *918:B *934:A2 5.72213e-05
10 *934:A1 *934:A2 4.08664e-05
11 *934:A1 *179:37 9.65021e-05
12 *74:14 *916:A 7.53384e-06
13 *74:14 *918:C 2.12918e-05
14 *74:14 *934:A2 8.46261e-06
15 *74:14 *75:6 7.55481e-05
16 *74:29 *934:A2 0.000166987
17 *74:29 *179:37 0.000137651
18 *74:35 *919:B 0.000138143
19 *74:35 *76:21 7.70737e-05
20 *74:35 *264:30 0.000102235
21 *917:B1 *74:14 5.90675e-06
*RES
1 *916:Y *74:14 28.6343 
2 *74:14 *918:B 24.1704 
3 *74:14 *74:29 2.05071 
4 *74:29 *74:35 32.9621 
5 *74:35 *919:A 23 
6 *74:29 *934:A1 24.0979 
*END

*D_NET *75 0.00155452
*CONN
*I *934:A2 I *D sky130_fd_sc_hd__a21bo_1
*I *918:C I *D sky130_fd_sc_hd__nand3b_1
*I *917:X O *D sky130_fd_sc_hd__a21o_1
*CAP
1 *934:A2 0.000175341
2 *918:C 5.5261e-05
3 *917:X 0.000216737
4 *75:6 0.000447339
5 *918:C *916:A 0
6 *934:A2 *76:8 9.17998e-05
7 *75:6 *916:A 0.000185434
8 *918:B *918:C 1.22308e-05
9 *918:B *934:A2 5.72213e-05
10 *934:A1 *934:A2 4.08664e-05
11 *74:14 *918:C 2.12918e-05
12 *74:14 *934:A2 8.46261e-06
13 *74:14 *75:6 7.55481e-05
14 *74:29 *934:A2 0.000166987
*RES
1 *917:X *75:6 27.4329 
2 *75:6 *918:C 24.6157 
3 *75:6 *934:A2 27.5986 
*END

*D_NET *76 0.00210585
*CONN
*I *968:A1 I *D sky130_fd_sc_hd__a21oi_1
*I *935:B I *D sky130_fd_sc_hd__and3_1
*I *919:B I *D sky130_fd_sc_hd__and2_1
*I *918:Y O *D sky130_fd_sc_hd__nand3b_1
*CAP
1 *968:A1 0.000117908
2 *935:B 0.000213219
3 *919:B 0.000128878
4 *918:Y 0.000165879
5 *76:21 0.000467939
6 *76:8 0.000431569
7 *919:B *264:30 9.19684e-06
8 *919:B *272:26 5.73309e-05
9 *935:B *968:B1 5.41288e-05
10 *935:B *92:8 5.62433e-06
11 *935:B *245:51 0
12 *935:B *264:24 4.6318e-06
13 *935:B *264:30 3.99459e-05
14 *968:A1 *93:18 5.56356e-05
15 *76:21 *92:8 3.52294e-05
16 *76:21 *245:51 0
17 *76:21 *264:30 1.17152e-05
18 *934:A2 *76:8 9.17998e-05
19 *55:79 *919:B 0
20 *55:79 *76:21 0
21 *74:35 *919:B 0.000138143
22 *74:35 *76:21 7.70737e-05
*RES
1 *918:Y *76:8 40.0507 
2 *76:8 *919:B 40.8793 
3 *76:8 *76:21 2.78607 
4 *76:21 *935:B 41.1796 
5 *76:21 *968:A1 39.5639 
*END

*D_NET *77 0.00109176
*CONN
*I *922:A I *D sky130_fd_sc_hd__or2b_1
*I *936:B I *D sky130_fd_sc_hd__xnor2_1
*I *919:X O *D sky130_fd_sc_hd__and2_1
*CAP
1 *922:A 0.000105213
2 *936:B 0
3 *919:X 0.000159057
4 *77:14 8.88715e-05
5 *77:6 0.000353141
6 *922:A *272:26 0.000129736
7 *77:6 *272:26 8.44063e-05
8 *77:14 *936:A 8.50457e-05
9 *77:14 *245:51 8.62876e-05
*RES
1 *919:X *77:6 25.0507 
2 *77:6 *77:14 32.0507 
3 *77:14 *936:B 23 
4 *77:6 *922:A 24.5743 
*END

*D_NET *78 0.000369006
*CONN
*I *921:B I *D sky130_fd_sc_hd__nor2_1
*I *920:Y O *D sky130_fd_sc_hd__a21oi_1
*CAP
1 *921:B 0
2 *920:Y 0.000104466
3 *78:8 0.000104466
4 *54:10 *78:8 0.000160074
*RES
1 *920:Y *78:8 40.2579 
2 *78:8 *921:B 38 
*END

*D_NET *79 0.00287912
*CONN
*I *936:A I *D sky130_fd_sc_hd__xnor2_1
*I *922:B_N I *D sky130_fd_sc_hd__or2b_1
*I *921:Y O *D sky130_fd_sc_hd__nor2_1
*CAP
1 *936:A 0.000236833
2 *922:B_N 8.93178e-05
3 *921:Y 0.000555343
4 *79:12 0.000881494
5 *922:B_N *272:26 8.87689e-05
6 *936:A *245:51 9.21516e-05
7 *79:12 *896:B 4.67998e-05
8 *79:12 *217:40 7.39525e-05
9 *79:12 *245:10 0.000270378
10 *79:12 *245:16 0.000160125
11 *79:12 *245:51 0.000111277
12 *79:12 *309:117 2.93431e-05
13 *79:12 *310:43 4.68316e-05
14 *79:12 *311:38 0
15 *54:10 *79:12 0.000111462
16 *55:20 *79:12 0
17 *77:14 *936:A 8.50457e-05
*RES
1 *921:Y *79:12 49.4757 
2 *79:12 *922:B_N 39.595 
3 *79:12 *936:A 42.4329 
*END

*D_NET *80 0.00289025
*CONN
*I *1014:A2 I *D sky130_fd_sc_hd__o22a_1
*I *923:B I *D sky130_fd_sc_hd__xor2_1
*I *922:X O *D sky130_fd_sc_hd__or2b_1
*CAP
1 *1014:A2 0
2 *923:B 0.0001498
3 *922:X 0.000331787
4 *80:31 0.000385632
5 *80:12 0.000535432
6 *80:10 0.000331787
7 *923:B *1005:A1 0.000100477
8 *923:B *311:46 1.24376e-05
9 *80:10 *1005:S 0.000134767
10 *80:10 *163:10 8.36198e-05
11 *80:10 *272:26 9.97435e-06
12 *80:31 *859:A 3.77412e-05
13 *80:31 *1005:A1 0.000187363
14 *80:31 *1005:S 1.47795e-05
15 *80:31 *217:81 0.000139882
16 *80:31 *217:98 1.13812e-05
17 *68:29 *80:31 0.000187548
18 *68:41 *80:10 0.00022823
19 *68:51 *923:B 7.61229e-06
*RES
1 *922:X *80:10 43.6136 
2 *80:10 *80:12 15 
3 *80:12 *923:B 26.0243 
4 *80:12 *80:31 37.7886 
5 *80:31 *1014:A2 23 
*END

*D_NET *81 0.000565989
*CONN
*I *1005:A1 I *D sky130_fd_sc_hd__mux2_1
*I *923:X O *D sky130_fd_sc_hd__xor2_1
*CAP
1 *1005:A1 7.66369e-05
2 *923:X 7.66369e-05
3 *1005:A1 *1005:S 0.000124874
4 *923:B *1005:A1 0.000100477
5 *80:31 *1005:A1 0.000187363
*RES
1 *923:X *1005:A1 49.0036 
*END

*D_NET *82 0.00347584
*CONN
*I *949:B1 I *D sky130_fd_sc_hd__a21o_1
*I *933:A1 I *D sky130_fd_sc_hd__a21bo_1
*I *938:B I *D sky130_fd_sc_hd__nand3_1
*I *924:X O *D sky130_fd_sc_hd__and2_1
*CAP
1 *949:B1 0.000159363
2 *933:A1 3.99145e-05
3 *938:B 0.000101384
4 *924:X 0
5 *82:10 0.000141298
6 *82:8 0.000746703
7 *82:6 0.000587339
8 *933:A1 *933:A2 2.69767e-05
9 *933:A1 *96:10 5.3304e-05
10 *933:A1 *212:61 2.50118e-05
11 *938:B *933:A2 9.43165e-05
12 *938:B *933:B1_N 5.58003e-05
13 *938:B *89:15 9.66668e-05
14 *938:B *90:18 3.15452e-05
15 *938:B *96:10 2.20564e-05
16 *938:B *212:61 3.28357e-06
17 *949:B1 *96:10 0.000216199
18 *949:B1 *96:20 6.17437e-06
19 *949:B1 *132:17 0.00020617
20 *82:8 *96:10 3.46013e-05
21 *82:8 *132:17 0.000136905
22 *82:8 *213:43 5.71629e-05
23 *82:8 *214:110 0.000183253
24 *82:8 *272:20 0.000206416
25 *82:8 *307:42 0.00014155
26 *82:8 *307:50 0.000102446
*RES
1 *924:X *82:6 38 
2 *82:6 *82:8 13.1743 
3 *82:8 *82:10 15 
4 *82:10 *938:B 25.9 
5 *82:10 *933:A1 24.0979 
6 *82:8 *949:B1 41.5836 
*END

*D_NET *83 0.00251711
*CONN
*I *932:B I *D sky130_fd_sc_hd__nand3_1
*I *931:A1 I *D sky130_fd_sc_hd__a21o_1
*I *925:Y O *D sky130_fd_sc_hd__nand3_1
*CAP
1 *932:B 0
2 *931:A1 0
3 *925:Y 0.000278488
4 *83:28 0.00015611
5 *83:20 0.000230013
6 *83:14 0.000352391
7 *83:14 *931:A2 1.22217e-05
8 *83:14 *193:18 0.000186041
9 *83:14 *213:30 4.36268e-05
10 *83:14 *247:86 9.97764e-06
11 *83:14 *247:94 0.000194606
12 *83:14 *249:91 0.00011196
13 *83:14 *293:40 1.13812e-05
14 *83:20 *247:111 0.000176
15 *83:20 *263:18 0.000182219
16 *83:28 *931:A2 5.5792e-05
17 *83:28 *931:B1 5.5792e-05
18 *83:28 *932:A 0.000192949
19 *83:28 *309:43 0.000235781
20 *70:18 *83:14 3.17638e-05
*RES
1 *925:Y *83:14 44.4836 
2 *83:14 *83:20 17.5479 
3 *83:20 *83:28 33.9357 
4 *83:28 *931:A1 23 
5 *83:20 *932:B 23 
*END

*D_NET *84 0.00249006
*CONN
*I *931:A2 I *D sky130_fd_sc_hd__a21o_1
*I *932:C I *D sky130_fd_sc_hd__nand3_1
*I *926:X O *D sky130_fd_sc_hd__a21o_1
*CAP
1 *931:A2 0.000268501
2 *932:C 0
3 *926:X 0.000343899
4 *84:12 0.0006124
5 *931:A2 *931:B1 2.35708e-05
6 *931:A2 *212:61 0.000179725
7 *931:A2 *213:30 1.86415e-05
8 *931:A2 *247:94 5.75756e-06
9 *931:A2 *309:43 0.000220583
10 *84:12 *912:B2 5.71002e-06
11 *84:12 *247:94 5.84317e-05
12 *84:12 *309:43 0.000355359
13 *84:12 *309:49 0.000161198
14 *69:29 *84:12 5.38891e-05
15 *70:18 *84:12 0.000114383
16 *70:40 *84:12 0
17 *83:14 *931:A2 1.22217e-05
18 *83:28 *931:A2 5.5792e-05
*RES
1 *926:X *84:12 45.9543 
2 *84:12 *932:C 38 
3 *84:12 *931:A2 43.8621 
*END

*D_NET *85 0.00147396
*CONN
*I *930:A1 I *D sky130_fd_sc_hd__a21bo_1
*I *940:B I *D sky130_fd_sc_hd__nand3_1
*I *941:B1 I *D sky130_fd_sc_hd__a21o_1
*I *927:X O *D sky130_fd_sc_hd__and2_1
*CAP
1 *930:A1 0
2 *940:B 8.97965e-05
3 *941:B1 0
4 *927:X 6.71855e-05
5 *85:28 0.000120758
6 *85:15 0.000262957
7 *85:6 0.000119588
8 *940:B *940:C 5.3304e-05
9 *940:B *941:A1 0.000182542
10 *940:B *86:26 4.5051e-05
11 *940:B *87:23 5.56279e-05
12 *940:B *98:10 8.48502e-06
13 *85:6 *927:A 9.5877e-05
14 *85:6 *86:26 1.32314e-05
15 *85:6 *99:10 2.93747e-05
16 *85:15 *86:26 1.96788e-05
17 *85:28 *86:26 0.00014411
18 *85:28 *265:68 2.70366e-05
19 *85:28 *265:85 1.69668e-05
20 *85:28 *280:23 0.000122386
*RES
1 *927:X *85:6 24.5743 
2 *85:6 *941:B1 23 
3 *85:6 *85:15 1.11857 
4 *85:15 *940:B 25.5271 
5 *85:15 *85:28 33.3143 
6 *85:28 *930:A1 23 
*END

*D_NET *86 0.0013427
*CONN
*I *930:A2 I *D sky130_fd_sc_hd__a21bo_1
*I *941:A2 I *D sky130_fd_sc_hd__a21o_1
*I *940:C I *D sky130_fd_sc_hd__nand3_1
*I *928:X O *D sky130_fd_sc_hd__a22o_1
*CAP
1 *930:A2 0
2 *941:A2 0
3 *940:C 2.76397e-05
4 *928:X 9.97102e-05
5 *86:26 0.000217077
6 *86:14 0.000255276
7 *86:10 0.000165549
8 *940:C *98:10 6.17437e-06
9 *86:10 *932:A 2.24608e-05
10 *86:10 *88:8 3.06079e-05
11 *86:10 *212:61 1.24362e-05
12 *86:10 *265:68 8.62876e-05
13 *86:26 *265:68 0.00014411
14 *940:B *940:C 5.3304e-05
15 *940:B *86:26 4.5051e-05
16 *85:6 *86:26 1.32314e-05
17 *85:15 *86:26 1.96788e-05
18 *85:28 *86:26 0.00014411
*RES
1 *928:X *86:10 39.8229 
2 *86:10 *86:14 16.2014 
3 *86:14 *86:26 34.8264 
4 *86:26 *940:C 23.6214 
5 *86:26 *941:A2 23 
6 *86:14 *930:A2 23 
*END

*D_NET *87 0.00241921
*CONN
*I *941:A1 I *D sky130_fd_sc_hd__a21o_1
*I *940:A I *D sky130_fd_sc_hd__nand3_1
*I *930:B1_N I *D sky130_fd_sc_hd__a21bo_1
*I *929:Y O *D sky130_fd_sc_hd__nand4_1
*CAP
1 *941:A1 0.000207943
2 *940:A 0
3 *930:B1_N 0
4 *929:Y 0.000377157
5 *87:23 0.000392573
6 *87:10 0.000561787
7 *87:10 *212:14 0
8 *87:10 *246:103 3.76157e-05
9 *87:10 *247:143 0.000162416
10 *87:10 *263:18 0.00018553
11 *87:10 *280:23 6.24933e-05
12 *87:23 *98:10 6.87573e-05
13 *87:23 *212:14 0
14 *87:23 *280:23 0.00012477
15 *940:B *941:A1 0.000182542
16 *940:B *87:23 5.56279e-05
*RES
1 *929:Y *87:10 44.0693 
2 *87:10 *930:B1_N 38 
3 *87:10 *87:23 20.1164 
4 *87:23 *940:A 23 
5 *87:23 *941:A1 26.3764 
*END

*D_NET *88 0.00130218
*CONN
*I *931:B1 I *D sky130_fd_sc_hd__a21o_1
*I *932:A I *D sky130_fd_sc_hd__nand3_1
*I *930:X O *D sky130_fd_sc_hd__a21bo_1
*CAP
1 *931:B1 0.000112899
2 *932:A 0.000250561
3 *930:X 3.74909e-05
4 *88:8 0.000400951
5 *931:B1 *89:15 0
6 *931:B1 *309:43 1.27321e-05
7 *932:A *246:97 4.41821e-06
8 *932:A *265:68 0.000107747
9 *932:A *265:85 0
10 *932:A *309:43 1.40435e-05
11 *88:8 *309:43 3.59619e-05
12 *931:A2 *931:B1 2.35708e-05
13 *83:28 *931:B1 5.5792e-05
14 *83:28 *932:A 0.000192949
15 *86:10 *932:A 2.24608e-05
16 *86:10 *88:8 3.06079e-05
*RES
1 *930:X *88:8 39.0254 
2 *88:8 *932:A 43.5825 
3 *88:8 *931:B1 40.4132 
*END

*D_NET *89 0.00157555
*CONN
*I *933:A2 I *D sky130_fd_sc_hd__a21bo_1
*I *949:A2 I *D sky130_fd_sc_hd__a21o_1
*I *938:C I *D sky130_fd_sc_hd__nand3_1
*I *931:X O *D sky130_fd_sc_hd__a21o_1
*CAP
1 *933:A2 0.000226502
2 *949:A2 0
3 *938:C 0
4 *931:X 4.52931e-05
5 *89:25 9.07312e-05
6 *89:15 0.000490204
7 *89:6 0.000218265
8 *933:A2 *212:61 7.66446e-06
9 *89:6 *212:61 3.71887e-05
10 *89:15 *212:61 1.33811e-05
11 *89:25 *949:A1 8.76169e-06
12 *89:25 *132:17 0.000108681
13 *89:25 *307:42 0.000110922
14 *931:B1 *89:15 0
15 *933:A1 *933:A2 2.69767e-05
16 *938:B *933:A2 9.43165e-05
17 *938:B *89:15 9.66668e-05
*RES
1 *931:X *89:6 24.0979 
2 *89:6 *938:C 23 
3 *89:6 *89:15 2.54786 
4 *89:15 *89:25 32.0973 
5 *89:25 *949:A2 23 
6 *89:15 *933:A2 26.3764 
*END

*D_NET *90 0.00204487
*CONN
*I *949:A1 I *D sky130_fd_sc_hd__a21o_1
*I *933:B1_N I *D sky130_fd_sc_hd__a21bo_1
*I *938:A I *D sky130_fd_sc_hd__nand3_1
*I *932:Y O *D sky130_fd_sc_hd__nand3_1
*CAP
1 *949:A1 0.000299295
2 *933:B1_N 1.58432e-05
3 *938:A 0
4 *932:Y 0.000288263
5 *90:18 7.60467e-05
6 *90:10 0.000647761
7 *933:B1_N *96:10 2.33782e-05
8 *949:A1 *307:42 0.000187237
9 *949:A1 *309:43 0
10 *90:10 *213:30 4.43082e-05
11 *90:10 *263:18 0.000214388
12 *90:10 *307:42 0.000108241
13 *90:18 *96:10 1.24376e-05
14 *90:18 *212:61 3.15669e-05
15 *938:B *933:B1_N 5.58003e-05
16 *938:B *90:18 3.15452e-05
17 *89:25 *949:A1 8.76169e-06
*RES
1 *932:Y *90:10 42.5571 
2 *90:10 *90:18 16.6157 
3 *90:18 *938:A 23 
4 *90:18 *933:B1_N 23.6214 
5 *90:10 *949:A1 42.1843 
*END

*D_NET *91 0.00293238
*CONN
*I *968:B1 I *D sky130_fd_sc_hd__a21oi_1
*I *935:A I *D sky130_fd_sc_hd__and3_1
*I *933:X O *D sky130_fd_sc_hd__a21bo_1
*CAP
1 *968:B1 0.000205461
2 *935:A 0
3 *933:X 0
4 *91:12 0.0007504
5 *91:6 0.000544939
6 *968:B1 *924:A 6.09117e-05
7 *968:B1 *968:A2 0.000127915
8 *968:B1 *969:B 3.48643e-05
9 *968:B1 *92:12 5.83345e-06
10 *968:B1 *93:18 0.000126919
11 *968:B1 *310:152 0
12 *91:12 *924:A 1.41077e-05
13 *91:12 *245:115 0.000121827
14 *91:12 *249:110 0.000185382
15 *91:12 *264:24 0.000185433
16 *91:12 *264:30 5.91383e-05
17 *91:12 *272:20 0.000455117
18 *935:B *968:B1 5.41288e-05
*RES
1 *933:X *91:6 38 
2 *91:6 *91:12 29.5 
3 *91:12 *935:A 23 
4 *91:12 *968:B1 28.945 
*END

*D_NET *92 0.000655648
*CONN
*I *968:A2 I *D sky130_fd_sc_hd__a21oi_1
*I *935:C I *D sky130_fd_sc_hd__and3_1
*I *934:X O *D sky130_fd_sc_hd__a21bo_1
*CAP
1 *968:A2 8.64299e-05
2 *935:C 0
3 *934:X 4.16529e-05
4 *92:12 0.000107223
5 *92:8 6.24463e-05
6 *968:A2 *93:18 9.47742e-05
7 *92:8 *264:30 8.85189e-05
8 *935:B *92:8 5.62433e-06
9 *968:B1 *968:A2 0.000127915
10 *968:B1 *92:12 5.83345e-06
11 *76:21 *92:8 3.52294e-05
*RES
1 *934:X *92:8 39.2014 
2 *92:8 *92:12 15.2279 
3 *92:12 *935:C 23 
4 *92:12 *968:A2 25.4857 
*END

*D_NET *93 0.00192536
*CONN
*I *937:A I *D sky130_fd_sc_hd__or2_1
*I *1003:A I *D sky130_fd_sc_hd__and2_1
*I *969:A I *D sky130_fd_sc_hd__nor2_1
*I *935:X O *D sky130_fd_sc_hd__and3_1
*CAP
1 *937:A 0
2 *1003:A 0
3 *969:A 0
4 *935:X 0.000224837
5 *93:33 0.000196306
6 *93:25 0.000312229
7 *93:18 0.000340759
8 *93:18 *969:B 2.51184e-05
9 *93:18 *127:8 1.54983e-05
10 *93:18 *214:80 1.24376e-05
11 *93:25 *937:B 9.84851e-05
12 *93:25 *127:8 0.000148428
13 *93:25 *214:80 0.000155357
14 *93:33 *1003:B 5.50106e-05
15 *93:33 *162:10 6.35704e-05
16 *968:A1 *93:18 5.56356e-05
17 *968:A2 *93:18 9.47742e-05
18 *968:B1 *93:18 0.000126919
*RES
1 *935:X *93:18 28.7586 
2 *93:18 *969:A 23 
3 *93:18 *93:25 4.43286 
4 *93:25 *93:33 33.5836 
5 *93:33 *1003:A 23 
6 *93:25 *937:A 23 
*END

*D_NET *94 0.00114618
*CONN
*I *937:B I *D sky130_fd_sc_hd__or2_1
*I *1003:B I *D sky130_fd_sc_hd__and2_1
*I *936:Y O *D sky130_fd_sc_hd__xnor2_1
*CAP
1 *937:B 0.000122012
2 *1003:B 0.000169311
3 *936:Y 0
4 *94:6 0.000291323
5 *937:B *214:80 9.84851e-05
6 *937:B *245:51 0
7 *1003:B *179:37 0.000311554
8 *1003:B *245:51 0
9 *93:25 *937:B 9.84851e-05
10 *93:33 *1003:B 5.50106e-05
*RES
1 *936:Y *94:6 38 
2 *94:6 *1003:B 42.3293 
3 *94:6 *937:B 40.6514 
*END

*D_NET *95 0.00114332
*CONN
*I *1004:A1 I *D sky130_fd_sc_hd__a21oi_1
*I *1016:B_N I *D sky130_fd_sc_hd__or2b_1
*I *937:X O *D sky130_fd_sc_hd__or2_1
*CAP
1 *1004:A1 0
2 *1016:B_N 4.01155e-05
3 *937:X 3.86937e-05
4 *95:21 0.000302599
5 *95:6 0.000381408
6 *95:6 *214:80 1.39317e-05
7 *95:21 *1004:B1 4.66036e-05
8 *95:21 *1016:A 5.3304e-05
9 *95:21 *161:10 9.48381e-06
10 *95:21 *174:10 0.000180115
11 *95:21 *213:74 6.7177e-06
12 *95:21 *214:80 7.03476e-05
*RES
1 *937:X *95:6 23.6214 
2 *95:6 *1016:B_N 23.8493 
3 *95:6 *95:21 36.09 
4 *95:21 *1004:A1 23 
*END

*D_NET *96 0.00275876
*CONN
*I *951:A1 I *D sky130_fd_sc_hd__a21oi_1
*I *950:A I *D sky130_fd_sc_hd__and3_2
*I *938:Y O *D sky130_fd_sc_hd__nand3_1
*CAP
1 *951:A1 0.000110078
2 *950:A 3.73312e-05
3 *938:Y 0.000246429
4 *96:20 0.000337473
5 *96:10 0.000656648
6 *950:A *950:C 9.67842e-05
7 *950:A *109:6 3.3577e-05
8 *951:A1 *951:A2 7.52623e-05
9 *951:A1 *107:8 8.76088e-05
10 *951:A1 *132:17 5.96687e-05
11 *951:A1 *307:30 4.31931e-05
12 *96:10 *107:8 6.07611e-06
13 *96:10 *132:17 4.42688e-05
14 *96:10 *212:61 0.000182222
15 *96:10 *272:20 9.41178e-05
16 *96:20 *950:B 0.000115013
17 *96:20 *106:8 1.01436e-05
18 *96:20 *264:24 0.000105165
19 *96:20 *272:20 4.95545e-05
20 *933:A1 *96:10 5.3304e-05
21 *933:B1_N *96:10 2.33782e-05
22 *938:B *96:10 2.20564e-05
23 *949:B1 *96:10 0.000216199
24 *949:B1 *96:20 6.17437e-06
25 *82:8 *96:10 3.46013e-05
26 *90:18 *96:10 1.24376e-05
*RES
1 *938:Y *96:10 44.4214 
2 *96:10 *96:20 35.9864 
3 *96:20 *950:A 39.0979 
4 *96:10 *951:A1 41.3764 
*END

*D_NET *97 0.00233164
*CONN
*I *948:A1 I *D sky130_fd_sc_hd__a21bo_1
*I *952:B I *D sky130_fd_sc_hd__nand3_1
*I *963:B1 I *D sky130_fd_sc_hd__a21o_1
*I *939:X O *D sky130_fd_sc_hd__and2_1
*CAP
1 *948:A1 0
2 *952:B 0
3 *963:B1 2.96631e-05
4 *939:X 0.000113852
5 *97:27 0.000258812
6 *97:19 0.000361688
7 *97:6 0.000246391
8 *963:B1 *105:44 1.32314e-05
9 *963:B1 *110:10 3.58055e-05
10 *97:6 *939:B 0.000175903
11 *97:6 *964:A 4.08664e-05
12 *97:6 *110:10 0.000220592
13 *97:19 *939:B 1.79903e-05
14 *97:19 *105:44 0.000166522
15 *97:19 *272:8 2.13808e-05
16 *97:19 *272:20 5.95012e-05
17 *97:19 *307:30 2.31731e-05
18 *97:27 *948:A2 0.000164373
19 *97:27 *104:8 9.5877e-05
20 *97:27 *104:14 2.69102e-05
21 *97:27 *105:6 1.94693e-05
22 *97:27 *105:16 0.000166522
23 *97:27 *105:23 1.94812e-05
24 *97:27 *105:44 4.38638e-05
25 *97:27 *132:17 9.77402e-06
26 *97:27 *309:43 0
*RES
1 *939:X *97:6 26.0036 
2 *97:6 *963:B1 23.6214 
3 *97:6 *97:19 32.9621 
4 *97:19 *97:27 36.3179 
5 *97:27 *952:B 23 
6 *97:19 *948:A1 23 
*END

*D_NET *98 0.00169168
*CONN
*I *947:A I *D sky130_fd_sc_hd__nand3_1
*I *946:A1 I *D sky130_fd_sc_hd__a21o_1
*I *940:Y O *D sky130_fd_sc_hd__nand3_1
*CAP
1 *947:A 0.000286103
2 *946:A1 0
3 *940:Y 0.000152069
4 *98:14 0.000372066
5 *98:10 0.000238032
6 *947:A *946:A2 0.000141954
7 *947:A *947:B 5.07485e-05
8 *947:A *947:C 8.34394e-05
9 *947:A *103:14 0
10 *947:A *104:8 1.76557e-05
11 *947:A *105:6 1.32314e-05
12 *98:10 *212:14 0
13 *98:10 *280:23 0.000185755
14 *98:14 *946:A2 5.50106e-05
15 *98:14 *103:14 1.21972e-05
16 *940:B *98:10 8.48502e-06
17 *940:C *98:10 6.17437e-06
18 *87:23 *98:10 6.87573e-05
*RES
1 *940:Y *98:10 41.2314 
2 *98:10 *98:14 16.0979 
3 *98:14 *946:A1 23 
4 *98:14 *947:A 28.0957 
*END

*D_NET *99 0.0011073
*CONN
*I *947:C I *D sky130_fd_sc_hd__nand3_1
*I *946:A2 I *D sky130_fd_sc_hd__a21o_1
*I *941:X O *D sky130_fd_sc_hd__a21o_1
*CAP
1 *947:C 3.0106e-05
2 *946:A2 6.64329e-05
3 *941:X 0.00013476
4 *99:12 9.65389e-05
5 *99:10 0.00013476
6 *946:A2 *947:B 5.50049e-05
7 *946:A2 *103:14 7.53613e-05
8 *947:C *947:B 9.5877e-05
9 *99:10 *265:85 0.000108681
10 *947:A *946:A2 0.000141954
11 *947:A *947:C 8.34394e-05
12 *85:6 *99:10 2.93747e-05
13 *98:14 *946:A2 5.50106e-05
*RES
1 *941:X *99:10 40.175 
2 *99:10 *99:12 15 
3 *99:12 *946:A2 25.5479 
4 *99:12 *947:C 24.0979 
*END

*D_NET *100 0.00190556
*CONN
*I *955:B1 I *D sky130_fd_sc_hd__a21o_1
*I *945:A1 I *D sky130_fd_sc_hd__a21bo_1
*I *954:B I *D sky130_fd_sc_hd__nand3_1
*I *942:X O *D sky130_fd_sc_hd__and2_1
*CAP
1 *955:B1 0.000156505
2 *945:A1 0
3 *954:B 6.32811e-05
4 *942:X 0
5 *100:21 0.000156077
6 *100:13 0.00033759
7 *100:4 8.82881e-05
8 *954:B *955:A1 5.3304e-05
9 *954:B *112:10 8.06804e-06
10 *954:B *296:59 6.17437e-06
11 *955:B1 *942:A 9.46894e-05
12 *955:B1 *955:A1 0.00025758
13 *955:B1 *101:46 5.56279e-05
14 *955:B1 *296:49 1.74129e-05
15 *955:B1 *296:59 2.64616e-05
16 *100:13 *955:A1 4.08664e-05
17 *100:13 *296:59 2.64616e-05
18 *100:21 *101:22 9.41704e-05
19 *100:21 *101:29 4.08664e-05
20 *100:21 *115:18 6.70361e-05
21 *100:21 *212:12 0.000157147
22 *100:21 *296:59 0.000157955
*RES
1 *942:X *100:4 23 
2 *100:4 *954:B 24.0979 
3 *100:4 *100:13 0.621429 
4 *100:13 *100:21 33.8321 
5 *100:21 *945:A1 23 
6 *100:13 *955:B1 27.4536 
*END

*D_NET *101 0.00258537
*CONN
*I *955:A2 I *D sky130_fd_sc_hd__a21o_1
*I *945:A2 I *D sky130_fd_sc_hd__a21bo_1
*I *954:C I *D sky130_fd_sc_hd__nand3_1
*I *943:X O *D sky130_fd_sc_hd__a22o_1
*CAP
1 *955:A2 0
2 *945:A2 2.30556e-05
3 *954:C 0
4 *943:X 0.000168034
5 *101:46 0.000196004
6 *101:29 0.00026698
7 *101:22 0.000263281
8 *101:12 0.000311201
9 *101:10 0.000168034
10 *101:10 *102:16 0.000186054
11 *101:10 *116:8 9.65021e-05
12 *101:10 *212:12 0.000188712
13 *101:22 *954:A 1.63351e-05
14 *101:22 *102:20 0.000122599
15 *101:22 *102:26 7.80163e-05
16 *101:22 *115:18 7.45391e-05
17 *101:29 *102:20 5.3304e-05
18 *101:29 *115:18 1.46286e-05
19 *101:46 *942:A 5.56279e-05
20 *101:46 *102:16 6.8582e-06
21 *101:46 *115:18 3.29584e-05
22 *101:46 *280:23 7.19778e-05
23 *955:B1 *101:46 5.56279e-05
24 *100:21 *101:22 9.41704e-05
25 *100:21 *101:29 4.08664e-05
*RES
1 *943:X *101:10 41.7079 
2 *101:10 *101:12 15 
3 *101:12 *101:22 35.8829 
4 *101:22 *954:C 23 
5 *101:12 *101:29 1.09786 
6 *101:29 *945:A2 23.4971 
7 *101:29 *101:46 33.9771 
8 *101:46 *955:A2 23 
*END

*D_NET *102 0.00442106
*CONN
*I *945:B1_N I *D sky130_fd_sc_hd__a21bo_1
*I *954:A I *D sky130_fd_sc_hd__nand3_1
*I *955:A1 I *D sky130_fd_sc_hd__a21o_1
*I *944:Y O *D sky130_fd_sc_hd__nand4_2
*CAP
1 *945:B1_N 0
2 *954:A 2.2662e-05
3 *955:A1 0.000296555
4 *944:Y 0.00036404
5 *102:26 0.000416996
6 *102:20 0.000258762
7 *102:16 0.000443696
8 *102:8 0.000646754
9 *954:A *296:59 6.07397e-05
10 *102:8 *848:A 0
11 *102:8 *115:8 0
12 *102:8 *267:91 0
13 *102:8 *296:59 0.000578559
14 *102:8 *296:71 9.35152e-05
15 *102:16 *943:A2 9.41704e-05
16 *102:16 *103:8 3.40698e-05
17 *102:16 *116:8 0.000179473
18 *102:16 *212:12 3.32272e-05
19 *102:26 *296:59 8.29264e-05
20 *954:B *955:A1 5.3304e-05
21 *955:B1 *955:A1 0.00025758
22 *100:13 *955:A1 4.08664e-05
23 *101:10 *102:16 0.000186054
24 *101:22 *954:A 1.63351e-05
25 *101:22 *102:20 0.000122599
26 *101:22 *102:26 7.80163e-05
27 *101:29 *102:20 5.3304e-05
28 *101:46 *102:16 6.8582e-06
*RES
1 *944:Y *102:8 46.9486 
2 *102:8 *102:16 35.7171 
3 *102:16 *102:20 17.0507 
4 *102:20 *102:26 16.8229 
5 *102:26 *955:A1 41.9564 
6 *102:26 *954:A 38.8493 
7 *102:20 *945:B1_N 23 
*END

*D_NET *103 0.00122171
*CONN
*I *947:B I *D sky130_fd_sc_hd__nand3_1
*I *946:B1 I *D sky130_fd_sc_hd__a21o_1
*I *945:X O *D sky130_fd_sc_hd__a21bo_1
*CAP
1 *947:B 9.01444e-05
2 *946:B1 0
3 *945:X 8.36519e-05
4 *103:14 0.000181761
5 *103:8 0.000175268
6 *947:B *104:8 7.44354e-05
7 *103:8 *280:23 6.68793e-05
8 *103:14 *116:8 0.000226306
9 *946:A2 *947:B 5.50049e-05
10 *946:A2 *103:14 7.53613e-05
11 *947:A *947:B 5.07485e-05
12 *947:A *103:14 0
13 *947:C *947:B 9.5877e-05
14 *98:14 *103:14 1.21972e-05
15 *102:16 *103:8 3.40698e-05
*RES
1 *945:X *103:8 39.9057 
2 *103:8 *103:14 18.0243 
3 *103:14 *946:B1 23 
4 *103:14 *947:B 25.5271 
*END

*D_NET *104 0.00264405
*CONN
*I *952:C I *D sky130_fd_sc_hd__nand3_1
*I *948:A2 I *D sky130_fd_sc_hd__a21bo_1
*I *963:A2 I *D sky130_fd_sc_hd__a21o_1
*I *946:X O *D sky130_fd_sc_hd__a21o_1
*CAP
1 *952:C 0
2 *948:A2 0.000189912
3 *963:A2 0
4 *946:X 0
5 *104:36 0.000247339
6 *104:14 8.16048e-05
7 *104:8 0.000552895
8 *104:4 0.000528717
9 *948:A2 *121:14 2.34437e-05
10 *104:8 *105:6 4.91297e-05
11 *104:14 *105:16 0.000141888
12 *104:14 *132:17 0.000193305
13 *104:36 *265:85 0.000171796
14 *104:36 *309:43 8.47667e-05
15 *947:A *104:8 1.76557e-05
16 *947:B *104:8 7.44354e-05
17 *97:27 *948:A2 0.000164373
18 *97:27 *104:8 9.5877e-05
19 *97:27 *104:14 2.69102e-05
*RES
1 *946:X *104:4 23 
2 *104:4 *104:8 5.40643 
3 *104:8 *104:14 32.5582 
4 *104:14 *963:A2 23 
5 *104:8 *948:A2 26.3764 
6 *104:4 *104:36 35.2614 
7 *104:36 *952:C 23 
*END

*D_NET *105 0.00232239
*CONN
*I *963:A1 I *D sky130_fd_sc_hd__a21o_1
*I *948:B1_N I *D sky130_fd_sc_hd__a21bo_1
*I *952:A I *D sky130_fd_sc_hd__nand3_1
*I *947:Y O *D sky130_fd_sc_hd__nand3_1
*CAP
1 *963:A1 0
2 *948:B1_N 0
3 *952:A 0
4 *947:Y 0.000162237
5 *105:44 0.000309582
6 *105:23 0.000346175
7 *105:16 0.000151145
8 *105:6 0.000349975
9 *105:16 *110:10 7.09451e-06
10 *105:16 *132:17 5.20202e-05
11 *105:16 *309:43 0
12 *105:44 *110:10 3.68571e-05
13 *105:44 *272:20 2.72055e-05
14 *105:44 *307:30 0.000246757
15 *947:A *105:6 1.32314e-05
16 *963:B1 *105:44 1.32314e-05
17 *97:19 *105:44 0.000166522
18 *97:27 *105:6 1.94693e-05
19 *97:27 *105:16 0.000166522
20 *97:27 *105:23 1.94812e-05
21 *97:27 *105:44 4.38638e-05
22 *104:8 *105:6 4.91297e-05
23 *104:14 *105:16 0.000141888
*RES
1 *947:Y *105:6 25.5271 
2 *105:6 *105:16 34.2671 
3 *105:16 *952:A 23 
4 *105:6 *105:23 0.621429 
5 *105:23 *948:B1_N 23 
6 *105:23 *105:44 37.1257 
7 *105:44 *963:A1 23 
*END

*D_NET *106 0.00144235
*CONN
*I *951:B1 I *D sky130_fd_sc_hd__a21oi_1
*I *950:B I *D sky130_fd_sc_hd__and3_2
*I *948:X O *D sky130_fd_sc_hd__a21bo_1
*CAP
1 *951:B1 6.58828e-05
2 *950:B 0.00020612
3 *948:X 6.07517e-05
4 *106:8 0.000332754
5 *950:B *109:6 0.000223698
6 *950:B *272:20 0.000117244
7 *951:B1 *950:C 8.17328e-05
8 *951:B1 *951:A2 5.50049e-05
9 *951:B1 *109:6 4.38638e-05
10 *106:8 *264:24 2.93666e-05
11 *106:8 *272:20 0.000100778
12 *96:20 *950:B 0.000115013
13 *96:20 *106:8 1.01436e-05
*RES
1 *948:X *106:8 39.5536 
2 *106:8 *950:B 42.0807 
3 *106:8 *951:B1 39.5743 
*END

*D_NET *107 0.00174193
*CONN
*I *950:C I *D sky130_fd_sc_hd__and3_2
*I *951:A2 I *D sky130_fd_sc_hd__a21oi_1
*I *949:X O *D sky130_fd_sc_hd__a21o_1
*CAP
1 *950:C 0.000252894
2 *951:A2 0.000186367
3 *949:X 8.67537e-05
4 *107:10 0.00043926
5 *107:8 8.67537e-05
6 *950:C *109:6 3.03941e-05
7 *951:A2 *927:B 1.14154e-05
8 *951:A2 *307:30 1.21972e-05
9 *107:8 *272:20 0.000218952
10 *107:8 *307:30 1.4471e-05
11 *950:A *950:C 9.67842e-05
12 *951:A1 *951:A2 7.52623e-05
13 *951:A1 *107:8 8.76088e-05
14 *951:B1 *950:C 8.17328e-05
15 *951:B1 *951:A2 5.50049e-05
16 *96:10 *107:8 6.07611e-06
*RES
1 *949:X *107:8 40.9621 
2 *107:8 *107:10 15 
3 *107:10 *951:A2 25.9 
4 *107:10 *950:C 26.48 
*END

*D_NET *108 0.00209796
*CONN
*I *966:A1 I *D sky130_fd_sc_hd__o21ba_1
*I *970:A I *D sky130_fd_sc_hd__xor2_2
*I *965:A I *D sky130_fd_sc_hd__nor3b_1
*I *1000:A1 I *D sky130_fd_sc_hd__o21a_1
*I *950:X O *D sky130_fd_sc_hd__and3_2
*CAP
1 *966:A1 0
2 *970:A 7.28571e-05
3 *965:A 0
4 *1000:A1 0
5 *950:X 2.36558e-05
6 *108:33 0.000229931
7 *108:25 0.000435817
8 *108:18 0.00013748
9 *108:10 0.00034319
10 *108:6 9.63357e-05
11 *970:A *124:6 5.12328e-05
12 *108:6 *966:A2 5.79559e-05
13 *108:10 *966:A2 0.000100678
14 *108:18 *123:12 0.000114083
15 *108:18 *245:138 0
16 *108:18 *264:24 0
17 *108:25 *966:A2 1.32314e-05
18 *108:25 *966:B1_N 0.000102389
19 *108:25 *124:6 1.83327e-05
20 *108:33 *965:C_N 5.79559e-05
21 *108:33 *967:A 0.000188927
22 *108:33 *123:12 0
23 *108:33 *245:138 5.39108e-05
*RES
1 *950:X *108:6 23.6214 
2 *108:6 *108:10 1.595 
3 *108:10 *108:18 32.755 
4 *108:18 *1000:A1 23 
5 *108:10 *108:25 3.00357 
6 *108:25 *108:33 35.0129 
7 *108:33 *965:A 23 
8 *108:25 *970:A 24.5743 
9 *108:6 *966:A1 23 
*END

*D_NET *109 0.00246333
*CONN
*I *966:A2 I *D sky130_fd_sc_hd__o21ba_1
*I *965:B I *D sky130_fd_sc_hd__nor3b_1
*I *951:Y O *D sky130_fd_sc_hd__a21oi_1
*CAP
1 *966:A2 0.000167179
2 *965:B 0
3 *951:Y 0.000247144
4 *109:18 0.000357831
5 *109:6 0.000772154
6 *966:A2 *966:B1_N 2.02517e-05
7 *109:18 *965:C_N 2.3853e-05
8 *109:18 *967:A 7.22251e-05
9 *109:18 *990:B1 0.000149866
10 *109:18 *123:12 5.03649e-05
11 *109:18 *148:10 9.90628e-05
12 *109:18 *264:24 0
13 *950:A *109:6 3.3577e-05
14 *950:B *109:6 0.000223698
15 *950:C *109:6 3.03941e-05
16 *951:B1 *109:6 4.38638e-05
17 *108:6 *966:A2 5.79559e-05
18 *108:10 *966:A2 0.000100678
19 *108:25 *966:A2 1.32314e-05
*RES
1 *951:Y *109:6 27.9093 
2 *109:6 *109:18 36.8357 
3 *109:18 *965:B 23 
4 *109:6 *966:A2 26.8943 
*END

*D_NET *110 0.00237538
*CONN
*I *964:A I *D sky130_fd_sc_hd__and3_1
*I *990:A1 I *D sky130_fd_sc_hd__a21oi_1
*I *952:Y O *D sky130_fd_sc_hd__nand3_1
*CAP
1 *964:A 6.28514e-05
2 *990:A1 0
3 *952:Y 0.000322553
4 *110:18 0.000114246
5 *110:10 0.000499651
6 *964:A *939:B 4.79641e-05
7 *964:A *964:C 0.000274736
8 *964:A *264:14 3.22051e-05
9 *964:A *264:20 2.75811e-05
10 *110:10 *964:C 4.08664e-05
11 *110:10 *121:6 0.000135037
12 *110:18 *953:A 7.46288e-05
13 *110:18 *121:14 0.000285528
14 *110:18 *264:24 0.000116314
15 *963:B1 *110:10 3.58055e-05
16 *97:6 *964:A 4.08664e-05
17 *97:6 *110:10 0.000220592
18 *105:16 *110:10 7.09451e-06
19 *105:44 *110:10 3.68571e-05
*RES
1 *952:Y *110:10 28.5514 
2 *110:10 *110:18 33.8114 
3 *110:18 *990:A1 23 
4 *110:10 *964:A 26.0036 
*END

*D_NET *111 0.0020149
*CONN
*I *962:A1 I *D sky130_fd_sc_hd__a21bo_1
*I *971:B I *D sky130_fd_sc_hd__nand3_1
*I *978:B1 I *D sky130_fd_sc_hd__a21o_1
*I *953:X O *D sky130_fd_sc_hd__and2_1
*CAP
1 *962:A1 5.29882e-05
2 *971:B 0
3 *978:B1 0
4 *953:X 8.00042e-05
5 *111:27 0.000135786
6 *111:17 0.000293718
7 *111:10 0.000104944
8 *111:8 8.00042e-05
9 *962:A1 *962:A2 9.65021e-05
10 *962:A1 *285:20 0.000137368
11 *111:8 *272:8 0.000159997
12 *111:8 *309:14 0.000157004
13 *111:17 *962:B1_N 5.3304e-05
14 *111:17 *119:19 0.000135037
15 *111:17 *285:20 0.00021677
16 *111:27 *962:A2 2.05503e-05
17 *111:27 *971:C 0.00011088
18 *111:27 *119:27 1.9054e-05
19 *111:27 *134:8 2.95526e-05
20 *111:27 *307:20 0.000131431
*RES
1 *953:X *111:8 40.2579 
2 *111:8 *111:10 15 
3 *111:10 *978:B1 23 
4 *111:10 *111:17 2.52714 
5 *111:17 *111:27 33.0243 
6 *111:27 *971:B 23 
7 *111:17 *962:A1 24.5743 
*END

*D_NET *112 0.00100783
*CONN
*I *961:A I *D sky130_fd_sc_hd__nand3_1
*I *960:A1 I *D sky130_fd_sc_hd__a21o_1
*I *954:Y O *D sky130_fd_sc_hd__nand3_1
*CAP
1 *961:A 7.00551e-06
2 *960:A1 0.00019697
3 *954:Y 0.000122421
4 *112:14 0.000259694
5 *112:10 0.000178138
6 *960:A1 *961:B 0.000191669
7 *112:10 *212:12 3.76854e-05
8 *112:10 *296:59 6.17437e-06
9 *954:B *112:10 8.06804e-06
*RES
1 *954:Y *112:10 39.8229 
2 *112:10 *112:14 16.2014 
3 *112:14 *960:A1 26.3764 
4 *112:14 *961:A 23.1554 
*END

*D_NET *113 0.00129061
*CONN
*I *960:A2 I *D sky130_fd_sc_hd__a21o_1
*I *961:C I *D sky130_fd_sc_hd__nand3_1
*I *955:X O *D sky130_fd_sc_hd__a21o_1
*CAP
1 *960:A2 0
2 *961:C 8.95518e-06
3 *955:X 7.53886e-05
4 *113:14 0.000131355
5 *113:8 0.000197789
6 *961:C *961:B 5.79559e-05
7 *961:C *119:8 2.46906e-05
8 *113:8 *115:18 0.000131416
9 *113:8 *116:10 0.000131416
10 *113:14 *961:B 6.99077e-05
11 *113:14 *117:12 5.5792e-05
12 *113:14 *118:12 9.41704e-05
13 *113:14 *119:8 0.000311776
*RES
1 *955:X *113:8 39.9057 
2 *113:8 *113:14 18.9771 
3 *113:14 *961:C 23.6214 
4 *113:14 *960:A2 23 
*END

*D_NET *114 0.00150869
*CONN
*I *972:B I *D sky130_fd_sc_hd__nand3_1
*I *973:B1 I *D sky130_fd_sc_hd__a21o_1
*I *959:A1 I *D sky130_fd_sc_hd__a21bo_1
*I *956:X O *D sky130_fd_sc_hd__and2_1
*CAP
1 *972:B 0.000292096
2 *973:B1 5.94566e-05
3 *959:A1 0.000146546
4 *956:X 0.000131622
5 *114:10 0.000206003
6 *114:8 0.000423719
7 *959:A1 *973:A1 9.8592e-06
8 *959:A1 *973:A2 0.000233211
9 *959:A1 *975:A2 0
10 *972:B *972:A 0
11 *972:B *972:C 0
12 *973:B1 *973:A1 6.17437e-06
*RES
1 *956:X *114:8 39.9057 
2 *114:8 *114:10 15 
3 *114:10 *959:A1 26.5007 
4 *114:10 *973:B1 24.0979 
5 *114:8 *972:B 42.0807 
*END

*D_NET *115 0.00478831
*CONN
*I *972:C I *D sky130_fd_sc_hd__nand3_1
*I *973:A2 I *D sky130_fd_sc_hd__a21o_1
*I *959:A2 I *D sky130_fd_sc_hd__a21bo_1
*I *957:X O *D sky130_fd_sc_hd__a22o_1
*CAP
1 *972:C 0.000180932
2 *973:A2 9.45042e-05
3 *959:A2 0
4 *957:X 0.000240089
5 *115:20 9.45042e-05
6 *115:18 0.000948108
7 *115:8 0.00100727
8 *972:C *972:A 0.000192247
9 *972:C *280:23 0.000239717
10 *972:C *309:10 2.83509e-05
11 *973:A2 *973:A1 3.26241e-05
12 *973:A2 *116:14 7.95762e-05
13 *115:8 *266:10 4.23817e-05
14 *115:8 *266:12 4.66036e-05
15 *115:8 *274:41 8.85189e-05
16 *115:8 *296:59 0
17 *115:18 *972:A 2.56281e-05
18 *115:18 *116:10 0.000229125
19 *115:18 *280:23 0.000658174
20 int4_out[2] *972:C 6.17437e-06
21 *959:A1 *973:A2 0.000233211
22 *972:B *972:C 0
23 *100:21 *115:18 6.70361e-05
24 *101:22 *115:18 7.45391e-05
25 *101:29 *115:18 1.46286e-05
26 *101:46 *115:18 3.29584e-05
27 *102:8 *115:8 0
28 *113:8 *115:18 0.000131416
*RES
1 *957:X *115:8 42.0186 
2 *115:8 *115:18 47.2136 
3 *115:18 *115:20 15 
4 *115:20 *959:A2 23 
5 *115:20 *973:A2 26.0036 
6 *115:18 *972:C 43.365 
*END

*D_NET *116 0.00521669
*CONN
*I *972:A I *D sky130_fd_sc_hd__nand3_1
*I *973:A1 I *D sky130_fd_sc_hd__a21o_1
*I *959:B1_N I *D sky130_fd_sc_hd__a21bo_1
*I *958:Y O *D sky130_fd_sc_hd__nand4_2
*CAP
1 *972:A 0.000282408
2 *973:A1 6.86332e-05
3 *959:B1_N 0
4 *958:Y 0.000588204
5 *116:14 0.000172984
6 *116:10 0.000718355
7 *116:8 0.0009198
8 *972:A *309:10 0.000150342
9 *116:8 *943:A1 0.000316755
10 *116:8 *943:A2 2.31591e-05
11 *116:8 *958:B 0.000140259
12 *116:10 *956:A 0.00020177
13 *116:10 *265:85 0.000384435
14 *116:10 *280:23 4.06512e-05
15 *959:A1 *973:A1 9.8592e-06
16 *972:B *972:A 0
17 *972:C *972:A 0.000192247
18 *973:A2 *973:A1 3.26241e-05
19 *973:A2 *116:14 7.95762e-05
20 *973:B1 *973:A1 6.17437e-06
21 *101:10 *116:8 9.65021e-05
22 *102:16 *116:8 0.000179473
23 *103:14 *116:8 0.000226306
24 *113:8 *116:10 0.000131416
25 *115:18 *972:A 2.56281e-05
26 *115:18 *116:10 0.000229125
*RES
1 *958:Y *116:8 49.5793 
2 *116:8 *116:10 10.005 
3 *116:10 *116:14 16.5743 
4 *116:14 *959:B1_N 23 
5 *116:14 *973:A1 24.0979 
6 *116:10 *972:A 44.8357 
*END

*D_NET *117 0.000961416
*CONN
*I *961:B I *D sky130_fd_sc_hd__nand3_1
*I *960:B1 I *D sky130_fd_sc_hd__a21o_1
*I *959:X O *D sky130_fd_sc_hd__a21bo_1
*CAP
1 *961:B 0.000102394
2 *960:B1 0
3 *959:X 8.64197e-05
4 *117:12 0.000128153
5 *117:8 0.000112178
6 *961:B *119:8 1.60613e-05
7 *117:8 *280:23 0.000140884
8 *960:A1 *961:B 0.000191669
9 *961:C *961:B 5.79559e-05
10 *113:14 *961:B 6.99077e-05
11 *113:14 *117:12 5.5792e-05
*RES
1 *959:X *117:8 39.9057 
2 *117:8 *117:12 15.6214 
3 *117:12 *960:B1 23 
4 *117:12 *961:B 26.5007 
*END

*D_NET *118 0.00347861
*CONN
*I *978:A2 I *D sky130_fd_sc_hd__a21o_1
*I *971:C I *D sky130_fd_sc_hd__nand3_1
*I *962:A2 I *D sky130_fd_sc_hd__a21bo_1
*I *960:X O *D sky130_fd_sc_hd__a21o_1
*CAP
1 *978:A2 0
2 *971:C 7.78292e-05
3 *962:A2 0.000106476
4 *960:X 0.000289423
5 *118:22 0.000460035
6 *118:12 0.000565153
7 *962:A2 *285:20 2.46906e-05
8 *962:A2 *296:43 4.30894e-05
9 *962:A2 *307:20 8.30566e-06
10 *971:C *296:43 0.000147801
11 *971:C *307:20 1.16455e-05
12 *118:12 *956:B 0.000218987
13 *118:12 *978:A1 1.24356e-05
14 *118:12 *119:8 0.000652155
15 *118:12 *285:20 9.53319e-05
16 *118:22 *132:17 1.20381e-05
17 *118:22 *296:43 0.000421254
18 *118:22 *309:14 9.85586e-06
19 *962:A1 *962:A2 9.65021e-05
20 *111:27 *962:A2 2.05503e-05
21 *111:27 *971:C 0.00011088
22 *113:14 *118:12 9.41704e-05
*RES
1 *960:X *118:12 32.86 
2 *118:12 *118:22 32.1499 
3 *118:22 *962:A2 40.2475 
4 *118:22 *971:C 40.0818 
5 *118:12 *978:A2 23 
*END

*D_NET *119 0.00389411
*CONN
*I *962:B1_N I *D sky130_fd_sc_hd__a21bo_1
*I *971:A I *D sky130_fd_sc_hd__nand3_1
*I *978:A1 I *D sky130_fd_sc_hd__a21o_1
*I *961:Y O *D sky130_fd_sc_hd__nand3_1
*CAP
1 *962:B1_N 2.48015e-05
2 *971:A 0
3 *978:A1 2.98771e-05
4 *961:Y 0.00042227
5 *119:27 0.000138375
6 *119:19 0.00028022
7 *119:8 0.000569191
8 *978:A1 *285:20 5.5792e-05
9 *119:8 *212:10 0.000749417
10 *119:8 *285:20 1.12268e-05
11 *119:8 *296:43 0.000106671
12 *119:19 *285:20 1.41129e-05
13 *119:27 *979:C 7.83041e-05
14 *119:27 *272:8 3.53698e-05
15 *119:27 *307:20 0.00015397
16 *961:B *119:8 1.60613e-05
17 *961:C *119:8 2.46906e-05
18 *111:17 *962:B1_N 5.3304e-05
19 *111:17 *119:19 0.000135037
20 *111:27 *119:27 1.9054e-05
21 *113:14 *119:8 0.000311776
22 *118:12 *978:A1 1.24356e-05
23 *118:12 *119:8 0.000652155
*RES
1 *961:Y *119:8 36.5057 
2 *119:8 *978:A1 24.1186 
3 *119:8 *119:19 2.05071 
4 *119:19 *119:27 33.1071 
5 *119:27 *971:A 23 
6 *119:19 *962:B1_N 23.6214 
*END

*D_NET *120 0.00178636
*CONN
*I *964:B I *D sky130_fd_sc_hd__and3_1
*I *990:B1 I *D sky130_fd_sc_hd__a21oi_1
*I *962:X O *D sky130_fd_sc_hd__a21bo_1
*CAP
1 *964:B 0
2 *990:B1 0.000248428
3 *962:X 0.000314583
4 *120:8 0.000563011
5 *990:B1 *966:B1_N 3.72639e-05
6 *990:B1 *967:A 1.32314e-05
7 *990:B1 *148:10 0.000135611
8 *990:B1 *264:24 0
9 *120:8 *953:A 0
10 *120:8 *148:10 0.00032437
11 *120:8 *264:24 0
12 *109:18 *990:B1 0.000149866
*RES
1 *962:X *120:8 43.7793 
2 *120:8 *990:B1 43.2614 
3 *120:8 *964:B 38 
*END

*D_NET *121 0.00209564
*CONN
*I *964:C I *D sky130_fd_sc_hd__and3_1
*I *990:A2 I *D sky130_fd_sc_hd__a21oi_1
*I *963:X O *D sky130_fd_sc_hd__a21o_1
*CAP
1 *964:C 0.000305253
2 *990:A2 0
3 *963:X 0.000122147
4 *121:14 0.000128373
5 *121:6 0.000555773
6 *964:C *264:14 3.15198e-05
7 *121:14 *953:A 1.07299e-05
8 *121:14 *272:8 0.000151635
9 *121:14 *272:20 3.05976e-05
10 *948:A2 *121:14 2.34437e-05
11 *964:A *964:C 0.000274736
12 *110:10 *964:C 4.08664e-05
13 *110:10 *121:6 0.000135037
14 *110:18 *121:14 0.000285528
*RES
1 *963:X *121:6 24.5743 
2 *121:6 *121:14 34.1636 
3 *121:14 *990:A2 23 
4 *121:6 *964:C 27.5157 
*END

*D_NET *122 0.00208435
*CONN
*I *991:A I *D sky130_fd_sc_hd__nor2_1
*I *965:C_N I *D sky130_fd_sc_hd__nor3b_1
*I *966:B1_N I *D sky130_fd_sc_hd__o21ba_1
*I *964:X O *D sky130_fd_sc_hd__and3_1
*CAP
1 *991:A 0.000117685
2 *965:C_N 8.50974e-05
3 *966:B1_N 0.000277203
4 *964:X 0
5 *122:8 0.000474783
6 *122:6 0.000230168
7 *965:C_N *967:A 1.56542e-05
8 *966:B1_N *123:12 4.334e-05
9 *966:B1_N *148:10 1.01436e-05
10 *991:A *980:A1 4.50657e-05
11 *991:A *980:B1 5.79559e-05
12 *991:A *991:B 0.000144501
13 *991:A *148:10 0.000129494
14 *122:8 *148:10 0.000211549
15 *966:A2 *966:B1_N 2.02517e-05
16 *990:B1 *966:B1_N 3.72639e-05
17 *108:25 *966:B1_N 0.000102389
18 *108:33 *965:C_N 5.79559e-05
19 *109:18 *965:C_N 2.3853e-05
*RES
1 *964:X *122:6 38 
2 *122:6 *122:8 2.96214 
3 *122:8 *966:B1_N 42.9093 
4 *122:8 *965:C_N 39.9471 
5 *122:6 *991:A 41.48 
*END

*D_NET *123 0.00269517
*CONN
*I *967:A I *D sky130_fd_sc_hd__nor2_1
*I *1000:A2 I *D sky130_fd_sc_hd__o21a_1
*I *1028:A_N I *D sky130_fd_sc_hd__and2b_1
*I *965:Y O *D sky130_fd_sc_hd__nor3b_1
*CAP
1 *967:A 0.00039575
2 *1000:A2 0
3 *1028:A_N 0.000169312
4 *965:Y 0
5 *123:12 0.000493649
6 *123:4 0.000720086
7 *967:A *124:27 3.91386e-05
8 *1028:A_N *1000:B1 0.000275875
9 *1028:A_N *158:10 0.000103532
10 *123:12 *245:138 0
11 *123:12 *264:24 0
12 *965:C_N *967:A 1.56542e-05
13 *966:B1_N *123:12 4.334e-05
14 *990:B1 *967:A 1.32314e-05
15 *108:18 *123:12 0.000114083
16 *108:33 *967:A 0.000188927
17 *108:33 *123:12 0
18 *109:18 *967:A 7.22251e-05
19 *109:18 *123:12 5.03649e-05
*RES
1 *965:Y *123:4 23 
2 *123:4 *123:12 35.1164 
3 *123:12 *1028:A_N 27.8057 
4 *123:12 *1000:A2 23 
5 *123:4 *967:A 29.8564 
*END

*D_NET *124 0.00192252
*CONN
*I *967:B I *D sky130_fd_sc_hd__nor2_1
*I *1031:A1 I *D sky130_fd_sc_hd__o21ba_1
*I *966:X O *D sky130_fd_sc_hd__o21ba_1
*CAP
1 *967:B 0
2 *1031:A1 0.00032073
3 *966:X 0.000285418
4 *124:27 0.000139406
5 *124:6 0.000745554
6 *1031:A1 *1031:A2 5.90675e-06
7 *1031:A1 *1032:A2 0
8 *1031:A1 *128:12 0.000100733
9 *1031:A1 *128:28 0.000116554
10 *124:27 *1024:A 0
11 *124:27 *125:8 1.32314e-05
12 *124:27 *141:48 8.62876e-05
13 *124:27 *158:10 0
14 *967:A *124:27 3.91386e-05
15 *970:A *124:6 5.12328e-05
16 *108:25 *124:6 1.83327e-05
*RES
1 *966:X *124:6 26.48 
2 *124:6 *1031:A1 28.9036 
3 *124:6 *124:27 32.6721 
4 *124:27 *967:B 23 
*END

*D_NET *125 0.00178683
*CONN
*I *1001:A1 I *D sky130_fd_sc_hd__a31o_1
*I *993:A I *D sky130_fd_sc_hd__and4_1
*I *1024:A I *D sky130_fd_sc_hd__inv_2
*I *967:Y O *D sky130_fd_sc_hd__nor2_1
*CAP
1 *1001:A1 0
2 *993:A 0
3 *1024:A 2.00578e-05
4 *967:Y 0.000103578
5 *125:25 0.000164886
6 *125:19 0.000261902
7 *125:8 0.000220652
8 *125:19 *1001:B1 0.000182832
9 *125:19 *1026:C1 0
10 *125:19 *157:14 6.26126e-05
11 *125:19 *157:23 0
12 *125:19 *159:10 1.21972e-05
13 *125:19 *182:8 9.45591e-05
14 *125:25 *1026:C1 2.24048e-05
15 *125:25 *128:34 0.000218962
16 *125:25 *144:20 2.70366e-05
17 *125:25 *159:10 0.000323822
18 *125:25 *183:10 5.80963e-05
19 *124:27 *1024:A 0
20 *124:27 *125:8 1.32314e-05
*RES
1 *967:Y *125:8 25.0714 
2 *125:8 *1024:A 23.4971 
3 *125:8 *125:19 3.50071 
4 *125:19 *125:25 35.075 
5 *125:25 *993:A 23 
6 *125:19 *1001:A1 23 
*END

*D_NET *126 0.000173859
*CONN
*I *969:B I *D sky130_fd_sc_hd__nor2_1
*I *968:Y O *D sky130_fd_sc_hd__a21oi_1
*CAP
1 *969:B 5.31712e-05
2 *968:Y 5.31712e-05
3 *969:B *924:A 0
4 *969:B *127:8 7.53384e-06
5 *968:B1 *969:B 3.48643e-05
6 *93:18 *969:B 2.51184e-05
*RES
1 *968:Y *969:B 47.6157 
*END

*D_NET *127 0.00509231
*CONN
*I *970:B I *D sky130_fd_sc_hd__xor2_2
*I *1000:B1 I *D sky130_fd_sc_hd__o21a_1
*I *969:Y O *D sky130_fd_sc_hd__nor2_1
*CAP
1 *970:B 7.8265e-05
2 *1000:B1 0.000163936
3 *969:Y 0.000377193
4 *127:10 0.000949278
5 *127:8 0.00108427
6 *970:B *141:48 0.000249909
7 *970:B *245:138 0.000233453
8 *1000:B1 *158:10 1.21972e-05
9 *127:10 *997:C 7.35277e-05
10 *127:10 *1037:A 0.000288776
11 *127:10 *141:12 0.000300097
12 *127:10 *141:26 1.83e-05
13 *127:10 *141:48 0.000129504
14 *127:10 *154:22 0.000120706
15 *127:10 *160:8 0
16 *127:10 *162:10 2.29192e-05
17 *127:10 *173:10 0
18 *127:10 *178:10 4.85491e-05
19 *127:10 *197:8 4.11274e-05
20 *127:10 *245:72 0.000178288
21 *127:10 *245:138 0.000274682
22 *969:B *127:8 7.53384e-06
23 *1028:A_N *1000:B1 0.000275875
24 *93:18 *127:8 1.54983e-05
25 *93:25 *127:8 0.000148428
*RES
1 *969:Y *127:8 43.3857 
2 *127:8 *127:10 15.9914 
3 *127:10 *1000:B1 41.48 
4 *127:10 *970:B 18.3143 
*END

*D_NET *128 0.00280486
*CONN
*I *1031:A2 I *D sky130_fd_sc_hd__o21ba_1
*I *1001:A2 I *D sky130_fd_sc_hd__a31o_1
*I *1028:B I *D sky130_fd_sc_hd__and2b_1
*I *993:B I *D sky130_fd_sc_hd__and4_1
*I *970:X O *D sky130_fd_sc_hd__xor2_2
*CAP
1 *1031:A2 6.19929e-05
2 *1001:A2 0
3 *1028:B 0
4 *993:B 0.000240092
5 *970:X 0
6 *128:34 8.08356e-05
7 *128:28 0.000314071
8 *128:12 0.000447234
9 *128:4 0.000378385
10 *993:B *151:10 9.67842e-05
11 *993:B *158:10 1.76557e-05
12 *993:B *186:6 0.000441065
13 *1031:A2 *1030:A2 6.17437e-06
14 *1031:A2 *1030:B1 0
15 *128:12 *141:48 8.41012e-05
16 *128:12 *144:20 0
17 *128:12 *158:10 0
18 *128:34 *1026:C1 0.000194318
19 *128:34 *150:8 0
20 *1031:A1 *1031:A2 5.90675e-06
21 *1031:A1 *128:12 0.000100733
22 *1031:A1 *128:28 0.000116554
23 *125:25 *128:34 0.000218962
*RES
1 *970:X *128:4 23 
2 *128:4 *128:12 34.3086 
3 *128:12 *993:B 29.235 
4 *128:12 *1028:B 23 
5 *128:4 *128:28 3.00357 
6 *128:28 *128:34 32.9621 
7 *128:34 *1001:A2 23 
8 *128:28 *1031:A2 24.1186 
*END

*D_NET *129 0.00380852
*CONN
*I *979:A I *D sky130_fd_sc_hd__and3_1
*I *980:A1 I *D sky130_fd_sc_hd__a21oi_1
*I *971:Y O *D sky130_fd_sc_hd__nand3_1
*CAP
1 *979:A 2.32701e-05
2 *980:A1 0.000394395
3 *971:Y 0.000310894
4 *129:10 0.000728559
5 *979:A *979:C 5.3304e-05
6 *979:A *285:18 5.3304e-05
7 *980:A1 *980:B1 0.000391092
8 *980:A1 *988:B1 1.92324e-05
9 *980:A1 *135:10 8.65972e-05
10 *980:A1 *138:6 1.09834e-05
11 *980:A1 *245:138 0.000266399
12 *129:10 *977:A1 0.000318912
13 *129:10 *984:A 1.22546e-05
14 *129:10 *133:14 0.000456439
15 *129:10 *134:8 0.00032289
16 *129:10 *135:10 9.8037e-05
17 *129:10 *143:8 2.07944e-05
18 *129:10 *245:138 0.000187612
19 *129:10 *296:43 8.48502e-06
20 *991:A *980:A1 4.50657e-05
*RES
1 *971:Y *129:10 48.2536 
2 *129:10 *980:A1 45.9957 
3 *129:10 *979:A 38.6214 
*END

*D_NET *130 0.00143463
*CONN
*I *975:A1 I *D sky130_fd_sc_hd__a21o_1
*I *976:A I *D sky130_fd_sc_hd__and3_1
*I *972:Y O *D sky130_fd_sc_hd__nand3_1
*CAP
1 *975:A1 0
2 *976:A 0.000141528
3 *972:Y 0.000344596
4 *130:12 0.000141528
5 *130:10 0.000344596
6 *976:A *975:A2 1.12796e-05
7 *976:A *976:B 2.09577e-05
8 *976:A *976:C 0.000145171
9 *130:10 *132:17 5.75756e-06
10 *130:10 *309:10 0.000279219
*RES
1 *972:Y *130:10 43.2614 
2 *130:10 *130:12 15 
3 *130:12 *976:A 26.0243 
4 *130:12 *975:A1 23 
*END

*D_NET *131 0.000941584
*CONN
*I *976:B I *D sky130_fd_sc_hd__and3_1
*I *975:A2 I *D sky130_fd_sc_hd__a21o_1
*I *973:X O *D sky130_fd_sc_hd__a21o_1
*CAP
1 *976:B 0.00027016
2 *975:A2 5.13922e-05
3 *973:X 4.63418e-05
4 *131:6 0.000367894
5 *976:B *976:C 2.97185e-05
6 *976:B *133:14 0.00014384
7 *959:A1 *975:A2 0
8 *976:A *975:A2 1.12796e-05
9 *976:A *976:B 2.09577e-05
*RES
1 *973:X *131:6 23.6214 
2 *131:6 *975:A2 24.2014 
3 *131:6 *976:B 26.9564 
*END

*D_NET *132 0.00463275
*CONN
*I *976:C I *D sky130_fd_sc_hd__and3_1
*I *975:B1 I *D sky130_fd_sc_hd__a21o_1
*I *981:A I *D sky130_fd_sc_hd__inv_2
*I *974:X O *D sky130_fd_sc_hd__and4_1
*CAP
1 *976:C 0.000117428
2 *975:B1 0
3 *981:A 0.00023122
4 *974:X 0
5 *132:19 0.000117428
6 *132:17 0.000929339
7 *132:4 0.00116056
8 *976:C *133:14 7.21403e-05
9 *981:A *213:37 7.48505e-05
10 *981:A *213:54 9.5148e-05
11 *981:A *263:18 0
12 *132:17 *307:30 0.000609468
13 *132:17 *307:42 0.000221692
14 *132:17 *309:14 0
15 *132:17 *309:43 0
16 *949:B1 *132:17 0.00020617
17 *951:A1 *132:17 5.96687e-05
18 *976:A *976:C 0.000145171
19 *976:B *976:C 2.97185e-05
20 *82:8 *132:17 0.000136905
21 *89:25 *132:17 0.000108681
22 *96:10 *132:17 4.42688e-05
23 *97:27 *132:17 9.77402e-06
24 *104:14 *132:17 0.000193305
25 *105:16 *132:17 5.20202e-05
26 *118:22 *132:17 1.20381e-05
27 *130:10 *132:17 5.75756e-06
*RES
1 *974:X *132:4 23 
2 *132:4 *981:A 27.6814 
3 *132:4 *132:17 36.6257 
4 *132:17 *132:19 15 
5 *132:19 *975:B1 23 
6 *132:19 *976:C 26.2521 
*END

*D_NET *133 0.00294987
*CONN
*I *977:A3 I *D sky130_fd_sc_hd__a31o_1
*I *985:B I *D sky130_fd_sc_hd__and2b_1
*I *975:X O *D sky130_fd_sc_hd__a21o_1
*CAP
1 *977:A3 0
2 *985:B 0.000366751
3 *975:X 0.00059777
4 *133:14 0.00096452
5 *985:B *134:16 0.000183387
6 *985:B *143:8 6.87115e-06
7 *985:B *285:18 5.68958e-05
8 *985:B *285:20 9.78729e-06
9 *133:14 *134:8 8.15997e-05
10 *133:14 *134:16 6.5117e-06
11 *133:14 *143:8 3.36312e-06
12 *976:B *133:14 0.00014384
13 *976:C *133:14 7.21403e-05
14 *129:10 *133:14 0.000456439
*RES
1 *975:X *133:14 48.5643 
2 *133:14 *985:B 44.1314 
3 *133:14 *977:A3 38 
*END

*D_NET *134 0.00151374
*CONN
*I *977:B1 I *D sky130_fd_sc_hd__a31o_1
*I *985:A_N I *D sky130_fd_sc_hd__and2b_1
*I *976:X O *D sky130_fd_sc_hd__and3_1
*CAP
1 *977:B1 0
2 *985:A_N 0
3 *976:X 0.0001756
4 *134:16 0.000179869
5 *134:8 0.000355469
6 *134:8 *296:43 0.000125555
7 *134:16 *285:20 5.3304e-05
8 *134:16 *296:43 0
9 *985:B *134:16 0.000183387
10 *111:27 *134:8 2.95526e-05
11 *129:10 *134:8 0.00032289
12 *133:14 *134:8 8.15997e-05
13 *133:14 *134:16 6.5117e-06
*RES
1 *976:X *134:8 28.4064 
2 *134:8 *134:16 33.5836 
3 *134:16 *985:A_N 23 
4 *134:8 *977:B1 23 
*END

*D_NET *135 0.00193012
*CONN
*I *979:B I *D sky130_fd_sc_hd__and3_1
*I *980:B1 I *D sky130_fd_sc_hd__a21oi_1
*I *977:X O *D sky130_fd_sc_hd__a31o_1
*CAP
1 *979:B 0.00010037
2 *980:B1 0.000158109
3 *977:X 0.000169321
4 *135:10 0.000427799
5 *979:B *137:8 5.55743e-06
6 *979:B *285:18 4.67488e-05
7 *980:B1 *991:B 8.79008e-05
8 *980:B1 *138:6 1.60618e-05
9 *980:B1 *143:8 1.12863e-05
10 *135:10 *143:8 0.000177029
11 *135:10 *296:29 9.62519e-05
12 *980:A1 *980:B1 0.000391092
13 *980:A1 *135:10 8.65972e-05
14 *991:A *980:B1 5.79559e-05
15 *129:10 *135:10 9.8037e-05
*RES
1 *977:X *135:10 41.7079 
2 *135:10 *980:B1 43.1579 
3 *135:10 *979:B 39.595 
*END

*D_NET *136 0.00342932
*CONN
*I *979:C I *D sky130_fd_sc_hd__and3_1
*I *980:A2 I *D sky130_fd_sc_hd__a21oi_1
*I *978:X O *D sky130_fd_sc_hd__a21o_1
*CAP
1 *979:C 0.00075674
2 *980:A2 0.000381695
3 *978:X 0
4 *136:6 0.00113843
5 *979:C *272:8 0.000120805
6 *979:C *285:18 0.000143661
7 *979:C *285:20 0.000519686
8 *979:C *307:20 1.61321e-05
9 *980:A2 *991:B 2.37172e-05
10 *980:A2 *272:8 8.78864e-05
11 *980:A2 *307:20 0.00010134
12 *980:A2 *307:30 7.61229e-06
13 *979:A *979:C 5.3304e-05
14 *119:27 *979:C 7.83041e-05
*RES
1 *978:X *136:6 38 
2 *136:6 *980:A2 45.6021 
3 *136:6 *979:C 49.1857 
*END

*D_NET *137 0.00277032
*CONN
*I *999:A1 I *D sky130_fd_sc_hd__o21a_1
*I *987:A_N I *D sky130_fd_sc_hd__and4bb_1
*I *988:B1 I *D sky130_fd_sc_hd__o2bb2a_1
*I *992:A I *D sky130_fd_sc_hd__xor2_2
*I *979:X O *D sky130_fd_sc_hd__and3_1
*CAP
1 *999:A1 7.60322e-05
2 *987:A_N 0.000148992
3 *988:B1 9.58411e-05
4 *992:A 0.000197691
5 *979:X 6.98527e-05
6 *137:14 0.000377675
7 *137:12 0.000349219
8 *137:8 0.000261969
9 *987:A_N *987:B_N 1.21972e-05
10 *987:A_N *987:C 0.000190875
11 *987:A_N *141:48 6.44929e-05
12 *987:A_N *149:8 0.000269102
13 *988:B1 *987:B_N 9.44651e-05
14 *988:B1 *138:6 1.09834e-05
15 *992:A *141:48 0.000138747
16 *992:A *264:14 9.58714e-05
17 *999:A1 *285:18 7.48608e-05
18 *137:8 *285:18 5.45541e-05
19 *137:12 *264:14 7.52305e-05
20 *137:14 *141:48 6.12484e-05
21 *137:14 *264:14 2.56281e-05
22 *979:B *137:8 5.55743e-06
23 *980:A1 *988:B1 1.92324e-05
*RES
1 *979:X *137:8 24.595 
2 *137:8 *137:12 17.2579 
3 *137:12 *137:14 1.55357 
4 *137:14 *992:A 41.9564 
5 *137:14 *988:B1 39.9471 
6 *137:12 *987:A_N 41.9564 
7 *137:8 *999:A1 24.5743 
*END

*D_NET *138 0.00179618
*CONN
*I *988:B2 I *D sky130_fd_sc_hd__o2bb2a_1
*I *987:B_N I *D sky130_fd_sc_hd__and4bb_1
*I *980:Y O *D sky130_fd_sc_hd__a21oi_1
*CAP
1 *988:B2 0
2 *987:B_N 0.000240053
3 *980:Y 0.000151467
4 *138:6 0.00039152
5 *987:B_N *987:C 7.40797e-05
6 *987:B_N *987:D 5.3304e-05
7 *987:B_N *988:A2_N 5.5792e-05
8 *987:B_N *141:48 0.0001242
9 *987:B_N *146:14 0.000137525
10 *987:B_N *149:8 6.63159e-06
11 *138:6 *991:B 0.000146822
12 *138:6 *149:8 0.000270094
13 *980:A1 *138:6 1.09834e-05
14 *980:B1 *138:6 1.60618e-05
15 *987:A_N *987:B_N 1.21972e-05
16 *988:B1 *987:B_N 9.44651e-05
17 *988:B1 *138:6 1.09834e-05
*RES
1 *980:Y *138:6 27.4329 
2 *138:6 *987:B_N 28.6343 
3 *138:6 *988:B2 23 
*END

*D_NET *139 0.00110051
*CONN
*I *983:C I *D sky130_fd_sc_hd__and4_1
*I *995:B1 I *D sky130_fd_sc_hd__a22o_1
*I *981:Y O *D sky130_fd_sc_hd__inv_2
*CAP
1 *983:C 0
2 *995:B1 2.13128e-05
3 *981:Y 0.000177705
4 *139:25 0.000198352
5 *139:6 0.000397369
6 *995:B1 *995:B2 5.47983e-06
7 *139:6 *995:B2 3.42398e-05
8 *139:6 *213:54 4.6834e-05
9 *139:25 *983:D 0.000213043
10 *139:25 *995:A1 6.17437e-06
*RES
1 *981:Y *139:6 26.48 
2 *139:6 *995:B1 23.4971 
3 *139:6 *139:25 34.35 
4 *139:25 *983:C 23 
*END

*D_NET *140 0.00244849
*CONN
*I *983:D I *D sky130_fd_sc_hd__and4_1
*I *995:B2 I *D sky130_fd_sc_hd__a22o_1
*I *982:X O *D sky130_fd_sc_hd__a22o_1
*CAP
1 *983:D 0.000206442
2 *995:B2 0.000117021
3 *982:X 0.000419541
4 *140:10 0.000743003
5 *983:D *198:10 1.13812e-05
6 *983:D *212:74 0.000238222
7 *983:D *212:88 2.23467e-05
8 *983:D *245:107 7.01552e-06
9 *140:10 *996:B 6.55954e-05
10 *140:10 *198:10 3.11916e-05
11 *140:10 *245:107 0.000188934
12 *140:10 *245:115 0.000138859
13 *140:10 *249:102 6.17437e-06
14 *995:B1 *995:B2 5.47983e-06
15 *139:6 *995:B2 3.42398e-05
16 *139:25 *983:D 0.000213043
*RES
1 *982:X *140:10 44.1107 
2 *140:10 *995:B2 39.9471 
3 *140:10 *983:D 44.525 
*END

*D_NET *141 0.00685992
*CONN
*I *987:C I *D sky130_fd_sc_hd__and4bb_1
*I *988:A1_N I *D sky130_fd_sc_hd__o2bb2a_1
*I *1018:A I *D sky130_fd_sc_hd__nor2_1
*I *994:A I *D sky130_fd_sc_hd__inv_2
*I *983:X O *D sky130_fd_sc_hd__and4_1
*CAP
1 *987:C 0.000178575
2 *988:A1_N 0
3 *1018:A 7.93611e-05
4 *994:A 0
5 *983:X 0.0004036
6 *141:48 0.000886373
7 *141:26 0.000279915
8 *141:12 0.0005329
9 *141:8 0.00128502
10 *987:C *987:D 0.000275408
11 *1018:A *997:B 0.000100486
12 *1018:A *997:C 3.52821e-06
13 *1018:A *155:23 0.000147656
14 *141:8 *983:A 6.85344e-06
15 *141:8 *212:74 1.3523e-05
16 *141:8 *245:76 2.34953e-05
17 *141:12 *144:20 0
18 *141:12 *160:8 0
19 *141:26 *997:A 6.39704e-05
20 *141:26 *997:B 6.1789e-05
21 *141:26 *997:C 6.17437e-06
22 *141:26 *1042:A2 4.64588e-06
23 *141:26 *152:10 8.57577e-05
24 *141:26 *154:8 0.000185616
25 *141:26 *154:22 8.57485e-05
26 *141:26 *155:23 1.06588e-05
27 *141:26 *245:72 1.72455e-05
28 *141:26 *293:40 0.000188109
29 *141:48 *144:14 4.08376e-06
30 *141:48 *144:20 0
31 *141:48 *158:10 0
32 *141:48 *245:138 0.000192229
33 *141:48 *264:14 0.000215349
34 *970:B *141:48 0.000249909
35 *987:A_N *987:C 0.000190875
36 *987:A_N *141:48 6.44929e-05
37 *987:B_N *987:C 7.40797e-05
38 *987:B_N *141:48 0.0001242
39 *992:A *141:48 0.000138747
40 *124:27 *141:48 8.62876e-05
41 *127:10 *141:12 0.000300097
42 *127:10 *141:26 1.83e-05
43 *127:10 *141:48 0.000129504
44 *128:12 *141:48 8.41012e-05
45 *137:14 *141:48 6.12484e-05
*RES
1 *983:X *141:8 42.9093 
2 *141:8 *141:12 19.0186 
3 *141:12 *141:26 36.525 
4 *141:26 *994:A 23 
5 *141:12 *1018:A 25.5271 
6 *141:8 *141:48 31.297 
7 *141:48 *988:A1_N 23 
8 *141:48 *987:C 28.2459 
*END

*D_NET *142 0.000768393
*CONN
*I *986:A I *D sky130_fd_sc_hd__xnor2_2
*I *984:Y O *D sky130_fd_sc_hd__nand2_1
*CAP
1 *986:A 0
2 *984:Y 0.000216968
3 *142:8 0.000216968
4 *142:8 *984:A 0.000207707
5 *142:8 *144:10 5.58003e-05
6 *142:8 *296:29 7.095e-05
*RES
1 *984:Y *142:8 28.4064 
2 *142:8 *986:A 23 
*END

*D_NET *143 0.000692902
*CONN
*I *986:B I *D sky130_fd_sc_hd__xnor2_2
*I *985:X O *D sky130_fd_sc_hd__and2b_1
*CAP
1 *986:B 1.51302e-05
2 *985:X 0.000165848
3 *143:8 0.000180979
4 *986:B *977:A1 5.58003e-05
5 *986:B *296:29 5.58003e-05
6 *980:B1 *143:8 1.12863e-05
7 *985:B *143:8 6.87115e-06
8 *129:10 *143:8 2.07944e-05
9 *133:14 *143:8 3.36312e-06
10 *135:10 *143:8 0.000177029
*RES
1 *985:X *143:8 41.3143 
2 *143:8 *986:B 38.6214 
*END

*D_NET *144 0.00584463
*CONN
*I *988:A2_N I *D sky130_fd_sc_hd__o2bb2a_1
*I *987:D I *D sky130_fd_sc_hd__and4bb_1
*I *998:A I *D sky130_fd_sc_hd__and2_1
*I *1019:A I *D sky130_fd_sc_hd__xnor2_1
*I *986:Y O *D sky130_fd_sc_hd__xnor2_2
*CAP
1 *988:A2_N 4.30532e-05
2 *987:D 0.000150587
3 *998:A 0.000229103
4 *1019:A 0
5 *986:Y 0.000330278
6 *144:20 0.000772437
7 *144:14 0.000858638
8 *144:10 0.000538049
9 *987:D *992:B 0.000192185
10 *987:D *146:14 0.000193772
11 *987:D *157:8 0.000231695
12 *998:A *998:B 0.000159294
13 *998:A *187:18 7.48608e-05
14 *144:10 *992:B 5.80679e-05
15 *144:10 *999:B1 7.30768e-05
16 *144:10 *264:14 0.000153197
17 *144:14 *992:B 6.45006e-05
18 *144:14 *264:14 7.78715e-05
19 *144:20 *998:B 0.000100477
20 *144:20 *1019:B 5.58003e-05
21 *144:20 *1020:A 0.000110995
22 *144:20 *150:8 0
23 *144:20 *157:8 0.000154847
24 *144:20 *158:10 0.000111264
25 *144:20 *159:10 0.00056105
26 *144:20 *160:8 7.81102e-05
27 *987:B_N *987:D 5.3304e-05
28 *987:B_N *988:A2_N 5.5792e-05
29 *987:C *987:D 0.000275408
30 *125:25 *144:20 2.70366e-05
31 *128:12 *144:20 0
32 *141:12 *144:20 0
33 *141:48 *144:14 4.08376e-06
34 *141:48 *144:20 0
35 *142:8 *144:10 5.58003e-05
*RES
1 *986:Y *144:10 44.4007 
2 *144:10 *144:14 4.00821 
3 *144:14 *144:20 30.1525 
4 *144:20 *1019:A 23 
5 *144:20 *998:A 27.93 
6 *144:14 *987:D 44.6182 
7 *144:10 *988:A2_N 38.6214 
*END

*D_NET *145 0.00270949
*CONN
*I *999:A2 I *D sky130_fd_sc_hd__o21a_1
*I *989:A I *D sky130_fd_sc_hd__nor2_1
*I *1026:A1 I *D sky130_fd_sc_hd__o221a_1
*I *987:X O *D sky130_fd_sc_hd__and4bb_1
*CAP
1 *999:A2 0.00039627
2 *989:A 0
3 *1026:A1 0.000294364
4 *987:X 0
5 *145:8 0.000460496
6 *145:6 0.000562402
7 *999:A2 *285:18 0.000189522
8 *1026:A1 *1023:A 0.000260223
9 *1026:A1 *1026:A2 4.67488e-05
10 *1026:A1 *1026:C1 3.91386e-05
11 *1026:A1 *146:14 1.13812e-05
12 *1026:A1 *146:31 0
13 *1026:A1 *147:8 6.9601e-05
14 *1026:A1 *150:8 0.00013539
15 *1026:A1 *157:8 0
16 *1026:A1 *157:23 4.07902e-05
17 *1026:A1 *157:29 1.14452e-05
18 *1026:A1 *182:8 7.44161e-06
19 *1026:A1 *182:21 1.57571e-05
20 *145:8 *146:14 0.000168515
*RES
1 *987:X *145:6 38 
2 *145:6 *145:8 3.66643 
3 *145:8 *1026:A1 45.6021 
4 *145:8 *989:A 38 
5 *145:6 *999:A2 45.4157 
*END

*D_NET *146 0.00266141
*CONN
*I *1032:A1 I *D sky130_fd_sc_hd__o211a_1
*I *989:B I *D sky130_fd_sc_hd__nor2_1
*I *988:X O *D sky130_fd_sc_hd__o2bb2a_1
*CAP
1 *1032:A1 0
2 *989:B 0
3 *988:X 0.000494513
4 *146:31 0.00035865
5 *146:18 0.000400836
6 *146:14 0.0005367
7 *146:31 *1029:B1 5.94125e-05
8 *146:31 *147:8 5.09988e-05
9 *146:31 *182:21 0.000185755
10 *146:31 *184:8 6.33511e-05
11 *146:31 *273:16 0
12 *987:B_N *146:14 0.000137525
13 *987:D *146:14 0.000193772
14 *1026:A1 *146:14 1.13812e-05
15 *1026:A1 *146:31 0
16 *145:8 *146:14 0.000168515
*RES
1 *988:X *146:14 46.7621 
2 *146:14 *146:18 15.6214 
3 *146:18 *989:B 23 
4 *146:18 *146:31 36.8771 
5 *146:31 *1032:A1 23 
*END

*D_NET *147 0.00355129
*CONN
*I *1030:B1 I *D sky130_fd_sc_hd__o21ai_1
*I *1027:A I *D sky130_fd_sc_hd__nor2_1
*I *993:C I *D sky130_fd_sc_hd__and4_1
*I *989:Y O *D sky130_fd_sc_hd__nor2_1
*CAP
1 *1030:B1 0.000114954
2 *1027:A 0.00019869
3 *993:C 0.000243402
4 *989:Y 0.000198546
5 *147:12 0.000583362
6 *147:8 0.00045477
7 *993:C *151:10 0.000139357
8 *993:C *186:6 3.42137e-05
9 *993:C *187:10 1.24376e-05
10 *1027:A *187:10 5.10805e-05
11 *1030:B1 *1030:A2 0.00031185
12 *1030:B1 *1032:B1 1.59071e-05
13 *1030:B1 *189:12 0.000270827
14 *147:8 *1029:B1 8.85189e-05
15 *147:8 *157:29 9.70251e-05
16 *147:8 *182:21 0.000176541
17 *147:12 *1029:B1 0.000218023
18 *147:12 *190:12 0.000221184
19 *1026:A1 *147:8 6.9601e-05
20 *1031:A2 *1030:B1 0
21 *146:31 *147:8 5.09988e-05
*RES
1 *989:Y *147:8 43.075 
2 *147:8 *147:12 17.9621 
3 *147:12 *993:C 27.1429 
4 *147:12 *1027:A 26.9979 
5 *147:8 *1030:B1 42.4743 
*END

*D_NET *148 0.00235052
*CONN
*I *991:B I *D sky130_fd_sc_hd__nor2_1
*I *990:Y O *D sky130_fd_sc_hd__a21oi_1
*CAP
1 *991:B 0.000125311
2 *990:Y 0.000393362
3 *148:10 0.000518672
4 *966:B1_N *148:10 1.01436e-05
5 *980:A2 *991:B 2.37172e-05
6 *980:B1 *991:B 8.79008e-05
7 *990:B1 *148:10 0.000135611
8 *991:A *991:B 0.000144501
9 *991:A *148:10 0.000129494
10 *109:18 *148:10 9.90628e-05
11 *120:8 *148:10 0.00032437
12 *122:8 *148:10 0.000211549
13 *138:6 *991:B 0.000146822
*RES
1 *990:Y *148:10 46.9071 
2 *148:10 *991:B 41.9979 
*END

*D_NET *149 0.00236184
*CONN
*I *999:B1 I *D sky130_fd_sc_hd__o21a_1
*I *992:B I *D sky130_fd_sc_hd__xor2_2
*I *991:Y O *D sky130_fd_sc_hd__nor2_1
*CAP
1 *999:B1 9.10446e-05
2 *992:B 0.000144332
3 *991:Y 0.000442727
4 *149:8 0.000678104
5 *992:B *157:8 3.31053e-05
6 *999:B1 *157:8 3.88725e-05
7 *987:A_N *149:8 0.000269102
8 *987:B_N *149:8 6.63159e-06
9 *987:D *992:B 0.000192185
10 *138:6 *149:8 0.000270094
11 *144:10 *992:B 5.80679e-05
12 *144:10 *999:B1 7.30768e-05
13 *144:14 *992:B 6.45006e-05
*RES
1 *991:Y *149:8 44.3386 
2 *149:8 *992:B 18.6664 
3 *149:8 *999:B1 40.2579 
*END

*D_NET *150 0.00329237
*CONN
*I *1023:A I *D sky130_fd_sc_hd__inv_2
*I *1032:A2 I *D sky130_fd_sc_hd__o211a_1
*I *993:D I *D sky130_fd_sc_hd__and4_1
*I *992:X O *D sky130_fd_sc_hd__xor2_2
*CAP
1 *1023:A 0.000326901
2 *1032:A2 0.000204042
3 *993:D 0.000168197
4 *992:X 0.000199475
5 *150:10 0.000425257
6 *150:8 0.000579395
7 *993:D *1026:C1 7.38945e-05
8 *993:D *1031:B1_N 0.000248979
9 *993:D *157:29 1.62615e-05
10 *993:D *183:10 7.91493e-05
11 *1023:A *1026:A2 0.000112159
12 *1023:A *1026:C1 1.24376e-05
13 *1023:A *157:23 1.03955e-05
14 *1032:A2 *1030:A1 9.5877e-05
15 *1032:A2 *1030:A2 2.13733e-05
16 *1032:A2 *1032:B1 3.91386e-05
17 *1032:A2 *189:12 0.000191521
18 *150:8 *1026:C1 6.7177e-06
19 *150:8 *157:8 0
20 *150:8 *157:29 2.35393e-05
21 *150:10 *1026:C1 2.11887e-05
22 *150:10 *157:29 4.08537e-05
23 *1026:A1 *1023:A 0.000260223
24 *1026:A1 *150:8 0.00013539
25 *1031:A1 *1032:A2 0
26 *128:34 *150:8 0
27 *144:20 *150:8 0
*RES
1 *992:X *150:8 41.6664 
2 *150:8 *150:10 1.20143 
3 *150:10 *993:D 42.64 
4 *150:10 *1032:A2 42.4743 
5 *150:8 *1023:A 43.4271 
*END

*D_NET *151 0.00179976
*CONN
*I *1002:A1 I *D sky130_fd_sc_hd__a21o_1
*I *1020:A I *D sky130_fd_sc_hd__and3_1
*I *993:X O *D sky130_fd_sc_hd__and4_1
*CAP
1 *1002:A1 0
2 *1020:A 0.000295688
3 *993:X 0.000166564
4 *151:10 0.000462251
5 *1020:A *1020:C 7.7249e-05
6 *1020:A *1031:B1_N 9.07571e-05
7 *1020:A *159:10 6.44894e-05
8 *1020:A *160:8 0
9 *1020:A *183:10 6.07611e-06
10 *1020:A *212:88 0
11 *1020:A *244:60 3.41998e-06
12 *1020:A *293:40 3.26241e-05
13 *151:10 *159:10 0.000104869
14 *151:10 *183:10 5.56203e-05
15 *151:10 *186:6 9.30151e-05
16 *993:B *151:10 9.67842e-05
17 *993:C *151:10 0.000139357
18 *144:20 *1020:A 0.000110995
*RES
1 *993:X *151:10 42.5571 
2 *151:10 *1020:A 44.7529 
3 *151:10 *1002:A1 38 
*END

*D_NET *152 0.000784467
*CONN
*I *997:A I *D sky130_fd_sc_hd__and3_1
*I *1042:A1 I *D sky130_fd_sc_hd__a21o_1
*I *994:Y O *D sky130_fd_sc_hd__inv_2
*CAP
1 *997:A 6.75202e-05
2 *1042:A1 0
3 *994:Y 0.00012756
4 *152:12 6.75202e-05
5 *152:10 0.00012756
6 *997:A *997:B 2.193e-05
7 *997:A *153:8 2.50118e-05
8 *997:A *154:22 1.35999e-05
9 *152:10 *154:8 9.89906e-05
10 *152:10 *245:72 8.50457e-05
11 *141:26 *997:A 6.39704e-05
12 *141:26 *152:10 8.57577e-05
*RES
1 *994:Y *152:10 40.2993 
2 *152:10 *152:12 15 
3 *152:12 *1042:A1 23 
4 *152:12 *997:A 24.595 
*END

*D_NET *153 0.00111865
*CONN
*I *997:B I *D sky130_fd_sc_hd__and3_1
*I *1042:A2 I *D sky130_fd_sc_hd__a21o_1
*I *995:X O *D sky130_fd_sc_hd__a22o_1
*CAP
1 *997:B 0.000201224
2 *1042:A2 2.00032e-05
3 *995:X 0.000172897
4 *153:8 0.000394124
5 *153:8 *995:A1 6.17437e-06
6 *153:8 *154:22 9.64943e-05
7 *153:8 *198:10 1.3867e-05
8 *997:A *997:B 2.193e-05
9 *997:A *153:8 2.50118e-05
10 *1018:A *997:B 0.000100486
11 *141:26 *997:B 6.1789e-05
12 *141:26 *1042:A2 4.64588e-06
*RES
1 *995:X *153:8 26.5007 
2 *153:8 *1042:A2 23.4971 
3 *153:8 *997:B 27.4743 
*END

*D_NET *154 0.00299111
*CONN
*I *997:C I *D sky130_fd_sc_hd__and3_1
*I *1037:A I *D sky130_fd_sc_hd__inv_2
*I *1042:B1 I *D sky130_fd_sc_hd__a21o_1
*I *996:X O *D sky130_fd_sc_hd__and4_1
*CAP
1 *997:C 7.07777e-05
2 *1037:A 0.000196005
3 *1042:B1 0
4 *996:X 0.000211023
5 *154:29 0.000266782
6 *154:22 0.00028848
7 *154:8 0.000499504
8 *997:C *155:14 3.6608e-05
9 *1037:A *155:14 4.41821e-06
10 *1037:A *160:8 0
11 *1037:A *178:10 8.13945e-05
12 *154:8 *996:D 5.3304e-05
13 *154:8 *155:14 0.000114969
14 *154:8 *245:107 5.56356e-05
15 *154:8 *293:40 8.24349e-05
16 *154:22 *245:72 5.66152e-05
17 *997:A *154:22 1.35999e-05
18 *1018:A *997:C 3.52821e-06
19 *127:10 *997:C 7.35277e-05
20 *127:10 *1037:A 0.000288776
21 *127:10 *154:22 0.000120706
22 *141:26 *997:C 6.17437e-06
23 *141:26 *154:8 0.000185616
24 *141:26 *154:22 8.57485e-05
25 *152:10 *154:8 9.89906e-05
26 *153:8 *154:22 9.64943e-05
*RES
1 *996:X *154:8 28.8829 
2 *154:8 *154:22 35.3443 
3 *154:22 *1042:B1 23 
4 *154:8 *154:29 15 
5 *154:29 *1037:A 42.0186 
6 *154:29 *997:C 39.4293 
*END

*D_NET *155 0.00215788
*CONN
*I *998:B I *D sky130_fd_sc_hd__and2_1
*I *1018:B I *D sky130_fd_sc_hd__nor2_1
*I *1041:A I *D sky130_fd_sc_hd__inv_2
*I *997:X O *D sky130_fd_sc_hd__and3_1
*CAP
1 *998:B 0.000292429
2 *1018:B 2.34481e-05
3 *1041:A 0
4 *997:X 0
5 *155:23 0.000455733
6 *155:14 0.000178912
7 *155:4 0.000318767
8 *998:B *1019:B 4.69521e-05
9 *998:B *177:8 5.3304e-05
10 *155:14 *293:40 0.000184707
11 *155:23 *1019:B 2.95423e-05
12 *997:C *155:14 3.6608e-05
13 *998:A *998:B 0.000159294
14 *1018:A *155:23 0.000147656
15 *1037:A *155:14 4.41821e-06
16 *141:26 *155:23 1.06588e-05
17 *144:20 *998:B 0.000100477
18 *154:8 *155:14 0.000114969
*RES
1 *997:X *155:4 23 
2 *155:4 *155:14 34.1014 
3 *155:14 *1041:A 23 
4 *155:4 *155:23 3.02429 
5 *155:23 *1018:B 23.4971 
6 *155:23 *998:B 28.8829 
*END

*D_NET *156 0.000579162
*CONN
*I *1025:A I *D sky130_fd_sc_hd__inv_2
*I *1002:A2 I *D sky130_fd_sc_hd__a21o_1
*I *998:X O *D sky130_fd_sc_hd__and2_1
*CAP
1 *1025:A 0
2 *1002:A2 7.32807e-05
3 *998:X 7.02985e-05
4 *156:14 0.000128334
5 *156:8 0.000125351
6 *1002:A2 *183:10 5.29205e-05
7 *156:8 *1031:B1_N 6.90927e-05
8 *156:8 *187:18 1.13812e-05
9 *156:8 *190:12 3.49318e-05
10 *156:14 *183:10 1.35714e-05
*RES
1 *998:X *156:8 39.9057 
2 *156:8 *156:14 16.1186 
3 *156:14 *1002:A2 24.5743 
4 *156:14 *1025:A 23 
*END

*D_NET *157 0.00282848
*CONN
*I *1026:B1 I *D sky130_fd_sc_hd__o221a_1
*I *1029:A1 I *D sky130_fd_sc_hd__o21a_1
*I *1001:A3 I *D sky130_fd_sc_hd__a31o_1
*I *999:X O *D sky130_fd_sc_hd__o21a_1
*CAP
1 *1026:B1 0
2 *1029:A1 0
3 *1001:A3 0
4 *999:X 0.000334838
5 *157:29 0.00018979
6 *157:23 0.00028392
7 *157:14 0.000157339
8 *157:8 0.000398047
9 *157:14 *1026:B2 0
10 *157:14 *159:10 1.36806e-05
11 *157:14 *182:8 0.00014196
12 *157:23 *1026:B2 1.05814e-05
13 *157:23 *1026:C1 7.59794e-05
14 *157:23 *182:8 0.000114846
15 *157:29 *1031:B1_N 0.000124873
16 *157:29 *190:12 0.000221184
17 *987:D *157:8 0.000231695
18 *992:B *157:8 3.31053e-05
19 *993:D *157:29 1.62615e-05
20 *999:B1 *157:8 3.88725e-05
21 *1023:A *157:23 1.03955e-05
22 *1026:A1 *157:8 0
23 *1026:A1 *157:23 4.07902e-05
24 *1026:A1 *157:29 1.14452e-05
25 *125:19 *157:14 6.26126e-05
26 *125:19 *157:23 0
27 *144:20 *157:8 0.000154847
28 *147:8 *157:29 9.70251e-05
29 *150:8 *157:8 0
30 *150:8 *157:29 2.35393e-05
31 *150:10 *157:29 4.08537e-05
*RES
1 *999:X *157:8 45.1879 
2 *157:8 *157:14 17.0714 
3 *157:14 *1001:A3 23 
4 *157:14 *157:23 3.02429 
5 *157:23 *157:29 35.7793 
6 *157:29 *1029:A1 23 
7 *157:23 *1026:B1 23 
*END

*D_NET *158 0.00201119
*CONN
*I *1001:B1 I *D sky130_fd_sc_hd__a31o_1
*I *1000:X O *D sky130_fd_sc_hd__o21a_1
*CAP
1 *1001:B1 9.28522e-05
2 *1000:X 0.000655019
3 *158:10 0.000747871
4 *1001:B1 *159:10 6.17437e-06
5 *158:10 *186:6 8.1796e-05
6 *993:B *158:10 1.76557e-05
7 *1000:B1 *158:10 1.21972e-05
8 *1028:A_N *158:10 0.000103532
9 *124:27 *158:10 0
10 *125:19 *1001:B1 0.000182832
11 *128:12 *158:10 0
12 *141:48 *158:10 0
13 *144:20 *158:10 0.000111264
*RES
1 *1000:X *158:10 48.585 
2 *158:10 *1001:B1 40.0507 
*END

*D_NET *159 0.00208938
*CONN
*I *1002:B1 I *D sky130_fd_sc_hd__a21o_1
*I *1001:X O *D sky130_fd_sc_hd__a31o_1
*CAP
1 *1002:B1 4.63595e-05
2 *1001:X 0.000396211
3 *159:10 0.000442571
4 *159:10 *1026:C1 9.84851e-05
5 *159:10 *183:10 1.94685e-05
6 *1001:B1 *159:10 6.17437e-06
7 *1020:A *159:10 6.44894e-05
8 *125:19 *159:10 1.21972e-05
9 *125:25 *159:10 0.000323822
10 *144:20 *159:10 0.00056105
11 *151:10 *159:10 0.000104869
12 *157:14 *159:10 1.36806e-05
*RES
1 *1001:X *159:10 48.0671 
2 *159:10 *1002:B1 38.6214 
*END

*D_NET *160 0.00194704
*CONN
*I *1017:B I *D sky130_fd_sc_hd__xnor2_1
*I *1004:A2 I *D sky130_fd_sc_hd__a21oi_1
*I *1002:X O *D sky130_fd_sc_hd__a21o_1
*CAP
1 *1017:B 5.75703e-05
2 *1004:A2 0.000248845
3 *1002:X 0.000493202
4 *160:8 0.000799617
5 *1004:A2 *1004:B1 1.32314e-05
6 *1004:A2 *1034:A2 0
7 *1004:A2 *1034:B1 6.37754e-05
8 *1004:A2 *174:10 0
9 *1004:A2 *212:88 0
10 *1004:A2 *277:20 4.75206e-05
11 *1017:B *196:16 0.000145171
12 *160:8 *1033:A 0
13 *1020:A *160:8 0
14 *1037:A *160:8 0
15 *127:10 *160:8 0
16 *141:12 *160:8 0
17 *144:20 *160:8 7.81102e-05
*RES
1 *1002:X *160:8 45.54 
2 *160:8 *1004:A2 42.8264 
3 *160:8 *1017:B 39.5743 
*END

*D_NET *161 0.00136424
*CONN
*I *1004:B1 I *D sky130_fd_sc_hd__a21oi_1
*I *1016:A I *D sky130_fd_sc_hd__or2b_1
*I *1003:X O *D sky130_fd_sc_hd__and2_1
*CAP
1 *1004:B1 0.000118296
2 *1016:A 4.99221e-05
3 *1003:X 0.000220562
4 *161:10 0.00038878
5 *1004:B1 *1034:B1 3.92407e-05
6 *1004:B1 *179:37 0.000125413
7 *1004:B1 *277:20 2.93845e-05
8 *161:10 *179:37 0.000270016
9 *161:10 *213:74 0
10 *161:10 *296:169 0
11 *1004:A2 *1004:B1 1.32314e-05
12 *95:21 *1004:B1 4.66036e-05
13 *95:21 *1016:A 5.3304e-05
14 *95:21 *161:10 9.48381e-06
*RES
1 *1003:X *161:10 42.06 
2 *161:10 *1016:A 38.6214 
3 *161:10 *1004:B1 40.8793 
*END

*D_NET *162 0.00307233
*CONN
*I *1015:A2 I *D sky130_fd_sc_hd__o211ai_2
*I *1005:S I *D sky130_fd_sc_hd__mux2_1
*I *1004:Y O *D sky130_fd_sc_hd__a21oi_1
*CAP
1 *1015:A2 0
2 *1005:S 0.000292886
3 *1004:Y 0.000573059
4 *162:10 0.000865945
5 *1005:S *163:10 0.00012151
6 *162:10 *163:10 3.46351e-05
7 *162:10 *173:10 0.000505755
8 *162:10 *277:20 0.000218476
9 *1005:A1 *1005:S 0.000124874
10 *68:29 *1005:S 9.91548e-05
11 *68:51 *1005:S 0
12 *80:10 *1005:S 0.000134767
13 *80:31 *1005:S 1.47795e-05
14 *93:33 *162:10 6.35704e-05
15 *127:10 *162:10 2.29192e-05
*RES
1 *1004:Y *162:10 48.4193 
2 *162:10 *1005:S 44.96 
3 *162:10 *1015:A2 38 
*END

*D_NET *163 0.00289298
*CONN
*I *1034:A1 I *D sky130_fd_sc_hd__o31a_1
*I *1022:A1 I *D sky130_fd_sc_hd__a31o_1
*I *1005:X O *D sky130_fd_sc_hd__mux2_1
*CAP
1 *1034:A1 0.00011447
2 *1022:A1 0
3 *1005:X 0.000510141
4 *163:10 0.000624611
5 *1034:A1 *1034:A2 0.000132358
6 *1034:A1 *1034:B1 0.000143803
7 *1034:A1 *196:16 8.04206e-05
8 *163:10 *1034:A2 1.14452e-05
9 *163:10 *1034:B1 2.77955e-05
10 *163:10 *172:10 1.56481e-05
11 *163:10 *173:10 0.00058599
12 *163:10 *179:37 0.000369929
13 *163:10 *217:98 0
14 *163:10 *307:108 0
15 *1005:S *163:10 0.00012151
16 *68:41 *163:10 3.6608e-05
17 *80:10 *163:10 8.36198e-05
18 *162:10 *163:10 3.46351e-05
*RES
1 *1005:X *163:10 49.8071 
2 *163:10 *1022:A1 38 
3 *163:10 *1034:A1 41.5214 
*END

*D_NET *164 0.00120711
*CONN
*I *1008:A3 I *D sky130_fd_sc_hd__a31o_1
*I *1006:Y O *D sky130_fd_sc_hd__nand2_1
*CAP
1 *1008:A3 0
2 *1006:Y 0.000271882
3 *164:8 0.000271882
4 *164:8 *901:A 2.64616e-05
5 *164:8 *1008:A1 0.000142678
6 *164:8 *1008:B1 4.36654e-05
7 *164:8 *249:14 2.91673e-05
8 *164:8 *249:18 9.41704e-05
9 *164:8 *309:59 0.000135037
10 *59:6 *164:8 9.79925e-05
11 *59:25 *164:8 9.41704e-05
*RES
1 *1006:Y *164:8 28.8829 
2 *164:8 *1008:A3 23 
*END

*D_NET *165 0.0015091
*CONN
*I *1021:B I *D sky130_fd_sc_hd__and2_1
*I *1008:B1 I *D sky130_fd_sc_hd__a31o_1
*I *1007:Y O *D sky130_fd_sc_hd__o21ai_1
*CAP
1 *1021:B 0.000170614
2 *1008:B1 7.02397e-05
3 *1007:Y 0.00023679
4 *165:14 0.000278236
5 *165:10 0.000274173
6 *1008:B1 *1008:A1 5.5792e-05
7 *1008:B1 *249:14 5.5792e-05
8 *165:10 *1007:A1 2.19998e-05
9 *165:10 *246:70 0
10 *165:10 *310:152 6.10308e-05
11 *1007:A2 *165:10 0.00014028
12 *55:61 *1021:B 0.000100486
13 *164:8 *1008:B1 4.36654e-05
*RES
1 *1007:Y *165:10 42.06 
2 *165:10 *165:14 15.8493 
3 *165:14 *1008:B1 24.5743 
4 *165:14 *1021:B 26.0036 
*END

*D_NET *166 0.000698519
*CONN
*I *1009:S I *D sky130_fd_sc_hd__mux2_1
*I *1008:X O *D sky130_fd_sc_hd__a31o_1
*CAP
1 *1009:S 0.000151399
2 *1008:X 6.39046e-05
3 *166:8 0.000215303
4 *1009:S *900:B 5.2273e-05
5 *1009:S *311:62 0.000115619
6 *166:8 *900:B 9.78317e-06
7 *166:8 *310:152 8.78864e-05
8 *59:25 *166:8 2.35118e-06
*RES
1 *1008:X *166:8 39.2014 
2 *166:8 *1009:S 41.3764 
*END

*D_NET *167 0.00305938
*CONN
*I *1013:A I *D sky130_fd_sc_hd__nand2_1
*I *1014:B1 I *D sky130_fd_sc_hd__o22a_1
*I *1009:X O *D sky130_fd_sc_hd__mux2_1
*CAP
1 *1013:A 0.00036208
2 *1014:B1 0
3 *1009:X 0.000555224
4 *167:8 0.000917304
5 *1013:A *1013:B 0.000440281
6 *1013:A *223:16 3.28357e-06
7 *167:8 *1009:A0 0.000189176
8 *167:8 *172:10 3.71887e-05
9 *167:8 *260:18 7.61733e-05
10 *167:8 *260:43 0.000166088
11 *1077:A *1013:A 3.33646e-05
12 *1077:A *167:8 0.000279219
*RES
1 *1009:X *167:8 36.3814 
2 *167:8 *1014:B1 23 
3 *167:8 *1013:A 31.5136 
*END

*D_NET *168 0.00147332
*CONN
*I *1012:A0 I *D sky130_fd_sc_hd__mux2_1
*I *1011:B1 I *D sky130_fd_sc_hd__o21ai_1
*I *1010:Y O *D sky130_fd_sc_hd__nand2_1
*CAP
1 *1012:A0 0
2 *1011:B1 0
3 *1010:Y 1.78905e-05
4 *168:23 0.000237433
5 *168:6 0.000255323
6 *168:6 *211:103 2.73744e-05
7 *168:23 *169:10 0.000518872
8 *168:23 *211:103 6.65213e-05
9 *168:23 *311:38 0.000295096
10 *55:37 *168:23 4.00259e-06
11 *61:35 *168:6 5.0806e-05
*RES
1 *1010:Y *168:6 24.0979 
2 *168:6 *1011:B1 23 
3 *168:6 *168:23 38.0164 
4 *168:23 *1012:A0 23 
*END

*D_NET *169 0.00150401
*CONN
*I *1012:A1 I *D sky130_fd_sc_hd__mux2_1
*I *1011:Y O *D sky130_fd_sc_hd__o21ai_1
*CAP
1 *1012:A1 0
2 *1011:Y 0.000459058
3 *169:10 0.000459058
4 *55:37 *169:10 6.17437e-06
5 *56:30 *169:10 5.10686e-05
6 *61:35 *169:10 9.77922e-06
7 *63:24 *169:10 0
8 *168:23 *169:10 0.000518872
*RES
1 *1011:Y *169:10 45.0221 
2 *169:10 *1012:A1 38 
*END

*D_NET *170 0.00285477
*CONN
*I *1013:B I *D sky130_fd_sc_hd__nand2_1
*I *1014:B2 I *D sky130_fd_sc_hd__o22a_1
*I *1012:X O *D sky130_fd_sc_hd__mux2_1
*CAP
1 *1013:B 0.000103279
2 *1014:B2 0
3 *1012:X 0.000473961
4 *170:12 0.000103279
5 *170:10 0.000473961
6 *170:10 *217:17 0.000136486
7 *170:10 *217:81 0.000207696
8 *170:10 *307:114 0.000342045
9 *170:10 *310:43 0.000486246
10 *1013:A *1013:B 0.000440281
11 *1077:A *1013:B 8.75357e-05
*RES
1 *1012:X *170:10 48.1086 
2 *170:10 *170:12 15 
3 *170:12 *1014:B2 23 
4 *170:12 *1013:B 26.9979 
*END

*D_NET *171 0.00176041
*CONN
*I *1015:B1 I *D sky130_fd_sc_hd__o211ai_2
*I *1013:Y O *D sky130_fd_sc_hd__nand2_1
*CAP
1 *1015:B1 0.000325168
2 *1013:Y 0.000128205
3 *171:8 0.000453374
4 *1015:B1 *860:A 0.000139357
5 *1015:B1 *874:A1 5.50049e-05
6 *1015:B1 *272:26 0.00012308
7 *171:8 *215:8 0.000129664
8 *171:8 *215:16 0.000195162
9 *171:8 *224:8 5.31824e-05
10 *68:29 *171:8 9.10017e-05
11 *68:41 *1015:B1 6.72075e-05
*RES
1 *1013:Y *171:8 42.3707 
2 *171:8 *1015:B1 44.3593 
*END

*D_NET *172 0.000877631
*CONN
*I *1015:C1 I *D sky130_fd_sc_hd__o211ai_2
*I *1014:X O *D sky130_fd_sc_hd__o22a_1
*CAP
1 *1015:C1 0
2 *1014:X 0.000370587
3 *172:10 0.000370587
4 *172:10 *307:114 0
5 *68:41 *172:10 8.36198e-05
6 *163:10 *172:10 1.56481e-05
7 *167:8 *172:10 3.71887e-05
*RES
1 *1014:X *172:10 43.8207 
2 *172:10 *1015:C1 38 
*END

*D_NET *173 0.00264111
*CONN
*I *1034:A2 I *D sky130_fd_sc_hd__o31a_1
*I *1022:A2 I *D sky130_fd_sc_hd__a31o_1
*I *1015:Y O *D sky130_fd_sc_hd__o211ai_2
*CAP
1 *1034:A2 0.000152727
2 *1022:A2 0
3 *1015:Y 0.000319314
4 *173:10 0.000472041
5 *1034:A2 *1034:B1 2.0576e-05
6 *1034:A2 *178:10 0.000232606
7 *1034:A2 *196:16 5.58003e-05
8 *173:10 *178:10 1.14452e-05
9 *173:10 *272:26 0.000141052
10 *1004:A2 *1034:A2 0
11 *1034:A1 *1034:A2 0.000132358
12 *127:10 *173:10 0
13 *162:10 *173:10 0.000505755
14 *163:10 *1034:A2 1.14452e-05
15 *163:10 *173:10 0.00058599
*RES
1 *1015:Y *173:10 47.4664 
2 *173:10 *1022:A2 38 
3 *173:10 *1034:A2 41.9357 
*END

*D_NET *174 0.0011781
*CONN
*I *1017:A I *D sky130_fd_sc_hd__xnor2_1
*I *1016:X O *D sky130_fd_sc_hd__or2b_1
*CAP
1 *1017:A 0
2 *1016:X 0.0003249
3 *174:10 0.0003249
4 *174:10 *1034:B1 0
5 *174:10 *213:74 0.000337889
6 *174:10 *214:80 1.02949e-05
7 *1004:A2 *174:10 0
8 *95:21 *174:10 0.000180115
*RES
1 *1016:X *174:10 44.7736 
2 *174:10 *1017:A 38 
*END

*D_NET *175 0.00106834
*CONN
*I *1033:A I *D sky130_fd_sc_hd__or4b_1
*I *1020:B I *D sky130_fd_sc_hd__and3_1
*I *1017:Y O *D sky130_fd_sc_hd__xnor2_1
*CAP
1 *1033:A 8.66193e-05
2 *1020:B 0.000129581
3 *1017:Y 4.0738e-05
4 *175:8 0.000256938
5 *1020:B *293:40 0.000189848
6 *1033:A *212:88 8.43674e-05
7 *1033:A *244:60 5.3304e-05
8 *1033:A *293:40 5.3304e-05
9 *175:8 *191:8 8.57577e-05
10 *175:8 *212:88 8.78864e-05
11 *160:8 *1033:A 0
*RES
1 *1017:Y *175:8 39.2014 
2 *175:8 *1020:B 41.045 
3 *175:8 *1033:A 39.8229 
*END

*D_NET *176 0.000337325
*CONN
*I *1019:B I *D sky130_fd_sc_hd__xnor2_1
*I *1018:Y O *D sky130_fd_sc_hd__nor2_1
*CAP
1 *1019:B 0.000102515
2 *1018:Y 0.000102515
3 *998:B *1019:B 4.69521e-05
4 *144:20 *1019:B 5.58003e-05
5 *155:23 *1019:B 2.95423e-05
*RES
1 *1018:Y *1019:B 48.0507 
*END

*D_NET *177 0.00251336
*CONN
*I *1031:B1_N I *D sky130_fd_sc_hd__o21ba_1
*I *1020:C I *D sky130_fd_sc_hd__and3_1
*I *1019:Y O *D sky130_fd_sc_hd__xnor2_1
*CAP
1 *1031:B1_N 0.000505807
2 *1020:C 0.000196948
3 *1019:Y 4.99221e-05
4 *177:8 0.000752677
5 *1020:C *212:88 8.36198e-05
6 *1020:C *244:60 5.58003e-05
7 *1020:C *293:40 3.0172e-05
8 *1031:B1_N *183:10 8.92141e-05
9 *1031:B1_N *187:18 2.20484e-05
10 *1031:B1_N *190:12 1.78402e-05
11 *1031:B1_N *212:88 4.50551e-05
12 *993:D *1031:B1_N 0.000248979
13 *998:B *177:8 5.3304e-05
14 *1020:A *1020:C 7.7249e-05
15 *1020:A *1031:B1_N 9.07571e-05
16 *156:8 *1031:B1_N 6.90927e-05
17 *157:29 *1031:B1_N 0.000124873
*RES
1 *1019:Y *177:8 38.6214 
2 *177:8 *1020:C 41.335 
3 *177:8 *1031:B1_N 48.8957 
*END

*D_NET *178 0.0013902
*CONN
*I *1022:A3 I *D sky130_fd_sc_hd__a31o_1
*I *1020:X O *D sky130_fd_sc_hd__and3_1
*CAP
1 *1022:A3 0
2 *1020:X 0.000433153
3 *178:10 0.000433153
4 *178:10 *293:40 0.000149896
5 *1034:A2 *178:10 0.000232606
6 *1037:A *178:10 8.13945e-05
7 *127:10 *178:10 4.85491e-05
8 *173:10 *178:10 1.14452e-05
*RES
1 *1020:X *178:10 45.7264 
2 *178:10 *1022:A3 38 
*END

*D_NET *179 0.00932178
*CONN
*I *1034:B1 I *D sky130_fd_sc_hd__o31a_1
*I *1022:B1 I *D sky130_fd_sc_hd__a31o_1
*I *1045:C I *D sky130_fd_sc_hd__or3_1
*I *1021:X O *D sky130_fd_sc_hd__and2_1
*CAP
1 *1034:B1 0.000134542
2 *1022:B1 0
3 *1045:C 0.00034369
4 *1021:X 0
5 *179:37 0.00106762
6 *179:31 0.00139026
7 *179:14 0.000971356
8 *179:4 0.00108485
9 *1034:B1 *196:16 5.58003e-05
10 *1045:C *882:A 5.3304e-05
11 *1045:C *890:A 0.000141177
12 *1045:C *243:78 0.000152796
13 *1045:C *246:12 0.000482882
14 *1045:C *266:34 0.000149925
15 *1045:C *266:65 0.000136475
16 *1045:C *267:21 0.000179725
17 *179:14 *890:C 3.86731e-05
18 *179:14 *246:12 5.61255e-06
19 *179:14 *310:152 0.00021739
20 *179:14 *311:62 0.000293269
21 *179:14 *311:72 0.000141352
22 *179:31 *264:30 0.000451118
23 *179:31 *272:20 8.298e-05
24 *934:A1 *179:37 9.65021e-05
25 *1003:B *179:37 0.000311554
26 *1004:A2 *1034:B1 6.37754e-05
27 *1004:B1 *1034:B1 3.92407e-05
28 *1004:B1 *179:37 0.000125413
29 *1034:A1 *1034:B1 0.000143803
30 *1034:A2 *1034:B1 2.0576e-05
31 *55:10 *179:31 1.0092e-05
32 *55:61 *179:31 0.000101506
33 *59:14 *179:14 2.914e-05
34 *74:29 *179:37 0.000137651
35 *161:10 *179:37 0.000270016
36 *163:10 *1034:B1 2.77955e-05
37 *163:10 *179:37 0.000369929
38 *174:10 *1034:B1 0
*RES
1 *1021:X *179:4 23 
2 *179:4 *179:14 40.5021 
3 *179:14 *1045:C 33.6471 
4 *179:4 *179:31 39.2386 
5 *179:31 *179:37 32.6071 
6 *179:37 *1022:B1 38 
7 *179:37 *1034:B1 41.5836 
*END

*D_NET *180 0.00244562
*CONN
*I *1039:A2 I *D sky130_fd_sc_hd__a31o_1
*I *1043:A2 I *D sky130_fd_sc_hd__a31o_1
*I *1035:A3 I *D sky130_fd_sc_hd__a31o_1
*I *1022:X O *D sky130_fd_sc_hd__a31o_1
*CAP
1 *1039:A2 0
2 *1043:A2 8.68337e-05
3 *1035:A3 0.000212817
4 *1022:X 0.000157909
5 *180:25 0.000300397
6 *180:6 0.000584289
7 *1035:A3 *192:38 0.000144494
8 *1035:A3 *214:96 2.93747e-05
9 *1035:A3 *245:51 9.78729e-06
10 *1035:A3 *245:72 4.94227e-05
11 *1043:A2 *1039:A1 5.79559e-05
12 *1043:A2 *1043:A1 3.75945e-05
13 *1043:A2 *1043:A3 1.46205e-05
14 *1043:A2 *1043:B1 0.000141095
15 *1043:A2 *195:10 0.000314117
16 *180:6 *245:72 1.76557e-05
17 *180:6 *277:20 1.32289e-05
18 *180:25 *192:38 8.50366e-05
19 *180:25 *245:72 0.000188993
*RES
1 *1022:X *180:6 25.0507 
2 *180:6 *1035:A3 27.4743 
3 *180:6 *180:25 33.0036 
4 *180:25 *1043:A2 26.48 
5 *180:25 *1039:A2 23 
*END

*D_NET *181 0.000496288
*CONN
*I *1026:A2 I *D sky130_fd_sc_hd__o221a_1
*I *1023:Y O *D sky130_fd_sc_hd__inv_2
*CAP
1 *1026:A2 0.000142038
2 *1023:Y 0.000142038
3 *1026:A2 *182:21 5.3304e-05
4 *1023:A *1026:A2 0.000112159
5 *1026:A1 *1026:A2 4.67488e-05
*RES
1 *1023:Y *1026:A2 49.0036 
*END

*D_NET *182 0.00378429
*CONN
*I *1030:A1 I *D sky130_fd_sc_hd__o21ai_1
*I *1029:B1 I *D sky130_fd_sc_hd__o21a_1
*I *1026:B2 I *D sky130_fd_sc_hd__o221a_1
*I *1024:Y O *D sky130_fd_sc_hd__inv_2
*CAP
1 *1030:A1 0.000361091
2 *1029:B1 0.000169083
3 *1026:B2 2.22673e-05
4 *1024:Y 0.00044356
5 *182:21 0.000679011
6 *182:8 0.000614665
7 *1029:B1 *184:8 6.9997e-05
8 *1030:A1 *1030:A2 7.15111e-06
9 *1030:A1 *1032:B1 0.000144501
10 *1030:A1 *189:12 1.03836e-05
11 *1026:A1 *182:8 7.44161e-06
12 *1026:A1 *182:21 1.57571e-05
13 *1026:A2 *182:21 5.3304e-05
14 *1032:A2 *1030:A1 9.5877e-05
15 *125:19 *182:8 9.45591e-05
16 *146:31 *1029:B1 5.94125e-05
17 *146:31 *182:21 0.000185755
18 *147:8 *1029:B1 8.85189e-05
19 *147:8 *182:21 0.000176541
20 *147:12 *1029:B1 0.000218023
21 *157:14 *1026:B2 0
22 *157:14 *182:8 0.00014196
23 *157:23 *1026:B2 1.05814e-05
24 *157:23 *182:8 0.000114846
*RES
1 *1024:Y *182:8 29.8357 
2 *182:8 *1026:B2 23.4971 
3 *182:8 *182:21 18.7079 
4 *182:21 *1029:B1 42.0186 
5 *182:21 *1030:A1 43.2821 
*END

*D_NET *183 0.00343326
*CONN
*I *1026:C1 I *D sky130_fd_sc_hd__o221a_1
*I *1030:A2 I *D sky130_fd_sc_hd__o21ai_1
*I *1025:Y O *D sky130_fd_sc_hd__inv_2
*CAP
1 *1026:C1 0.000191316
2 *1030:A2 0.000610675
3 *1025:Y 0.000269828
4 *183:10 0.00107182
5 *1030:A2 *189:12 2.43944e-05
6 *993:D *1026:C1 7.38945e-05
7 *993:D *183:10 7.91493e-05
8 *1002:A2 *183:10 5.29205e-05
9 *1020:A *183:10 6.07611e-06
10 *1023:A *1026:C1 1.24376e-05
11 *1026:A1 *1026:C1 3.91386e-05
12 *1030:A1 *1030:A2 7.15111e-06
13 *1030:B1 *1030:A2 0.00031185
14 *1031:A2 *1030:A2 6.17437e-06
15 *1031:B1_N *183:10 8.92141e-05
16 *1032:A2 *1030:A2 2.13733e-05
17 *125:19 *1026:C1 0
18 *125:25 *1026:C1 2.24048e-05
19 *125:25 *183:10 5.80963e-05
20 *128:34 *1026:C1 0.000194318
21 *150:8 *1026:C1 6.7177e-06
22 *150:10 *1026:C1 2.11887e-05
23 *151:10 *183:10 5.56203e-05
24 *156:14 *183:10 1.35714e-05
25 *157:23 *1026:C1 7.59794e-05
26 *159:10 *1026:C1 9.84851e-05
27 *159:10 *183:10 1.94685e-05
*RES
1 *1025:Y *183:10 43.5929 
2 *183:10 *1030:A2 45.7679 
3 *183:10 *1026:C1 43.3857 
*END

*D_NET *184 0.000760991
*CONN
*I *1027:B I *D sky130_fd_sc_hd__nor2_1
*I *1026:X O *D sky130_fd_sc_hd__o221a_1
*CAP
1 *1027:B 0
2 *1026:X 0.000313821
3 *184:8 0.000313821
4 *1029:B1 *184:8 6.9997e-05
5 *146:31 *184:8 6.33511e-05
*RES
1 *1026:X *184:8 43.075 
2 *184:8 *1027:B 38 
*END

*D_NET *185 0.00148742
*CONN
*I *1033:B I *D sky130_fd_sc_hd__or4b_1
*I *1027:Y O *D sky130_fd_sc_hd__nor2_1
*CAP
1 *1033:B 0.00017247
2 *1027:Y 0.000496693
3 *185:12 0.000669163
4 *1033:B *293:40 0.000124874
5 *185:12 *187:10 0
6 *185:12 *196:22 2.42177e-05
*RES
1 *1027:Y *185:12 47.3629 
2 *185:12 *1033:B 40.5271 
*END

*D_NET *186 0.00128689
*CONN
*I *1029:A2 I *D sky130_fd_sc_hd__o21a_1
*I *1028:X O *D sky130_fd_sc_hd__and2b_1
*CAP
1 *1029:A2 0
2 *1028:X 0.000318402
3 *186:6 0.000318402
4 *993:B *186:6 0.000441065
5 *993:C *186:6 3.42137e-05
6 *151:10 *186:6 9.30151e-05
7 *158:10 *186:6 8.1796e-05
*RES
1 *1028:X *186:6 30.7679 
2 *186:6 *1029:A2 23 
*END

*D_NET *187 0.0018607
*CONN
*I *1033:C I *D sky130_fd_sc_hd__or4b_1
*I *1029:X O *D sky130_fd_sc_hd__o21a_1
*CAP
1 *1033:C 1.11013e-05
2 *1029:X 0.000265136
3 *187:18 0.000285874
4 *187:10 0.000539909
5 *1033:C *244:60 5.5792e-05
6 *1033:C *293:40 5.82853e-05
7 *187:10 *190:12 0.000298901
8 *187:18 *190:12 9.88119e-05
9 *187:18 *212:88 7.50826e-05
10 *993:C *187:10 1.24376e-05
11 *998:A *187:18 7.48608e-05
12 *1027:A *187:10 5.10805e-05
13 *1031:B1_N *187:18 2.20484e-05
14 *156:8 *187:18 1.13812e-05
15 *185:12 *187:10 0
*RES
1 *1029:X *187:10 43.5929 
2 *187:10 *187:18 35.2407 
3 *187:18 *1033:C 38.6214 
*END

*D_NET *188 0.00035505
*CONN
*I *1032:B1 I *D sky130_fd_sc_hd__o211a_1
*I *1030:Y O *D sky130_fd_sc_hd__o21ai_1
*CAP
1 *1032:B1 4.79949e-05
2 *1030:Y 4.79949e-05
3 *1032:B1 *189:12 5.95135e-05
4 *1030:A1 *1032:B1 0.000144501
5 *1030:B1 *1032:B1 1.59071e-05
6 *1032:A2 *1032:B1 3.91386e-05
*RES
1 *1030:Y *1032:B1 48.0714 
*END

*D_NET *189 0.000864269
*CONN
*I *1032:C1 I *D sky130_fd_sc_hd__o211a_1
*I *1031:X O *D sky130_fd_sc_hd__o21ba_1
*CAP
1 *1032:C1 0
2 *1031:X 0.000153815
3 *189:12 0.000153815
4 *1030:A1 *189:12 1.03836e-05
5 *1030:A2 *189:12 2.43944e-05
6 *1030:B1 *189:12 0.000270827
7 *1032:A2 *189:12 0.000191521
8 *1032:B1 *189:12 5.95135e-05
*RES
1 *1031:X *189:12 28.0957 
2 *189:12 *1032:C1 23 
*END

*D_NET *190 0.001935
*CONN
*I *1033:D_N I *D sky130_fd_sc_hd__or4b_1
*I *1032:X O *D sky130_fd_sc_hd__o211a_1
*CAP
1 *1033:D_N 0
2 *1032:X 0.000515384
3 *190:12 0.000515384
4 *190:12 *196:22 1.13812e-05
5 *1031:B1_N *190:12 1.78402e-05
6 *147:12 *190:12 0.000221184
7 *156:8 *190:12 3.49318e-05
8 *157:29 *190:12 0.000221184
9 *187:10 *190:12 0.000298901
10 *187:18 *190:12 9.88119e-05
*RES
1 *1032:X *190:12 49.8279 
2 *190:12 *1033:D_N 38 
*END

*D_NET *191 0.00110288
*CONN
*I *1034:A3 I *D sky130_fd_sc_hd__o31a_1
*I *1033:X O *D sky130_fd_sc_hd__or4b_1
*CAP
1 *1034:A3 0.000264743
2 *1033:X 6.43829e-05
3 *191:8 0.000329126
4 *1034:A3 *196:16 0.000358873
5 *175:8 *191:8 8.57577e-05
*RES
1 *1033:X *191:8 39.2014 
2 *191:8 *1034:A3 42.4536 
*END

*D_NET *192 0.00215438
*CONN
*I *1035:B1 I *D sky130_fd_sc_hd__a31o_1
*I *1039:B1 I *D sky130_fd_sc_hd__a31o_1
*I *1043:B1 I *D sky130_fd_sc_hd__a31o_1
*I *1034:X O *D sky130_fd_sc_hd__o31a_1
*CAP
1 *1035:B1 0
2 *1039:B1 0
3 *1043:B1 3.90555e-05
4 *1034:X 0.000160017
5 *192:38 0.000119206
6 *192:18 0.000224461
7 *192:10 0.000464628
8 *1043:B1 *1043:A1 0.000141095
9 *192:10 *1039:A1 8.02548e-05
10 *192:10 *195:10 2.34279e-05
11 *192:10 *196:16 0.000186041
12 *192:18 *996:D 3.35554e-05
13 *192:18 *195:10 0.000141251
14 *192:18 *245:72 2.24366e-06
15 *192:38 *245:72 0.00016852
16 *1035:A3 *192:38 0.000144494
17 *1043:A2 *1043:B1 0.000141095
18 *180:25 *192:38 8.50366e-05
*RES
1 *1034:X *192:10 26.6457 
2 *192:10 *192:18 32.7757 
3 *192:18 *1043:B1 24.5743 
4 *192:18 *1039:B1 23 
5 *192:10 *192:38 33.48 
6 *192:38 *1035:B1 23 
*END

*D_NET *193 0.0065937
*CONN
*I *1036:B2 I *D sky130_fd_sc_hd__a22o_1
*I *1035:X O *D sky130_fd_sc_hd__a31o_1
*CAP
1 *1036:B2 0
2 *1035:X 0.000288523
3 *193:28 0.000276434
4 *193:18 0.00212614
5 *193:10 0.00213823
6 *193:10 *996:D 8.83401e-05
7 *193:10 *198:10 8.36198e-05
8 *193:10 *213:74 0
9 *193:10 *214:96 5.39341e-05
10 *193:18 *1044:A2 0.000231039
11 *193:18 *1089:A 1.59094e-05
12 *193:18 *199:20 4.05745e-05
13 *193:18 *211:62 0.000222256
14 *193:18 *247:94 9.8592e-06
15 *193:18 *293:40 0.000449266
16 *193:28 *1036:A2 6.17437e-06
17 *193:28 *1036:B1 2.99519e-05
18 *193:28 *211:62 0.000166387
19 *193:28 *263:18 2.09577e-05
20 *193:28 *277:14 1.39826e-05
21 *193:28 *295:8 8.57485e-05
22 *925:B *193:18 9.97994e-06
23 *42:8 *193:28 5.03503e-05
24 *83:14 *193:18 0.000186041
*RES
1 *1035:X *193:10 42.64 
2 *193:10 *193:18 40.085 
3 *193:18 *193:28 35.51 
4 *193:28 *1036:B2 23 
*END

*D_NET *194 0.000561733
*CONN
*I *1039:A1 I *D sky130_fd_sc_hd__a31o_1
*I *1037:Y O *D sky130_fd_sc_hd__inv_2
*CAP
1 *1039:A1 0.000106608
2 *1037:Y 0.000106608
3 *1039:A1 *1043:A1 0.000185616
4 *1039:A1 *195:10 2.46906e-05
5 *1043:A2 *1039:A1 5.79559e-05
6 *192:10 *1039:A1 8.02548e-05
*RES
1 *1037:Y *1039:A1 49.0036 
*END

*D_NET *195 0.00124626
*CONN
*I *1039:A3 I *D sky130_fd_sc_hd__a31o_1
*I *1038:X O *D sky130_fd_sc_hd__a22o_1
*CAP
1 *1039:A3 0
2 *1038:X 0.000310222
3 *195:10 0.000310222
4 *195:10 *1043:A3 1.08287e-05
5 *195:10 *196:16 0
6 *195:10 *214:96 0.000111502
7 *1039:A1 *195:10 2.46906e-05
8 *1043:A2 *195:10 0.000314117
9 *192:10 *195:10 2.34279e-05
10 *192:18 *195:10 0.000141251
*RES
1 *1038:X *195:10 29.8564 
2 *195:10 *1039:A3 23 
*END

*D_NET *196 0.00254792
*CONN
*I *1040:B2 I *D sky130_fd_sc_hd__a22o_1
*I *1039:X O *D sky130_fd_sc_hd__a31o_1
*CAP
1 *1040:B2 0
2 *1039:X 0.000686958
3 *196:22 0.000128149
4 *196:16 0.000815107
5 *1017:B *196:16 0.000145171
6 *1034:A1 *196:16 8.04206e-05
7 *1034:A2 *196:16 5.58003e-05
8 *1034:A3 *196:16 0.000358873
9 *1034:B1 *196:16 5.58003e-05
10 *185:12 *196:22 2.42177e-05
11 *190:12 *196:22 1.13812e-05
12 *192:10 *196:16 0.000186041
13 *195:10 *196:16 0
*RES
1 *1039:X *196:16 37.065 
2 *196:16 *196:22 32.2579 
3 *196:22 *1040:B2 23 
*END

*D_NET *197 0.00112743
*CONN
*I *1043:A1 I *D sky130_fd_sc_hd__a31o_1
*I *1041:Y O *D sky130_fd_sc_hd__inv_2
*CAP
1 *1043:A1 0.000248733
2 *1041:Y 5.50257e-05
3 *197:8 0.000303759
4 *1043:A1 *1043:A3 7.45883e-05
5 *197:8 *245:72 3.98887e-05
6 *1039:A1 *1043:A1 0.000185616
7 *1043:A2 *1043:A1 3.75945e-05
8 *1043:B1 *1043:A1 0.000141095
9 *127:10 *197:8 4.11274e-05
*RES
1 *1041:Y *197:8 39.2014 
2 *197:8 *1043:A1 43.4271 
*END

*D_NET *198 0.00153339
*CONN
*I *1043:A3 I *D sky130_fd_sc_hd__a31o_1
*I *1042:X O *D sky130_fd_sc_hd__a21o_1
*CAP
1 *1043:A3 0.000147699
2 *1042:X 0.000323192
3 *198:10 0.000470891
4 *198:10 *995:A1 9.41704e-05
5 *198:10 *996:C 1.18474e-05
6 *198:10 *996:D 0.000161875
7 *198:10 *213:54 0
8 *198:10 *245:72 0
9 *198:10 *245:107 8.36198e-05
10 *983:D *198:10 1.13812e-05
11 *1043:A1 *1043:A3 7.45883e-05
12 *1043:A2 *1043:A3 1.46205e-05
13 *140:10 *198:10 3.11916e-05
14 *153:8 *198:10 1.3867e-05
15 *193:10 *198:10 8.36198e-05
16 *195:10 *1043:A3 1.08287e-05
*RES
1 *1042:X *198:10 43.5929 
2 *198:10 *1043:A3 40.4236 
*END

*D_NET *199 0.00412251
*CONN
*I *1044:B2 I *D sky130_fd_sc_hd__a22o_1
*I *1043:X O *D sky130_fd_sc_hd__a31o_1
*CAP
1 *1044:B2 0
2 *1043:X 0.00109478
3 *199:20 0.000196705
4 *199:12 0.00129148
5 *199:12 *911:B 0.000130213
6 *199:12 *912:B2 8.30041e-05
7 *199:12 *1038:A2 7.64944e-05
8 *199:12 *1067:RESET_B 5.40241e-05
9 *199:12 *214:96 2.09577e-05
10 *199:12 *214:110 0.000179488
11 *199:12 *265:51 1.61385e-05
12 *199:12 *265:68 0.000137525
13 *199:12 *280:10 0.00022648
14 *199:20 *1044:A2 5.56279e-05
15 *199:20 *211:50 5.3304e-05
16 *199:20 *244:33 0.000163922
17 *199:20 *296:86 0
18 *69:8 *199:12 9.41704e-05
19 *69:14 *199:12 3.50667e-05
20 *69:29 *199:12 1.61385e-05
21 *70:6 *199:12 5.3304e-05
22 *70:10 *199:12 0.000103113
23 *193:18 *199:20 4.05745e-05
*RES
1 *1043:X *199:12 40.4829 
2 *199:12 *199:20 33.8321 
3 *199:20 *1044:B2 23 
*END

*D_NET *200 0.000970144
*CONN
*I *1046:B1_N I *D sky130_fd_sc_hd__a21bo_1
*I *1045:X O *D sky130_fd_sc_hd__or3_1
*CAP
1 *1046:B1_N 0
2 *1045:X 0.000362361
3 *200:10 0.000362361
4 *200:10 *211:10 8.39524e-05
5 *200:10 *243:65 0.000140021
6 *200:10 *281:10 2.14486e-05
*RES
1 *1045:X *200:10 44.5457 
2 *200:10 *1046:B1_N 38 
*END

*D_NET *201 0.000647995
*CONN
*I *1048:B1 I *D sky130_fd_sc_hd__a31o_1
*I *1047:X O *D sky130_fd_sc_hd__and2_1
*CAP
1 *1048:B1 0
2 *1047:X 0.000317032
3 *201:10 0.000317032
4 *201:10 *849:A 1.39317e-05
5 *201:10 *1092:A 0
6 *201:10 *310:55 0
*RES
1 *1047:X *201:10 43.3443 
2 *201:10 *1048:B1 38 
*END

*D_NET *202 0.000146879
*CONN
*I *1050:B1 I *D sky130_fd_sc_hd__a31o_1
*I *1049:X O *D sky130_fd_sc_hd__and2_1
*CAP
1 *1050:B1 5.72956e-05
2 *1049:X 5.72956e-05
3 *1050:B1 *1049:A 3.22879e-05
*RES
1 *1049:X *1050:B1 47.0979 
*END

*D_NET *203 0.000250413
*CONN
*I *1052:B1 I *D sky130_fd_sc_hd__a31o_1
*I *1051:X O *D sky130_fd_sc_hd__and2_1
*CAP
1 *1052:B1 7.49636e-05
2 *1051:X 7.49636e-05
3 *1052:B1 *211:128 0.000100486
*RES
1 *1051:X *1052:B1 47.5743 
*END

*D_NET *204 0.000115175
*CONN
*I *1054:B1 I *D sky130_fd_sc_hd__a31o_1
*I *1053:X O *D sky130_fd_sc_hd__and2_1
*CAP
1 *1054:B1 5.75876e-05
2 *1053:X 5.75876e-05
*RES
1 *1053:X *1054:B1 47.0979 
*END

*D_NET *205 0.00102818
*CONN
*I *1056:B1 I *D sky130_fd_sc_hd__a31o_1
*I *1055:X O *D sky130_fd_sc_hd__and2_1
*CAP
1 *1056:B1 0
2 *1055:X 0.000233186
3 *205:10 0.000233186
4 *205:10 *1055:A 0.000240719
5 *205:10 *209:16 6.07611e-06
6 *205:10 *209:20 0.000172291
7 *205:10 *211:122 0.000131735
8 *205:10 *268:16 1.09834e-05
*RES
1 *1055:X *205:10 43.8207 
2 *205:10 *1056:B1 38 
*END

*D_NET *206 0.00114746
*CONN
*I *1058:B1 I *D sky130_fd_sc_hd__a31o_1
*I *1057:X O *D sky130_fd_sc_hd__and2_1
*CAP
1 *1058:B1 0
2 *1057:X 0.000219306
3 *206:10 0.000219306
4 *206:10 *1074:RESET_B 0.000138708
5 *206:10 *209:45 9.168e-05
6 *206:10 *209:58 0.000299169
7 *206:10 *265:10 8.51167e-05
8 *206:10 *276:22 9.41704e-05
*RES
1 *1057:X *206:10 44.1729 
2 *206:10 *1058:B1 38 
*END

*D_NET *207 0.00149785
*CONN
*I *1060:B1 I *D sky130_fd_sc_hd__a31o_1
*I *1059:X O *D sky130_fd_sc_hd__and2_1
*CAP
1 *1060:B1 4.35097e-05
2 *1059:X 0.000187758
3 *207:8 0.000231268
4 *1060:B1 *243:24 0.000323904
5 *1060:B1 *310:55 0.000326398
6 *207:8 *1093:A 0
7 *207:8 *310:55 0.000346523
8 *46:10 *207:8 3.84905e-05
*RES
1 *1059:X *207:8 42.7229 
2 *207:8 *1060:B1 41.48 
*END

*D_NET *208 0.000448352
*CONN
*I *1062:B1 I *D sky130_fd_sc_hd__a31o_1
*I *1061:X O *D sky130_fd_sc_hd__and2_1
*CAP
1 *1062:B1 3.54823e-05
2 *1061:X 5.77072e-05
3 *208:8 9.31896e-05
4 *1062:B1 *217:50 2.93845e-05
5 *1062:B1 *243:42 6.87338e-05
6 *208:8 *209:32 0.000112847
7 *208:8 *265:10 5.10083e-05
*RES
1 *1061:X *208:8 39.5536 
2 *208:8 *1062:B1 39.1186 
*END

*D_NET *209 0.0182581
*CONN
*I *1054:A2 I *D sky130_fd_sc_hd__a31o_1
*I *1052:A2 I *D sky130_fd_sc_hd__a31o_1
*I *1050:A2 I *D sky130_fd_sc_hd__a31o_1
*I *1056:A2 I *D sky130_fd_sc_hd__a31o_1
*I *1048:A2 I *D sky130_fd_sc_hd__a31o_1
*I *1060:A2 I *D sky130_fd_sc_hd__a31o_1
*I *880:A2 I *D sky130_fd_sc_hd__o21ba_1
*I *845:A I *D sky130_fd_sc_hd__inv_2
*I *1058:A2 I *D sky130_fd_sc_hd__a31o_1
*I *1062:A2 I *D sky130_fd_sc_hd__a31o_1
*I *844:X O *D sky130_fd_sc_hd__clkbuf_4
*CAP
1 *1054:A2 0
2 *1052:A2 0
3 *1050:A2 4.26341e-05
4 *1056:A2 0
5 *1048:A2 2.18824e-05
6 *1060:A2 2.18824e-05
7 *880:A2 0.000300597
8 *845:A 9.06371e-05
9 *1058:A2 8.43701e-05
10 *1062:A2 0
11 *844:X 0
12 *209:125 0.000391472
13 *209:58 0.000573631
14 *209:45 0.000526982
15 *209:32 0.00124212
16 *209:24 0.00130874
17 *209:22 0.00202238
18 *209:20 0.00209169
19 *209:16 0.000569257
20 *209:14 0.000464774
21 *209:10 0.000636561
22 *209:4 0.000779014
23 *845:A *1057:B 0
24 *845:A *210:49 9.41704e-05
25 *880:A2 *1074:RESET_B 0.000210364
26 *880:A2 *211:10 0.000580655
27 *880:A2 *211:35 0.000245222
28 *880:A2 *293:66 0.000191713
29 *1050:A2 *1050:A3 1.24376e-05
30 *1050:A2 *213:118 2.16757e-05
31 *1058:A2 *211:10 1.21972e-05
32 *1058:A2 *309:77 6.17437e-06
33 *209:10 *211:128 3.50862e-06
34 *209:10 *211:132 0
35 *209:10 *243:138 0.000121969
36 *209:10 *277:36 2.45549e-06
37 *209:14 *211:128 0
38 *209:14 *243:121 0.000175996
39 *209:14 *243:138 1.74126e-05
40 *209:16 *211:122 8.45016e-05
41 *209:16 *211:128 0
42 *209:16 *243:110 7.45278e-05
43 *209:16 *243:121 3.3123e-05
44 *209:16 *310:22 5.24393e-05
45 *209:20 *1055:A 1.50409e-05
46 *209:20 *275:8 0
47 *209:20 *310:22 0.000272312
48 *209:22 *214:14 0.000546009
49 *209:22 *243:20 0.000767041
50 *209:22 *311:12 0.000156134
51 *209:24 *243:20 1.61385e-05
52 *209:24 *243:24 6.06127e-05
53 *209:24 *310:55 0.000413284
54 *209:32 *1061:A 0
55 *209:32 *1076:RESET_B 0.000287505
56 *209:32 *243:24 6.63159e-06
57 *209:32 *243:42 1.85591e-05
58 *209:32 *243:48 1.19796e-05
59 *209:32 *261:45 0.000170043
60 *209:32 *265:10 7.37626e-05
61 *209:45 *211:10 0.000145049
62 *209:45 *243:48 3.29039e-05
63 *209:45 *265:10 3.884e-05
64 *209:58 *1074:RESET_B 4.74809e-05
65 *209:58 *211:10 0.000388502
66 *209:125 *211:132 0
67 *209:125 *243:138 0.000663414
68 *47:10 *1050:A2 2.93845e-05
69 *47:10 *209:14 0.000141879
70 *48:10 *209:10 6.68378e-05
71 *53:8 *209:32 9.75495e-05
72 *205:10 *209:16 6.07611e-06
73 *205:10 *209:20 0.000172291
74 *206:10 *209:45 9.168e-05
75 *206:10 *209:58 0.000299169
76 *208:8 *209:32 0.000112847
*RES
1 *844:X *209:4 23 
2 *209:4 *209:10 23.1614 
3 *209:10 *209:14 6.04857 
4 *209:14 *209:16 3.66643 
5 *209:16 *209:20 23.9486 
6 *209:20 *209:22 35.8771 
7 *209:22 *209:24 6.815 
8 *209:24 *209:32 31.53 
9 *209:32 *1062:A2 38 
10 *209:32 *209:45 4.43286 
11 *209:45 *1058:A2 39.4707 
12 *209:45 *209:58 5.42714 
13 *209:58 *845:A 39.595 
14 *209:58 *880:A2 49.0614 
15 *209:24 *1060:A2 23.4971 
16 *209:22 *1048:A2 23.4971 
17 *209:16 *1056:A2 38 
18 *209:14 *1050:A2 39.1186 
19 *209:10 *1052:A2 38 
20 *209:4 *209:125 39.9221 
21 *209:125 *1054:A2 23 
*END

*D_NET *210 0.00709441
*CONN
*I *1057:A I *D sky130_fd_sc_hd__and2_1
*I *1045:A I *D sky130_fd_sc_hd__or3_1
*I *1059:A I *D sky130_fd_sc_hd__and2_1
*I *846:A I *D sky130_fd_sc_hd__buf_2
*I *1061:A I *D sky130_fd_sc_hd__and2_1
*I *845:Y O *D sky130_fd_sc_hd__inv_2
*CAP
1 *1057:A 0
2 *1045:A 0
3 *1059:A 0.000365375
4 *846:A 0
5 *1061:A 0.00019201
6 *845:Y 0
7 *210:55 6.92383e-05
8 *210:49 0.000208454
9 *210:29 0.000127514
10 *210:23 0.000612056
11 *210:8 0.000577652
12 *210:6 0.000405692
13 *1059:A *849:A 0.000104388
14 *1059:A *1059:B 7.73389e-05
15 *1059:A *211:82 0.000699031
16 *1059:A *217:50 0.000906859
17 *1059:A *263:57 0.000231039
18 *1061:A *243:48 6.48049e-05
19 *210:8 *243:48 0.000194309
20 *210:8 *243:65 0.000345555
21 *210:8 *263:10 0
22 *210:23 *217:50 0.000141052
23 *210:23 *243:42 1.54983e-05
24 *210:23 *243:48 5.41385e-05
25 *210:23 *263:57 0.000349813
26 *210:29 *265:10 0.000187986
27 *210:29 *289:14 0
28 *210:49 *1057:B 9.58714e-05
29 *210:49 *243:65 6.16439e-05
30 *210:49 *263:10 0
31 *210:49 *276:8 4.21594e-06
32 *210:49 *276:22 0.000261956
33 *210:55 *1074:RESET_B 0.000221124
34 *210:55 *265:37 0.000221124
35 *845:A *210:49 9.41704e-05
36 *1094:A *1061:A 0
37 *51:10 *210:8 3.56537e-05
38 *53:8 *1061:A 0.00016885
39 *209:32 *1061:A 0
*RES
1 *845:Y *210:6 38 
2 *210:6 *210:8 7.18786 
3 *210:8 *1061:A 42.2879 
4 *210:8 *210:23 18.9564 
5 *210:23 *210:29 32.61 
6 *210:29 *846:A 23 
7 *210:23 *1059:A 36.9821 
8 *210:6 *210:49 18.8529 
9 *210:49 *210:55 32.9621 
10 *210:55 *1045:A 23 
11 *210:49 *1057:A 23 
*END

*D_NET *211 0.0284814
*CONN
*I *1049:A I *D sky130_fd_sc_hd__and2_1
*I *1051:A I *D sky130_fd_sc_hd__and2_1
*I *1040:A1 I *D sky130_fd_sc_hd__a22o_1
*I *1053:A I *D sky130_fd_sc_hd__and2_1
*I *1055:A I *D sky130_fd_sc_hd__and2_1
*I *1047:A I *D sky130_fd_sc_hd__and2_1
*I *1044:A1 I *D sky130_fd_sc_hd__a22o_1
*I *1036:A1 I *D sky130_fd_sc_hd__a22o_1
*I *879:A I *D sky130_fd_sc_hd__nor2_1
*I *1046:A1 I *D sky130_fd_sc_hd__a21bo_1
*I *846:X O *D sky130_fd_sc_hd__buf_2
*CAP
1 *1049:A 0.000165581
2 *1051:A 0
3 *1040:A1 0
4 *1053:A 3.24351e-05
5 *1055:A 0.000218403
6 *1047:A 0
7 *1044:A1 0
8 *1036:A1 0
9 *879:A 2.77218e-05
10 *1046:A1 4.24639e-05
11 *846:X 0
12 *211:147 0.000898445
13 *211:132 0.00162263
14 *211:128 0.00110674
15 *211:122 0.000855623
16 *211:105 0.00049345
17 *211:103 0.00140152
18 *211:88 0.00147857
19 *211:82 0.00113908
20 *211:62 0.000307172
21 *211:50 0.000734869
22 *211:35 0.00113461
23 *211:10 0.00139562
24 *211:4 0.00173601
25 *879:A *1120:A 2.64616e-05
26 *879:A *261:91 5.3304e-05
27 *1046:A1 *1087:A 2.64616e-05
28 *1049:A *1049:B 5.41288e-05
29 *1049:A *213:118 0
30 *1053:A *308:8 2.95526e-05
31 *1055:A *1055:B 0.000102971
32 *1055:A *1073:RESET_B 0
33 *1055:A *268:16 0.000262732
34 *211:10 *243:48 9.48318e-05
35 *211:10 *243:65 0.00064582
36 *211:10 *281:10 0
37 *211:10 *309:77 0.000309116
38 *211:35 *880:A1 0.000170977
39 *211:35 *1065:CLK 5.01986e-05
40 *211:35 *1081:A 4.96717e-05
41 *211:35 *243:78 0.000136609
42 *211:35 *244:16 0.000115764
43 *211:35 *261:81 8.62876e-05
44 *211:35 *281:10 0
45 *211:35 *281:27 0
46 *211:50 *1044:A2 3.43522e-05
47 *211:50 *1044:B1 7.85062e-05
48 *211:50 *1065:CLK 0.00021356
49 *211:50 *1120:A 2.16891e-05
50 *211:50 *244:16 5.40616e-06
51 *211:50 *244:33 0.000451889
52 *211:50 *244:35 2.05503e-05
53 *211:50 *267:91 0.000386392
54 *211:62 *1044:A2 5.50483e-05
55 *211:62 *277:14 0.000195316
56 *211:82 *849:A 0.000238151
57 *211:82 *261:12 0
58 *211:82 *293:84 3.54728e-05
59 *211:82 *309:77 0.000413698
60 *211:88 *1092:A 2.76611e-06
61 *211:88 *310:55 0
62 *211:103 *849:A 9.86932e-05
63 *211:103 *871:A2_N 5.52998e-05
64 *211:103 *1047:B 5.67058e-05
65 *211:103 *1073:CLK 8.07935e-05
66 *211:103 *1092:A 0.000185434
67 *211:103 *213:93 8.53165e-05
68 *211:103 *213:118 3.78992e-05
69 *211:103 *214:14 0.000144501
70 *211:103 *214:23 0.00152762
71 *211:103 *214:43 0.000316552
72 *211:103 *217:126 2.07355e-05
73 *211:103 *234:21 6.44924e-05
74 *211:103 *236:8 1.14876e-05
75 *211:103 *310:14 1.48311e-05
76 *211:103 *311:32 0.000126114
77 *211:103 *311:38 0.000752298
78 *211:122 *1073:RESET_B 0
79 *211:128 *1051:B 5.76359e-05
80 *211:128 *1073:RESET_B 0
81 *211:132 *312:31 0.000853816
82 *211:132 *312:33 0.000223805
83 *211:147 *279:21 0.000500161
84 *211:147 *293:40 2.18286e-05
85 *211:147 *298:6 0.000543405
86 *880:A2 *211:10 0.000580655
87 *880:A2 *211:35 0.000245222
88 *1050:B1 *1049:A 3.22879e-05
89 *1052:B1 *211:128 0.000100486
90 *1058:A2 *211:10 1.21972e-05
91 *1059:A *211:82 0.000699031
92 *47:10 *211:128 4.58924e-05
93 *55:37 *211:103 2.18506e-05
94 *61:35 *211:103 0.000137804
95 *63:12 *211:103 3.90643e-05
96 *168:6 *211:103 2.73744e-05
97 *168:23 *211:103 6.65213e-05
98 *193:18 *211:62 0.000222256
99 *193:28 *211:62 0.000166387
100 *199:20 *211:50 5.3304e-05
101 *200:10 *211:10 8.39524e-05
102 *205:10 *1055:A 0.000240719
103 *205:10 *211:122 0.000131735
104 *209:10 *211:128 3.50862e-06
105 *209:10 *211:132 0
106 *209:14 *211:128 0
107 *209:16 *211:122 8.45016e-05
108 *209:16 *211:128 0
109 *209:20 *1055:A 1.50409e-05
110 *209:45 *211:10 0.000145049
111 *209:58 *211:10 0.000388502
112 *209:125 *211:132 0
*RES
1 *846:X *211:4 23 
2 *211:4 *211:10 33.8914 
3 *211:10 *1046:A1 38.6214 
4 *211:10 *211:35 42.6979 
5 *211:35 *879:A 38.6214 
6 *211:35 *211:50 26.3514 
7 *211:50 *211:62 37.5607 
8 *211:62 *1036:A1 23 
9 *211:50 *1044:A1 23 
10 *211:4 *211:82 46.7371 
11 *211:82 *211:88 31.2014 
12 *211:88 *1047:A 23 
13 *211:88 *211:103 37.265 
14 *211:103 *211:105 15 
15 *211:105 *1055:A 44.6907 
16 *211:105 *211:122 6.03821 
17 *211:122 *211:128 23.4411 
18 *211:128 *211:132 32.0479 
19 *211:132 *1053:A 38.6214 
20 *211:132 *211:147 33.2286 
21 *211:147 *1040:A1 23 
22 *211:128 *1051:A 23 
23 *211:122 *1049:A 41.0243 
*END

*D_NET *212 0.0194599
*CONN
*I *943:A2 I *D sky130_fd_sc_hd__a22o_1
*I *995:A2 I *D sky130_fd_sc_hd__a22o_1
*I *866:A I *D sky130_fd_sc_hd__xnor2_1
*I *1052:A1 I *D sky130_fd_sc_hd__a31o_1
*I *862:A1 I *D sky130_fd_sc_hd__o31a_1
*I *850:B I *D sky130_fd_sc_hd__or4_1
*I *983:B I *D sky130_fd_sc_hd__and4_1
*I *928:B1 I *D sky130_fd_sc_hd__a22o_1
*I *944:C I *D sky130_fd_sc_hd__nand4_2
*I *929:D I *D sky130_fd_sc_hd__nand4_1
*I *847:X O *D sky130_fd_sc_hd__clkbuf_4
*CAP
1 *943:A2 9.02811e-05
2 *995:A2 2.8819e-05
3 *866:A 0
4 *1052:A1 0
5 *862:A1 0
6 *850:B 0
7 *983:B 0
8 *928:B1 3.56555e-05
9 *944:C 0.00010737
10 *929:D 0.000159278
11 *847:X 0.000591646
12 *212:116 0.000887583
13 *212:108 0.00106377
14 *212:97 0.000626915
15 *212:88 0.00197639
16 *212:74 0.00180049
17 *212:61 0.00112891
18 *212:42 0.00100506
19 *212:31 0.000193879
20 *212:14 0.000480289
21 *212:12 0.000845947
22 *212:10 0.0010263
23 *928:B1 *928:A2 5.55743e-06
24 *929:D *1036:B1 1.7278e-05
25 *929:D *247:128 0.000162254
26 *929:D *263:18 2.64616e-05
27 *929:D *296:71 0.000151069
28 *929:D *296:86 1.24376e-05
29 *944:C *213:30 0.000203713
30 *944:C *247:128 2.64616e-05
31 *995:A2 *995:A1 5.8118e-05
32 *212:12 *296:59 0.000220109
33 *212:14 *247:128 6.2088e-05
34 *212:14 *280:23 0
35 *212:14 *296:59 0.000573981
36 *212:14 *296:71 0.000103344
37 *212:42 *928:A2 3.78835e-05
38 *212:42 *928:B2 2.93431e-05
39 *212:42 *213:30 0.000211469
40 *212:42 *247:128 2.64616e-05
41 *212:61 *928:A2 2.81066e-05
42 *212:61 *983:A 5.44109e-05
43 *212:61 *213:30 0.000550371
44 *212:74 *983:A 3.49843e-05
45 *212:74 *245:93 0.000147608
46 *212:74 *245:107 9.28078e-06
47 *212:88 *213:74 0.000115151
48 *212:88 *213:81 2.93747e-05
49 *212:88 *244:60 0.000256613
50 *212:88 *245:107 2.05503e-05
51 *212:88 *296:169 0.000166522
52 *212:97 *862:A2 0.000205271
53 *212:97 *862:A3 5.47983e-06
54 *212:97 *213:81 9.74722e-05
55 *212:108 *873:A2 0
56 *212:108 *229:10 0
57 *212:108 *273:16 0.000186025
58 *212:116 *876:A1 0.000318659
59 *212:116 *876:A2 6.33771e-05
60 *212:116 *876:B2 0.000157464
61 *212:116 *1052:A3 9.79925e-05
62 *212:116 *226:8 8.78864e-05
63 *212:116 *229:10 0
64 *212:116 *231:8 2.79004e-05
65 *212:116 *236:14 0
66 *212:116 *237:8 0
67 *212:116 *241:10 9.92279e-05
68 *212:116 *273:16 0.000297452
69 *931:A2 *212:61 0.000179725
70 *933:A1 *212:61 2.50118e-05
71 *933:A2 *212:61 7.66446e-06
72 *938:B *212:61 3.28357e-06
73 *983:D *212:74 0.000238222
74 *983:D *212:88 2.23467e-05
75 *1004:A2 *212:88 0
76 *1020:A *212:88 0
77 *1020:C *212:88 8.36198e-05
78 *1031:B1_N *212:88 4.50551e-05
79 *1033:A *212:88 8.43674e-05
80 *86:10 *212:61 1.24362e-05
81 *87:10 *212:14 0
82 *87:23 *212:14 0
83 *89:6 *212:61 3.71887e-05
84 *89:15 *212:61 1.33811e-05
85 *90:18 *212:61 3.15669e-05
86 *96:10 *212:61 0.000182222
87 *98:10 *212:14 0
88 *100:21 *212:12 0.000157147
89 *101:10 *212:12 0.000188712
90 *102:16 *943:A2 9.41704e-05
91 *102:16 *212:12 3.32272e-05
92 *112:10 *212:12 3.76854e-05
93 *116:8 *943:A2 2.31591e-05
94 *119:8 *212:10 0.000749417
95 *141:8 *212:74 1.3523e-05
96 *175:8 *212:88 8.78864e-05
97 *187:18 *212:88 7.50826e-05
*RES
1 *847:X *212:10 46.8657 
2 *212:10 *212:12 7.89214 
3 *212:12 *212:14 8.94857 
4 *212:14 *929:D 41.9979 
5 *212:14 *212:31 15 
6 *212:31 *944:C 25.9 
7 *212:31 *212:42 2.52714 
8 *212:42 *928:B1 23.8493 
9 *212:42 *212:61 17.8764 
10 *212:61 *983:B 23 
11 *212:61 *212:74 20.8621 
12 *212:74 *212:88 44.3262 
13 *212:88 *850:B 23 
14 *212:88 *212:97 7.54 
15 *212:97 *862:A1 23 
16 *212:97 *212:108 18.7079 
17 *212:108 *212:116 32.9179 
18 *212:116 *1052:A1 23 
19 *212:108 *866:A 38 
20 *212:74 *995:A2 38.6214 
21 *212:12 *943:A2 39.5743 
*END

*D_NET *213 0.0198298
*CONN
*I *944:D I *D sky130_fd_sc_hd__nand4_2
*I *996:C I *D sky130_fd_sc_hd__and4_1
*I *1038:A2 I *D sky130_fd_sc_hd__a22o_1
*I *862:A2 I *D sky130_fd_sc_hd__o31a_1
*I *865:A1 I *D sky130_fd_sc_hd__o21a_1
*I *1050:A1 I *D sky130_fd_sc_hd__a31o_1
*I *869:A I *D sky130_fd_sc_hd__xor2_1
*I *850:C I *D sky130_fd_sc_hd__or4_1
*I *982:A2 I *D sky130_fd_sc_hd__a22o_1
*I *974:C I *D sky130_fd_sc_hd__and4_1
*I *848:X O *D sky130_fd_sc_hd__clkbuf_4
*CAP
1 *944:D 0
2 *996:C 0.000199737
3 *1038:A2 6.35819e-05
4 *862:A2 9.93261e-05
5 *865:A1 5.35848e-05
6 *1050:A1 0
7 *869:A 3.77054e-05
8 *850:C 0
9 *982:A2 0
10 *974:C 0
11 *848:X 0.000175258
12 *213:118 0.00108013
13 *213:93 0.0018962
14 *213:87 0.000963631
15 *213:81 0.000284568
16 *213:74 0.00168697
17 *213:60 0.00186922
18 *213:54 0.000810184
19 *213:43 8.101e-05
20 *213:37 0.000752282
21 *213:30 0.00138538
22 *213:12 0.00115232
23 *213:10 0.000175258
24 *862:A2 *862:A3 0.000148529
25 *862:A2 *214:72 2.02872e-05
26 *865:A1 *865:A2 5.41385e-05
27 *865:A1 *217:98 0.000139352
28 *1038:A2 *214:96 0.000133697
29 *213:10 *848:A 2.93431e-05
30 *213:10 *267:91 7.15351e-05
31 *213:30 *249:91 1.0092e-05
32 *213:30 *307:42 5.74648e-05
33 *213:37 *263:18 2.95526e-05
34 *213:43 *272:20 0.000134433
35 *213:54 *264:24 6.49268e-05
36 *213:60 *264:24 7.56617e-05
37 *213:74 *214:72 5.70419e-05
38 *213:74 *214:80 1.76557e-05
39 *213:74 *214:96 2.05503e-05
40 *213:74 *244:60 0.000112665
41 *213:74 *264:24 1.36853e-05
42 *213:74 *296:169 0
43 *213:81 *214:72 0.000120857
44 *213:87 *862:A3 0
45 *213:87 *214:70 0.000192087
46 *213:87 *215:8 7.80354e-05
47 *213:87 *217:104 0
48 *213:87 *296:169 0
49 *213:93 *214:55 0.0013936
50 *213:93 *214:70 2.55642e-05
51 *213:93 *215:8 0.000140295
52 *213:93 *215:16 0.000208824
53 *213:93 *217:126 9.5877e-05
54 *213:93 *239:8 8.78864e-05
55 *213:118 *877:A2 2.43944e-05
56 *213:118 *877:B1 7.91977e-05
57 *213:118 *877:B2 1.47394e-05
58 *213:118 *1050:A3 5.12254e-05
59 *213:118 *214:43 2.18286e-05
60 *213:118 *214:55 0
61 *213:118 *217:126 0
62 *213:118 *217:136 0.000144894
63 *213:118 *234:6 1.3523e-05
64 *213:118 *243:14 0.000125314
65 *213:118 *243:18 0.000159618
66 *910:A *213:93 0.000271392
67 *931:A2 *213:30 1.86415e-05
68 *944:C *213:30 0.000203713
69 *981:A *213:37 7.48505e-05
70 *981:A *213:54 9.5148e-05
71 *1049:A *213:118 0
72 *1050:A2 *213:118 2.16757e-05
73 *3:19 *213:93 3.88786e-05
74 *66:10 *213:93 0.000213551
75 *82:8 *213:43 5.71629e-05
76 *83:14 *213:30 4.36268e-05
77 *90:10 *213:30 4.43082e-05
78 *95:21 *213:74 6.7177e-06
79 *139:6 *213:54 4.6834e-05
80 *161:10 *213:74 0
81 *174:10 *213:74 0.000337889
82 *193:10 *213:74 0
83 *198:10 *996:C 1.18474e-05
84 *198:10 *213:54 0
85 *199:12 *1038:A2 7.64944e-05
86 *211:103 *213:93 8.53165e-05
87 *211:103 *213:118 3.78992e-05
88 *212:42 *213:30 0.000211469
89 *212:61 *213:30 0.000550371
90 *212:88 *213:74 0.000115151
91 *212:88 *213:81 2.93747e-05
92 *212:97 *862:A2 0.000205271
93 *212:97 *213:81 9.74722e-05
*RES
1 *848:X *213:10 41.0036 
2 *213:10 *213:12 15 
3 *213:12 *213:30 47.7521 
4 *213:30 *974:C 23 
5 *213:30 *213:37 3.00357 
6 *213:37 *213:43 31.9057 
7 *213:43 *982:A2 23 
8 *213:37 *213:54 21.3904 
9 *213:54 *213:60 3.20036 
10 *213:60 *213:74 40.9588 
11 *213:74 *850:C 23 
12 *213:74 *213:81 2.52714 
13 *213:81 *213:87 18.4593 
14 *213:87 *213:93 36.6879 
15 *213:93 *869:A 23.8493 
16 *213:93 *213:118 46.7786 
17 *213:118 *1050:A1 23 
18 *213:87 *865:A1 39.5743 
19 *213:81 *862:A2 26.9564 
20 *213:60 *1038:A2 40.0714 
21 *213:54 *996:C 40.2475 
22 *213:12 *944:D 23 
*END

*D_NET *214 0.0198161
*CONN
*I *862:A3 I *D sky130_fd_sc_hd__o31a_1
*I *850:D I *D sky130_fd_sc_hd__or4_1
*I *996:D I *D sky130_fd_sc_hd__and4_1
*I *1035:A2 I *D sky130_fd_sc_hd__a31o_1
*I *1038:B1 I *D sky130_fd_sc_hd__a22o_1
*I *982:B1 I *D sky130_fd_sc_hd__a22o_1
*I *865:A2 I *D sky130_fd_sc_hd__o21a_1
*I *868:B I *D sky130_fd_sc_hd__nand2_1
*I *871:A1_N I *D sky130_fd_sc_hd__o2bb2a_1
*I *1048:A1 I *D sky130_fd_sc_hd__a31o_1
*I *849:X O *D sky130_fd_sc_hd__buf_2
*CAP
1 *862:A3 0.000168814
2 *850:D 0
3 *996:D 0.000359936
4 *1035:A2 0
5 *1038:B1 0
6 *982:B1 0
7 *865:A2 0.000132285
8 *868:B 0
9 *871:A1_N 0
10 *1048:A1 0
11 *849:X 0
12 *214:110 0.00031013
13 *214:96 0.000694036
14 *214:82 0.000383905
15 *214:80 0.00141994
16 *214:72 0.00125223
17 *214:70 0.000485035
18 *214:55 0.000987804
19 *214:43 0.000201191
20 *214:35 0.000465048
21 *214:23 0.00202679
22 *214:14 0.000480054
23 *214:4 0.00151147
24 *865:A2 *217:98 1.03836e-05
25 *865:A2 *238:12 1.64402e-05
26 *996:D *245:72 0
27 *996:D *245:107 7.38742e-05
28 *996:D *293:40 0.000141177
29 *214:14 *1092:A 0
30 *214:14 *243:20 0.000299957
31 *214:35 *233:8 0
32 *214:35 *311:22 8.63669e-05
33 *214:35 *311:32 0.000259527
34 *214:43 *233:8 6.37905e-05
35 *214:43 *234:6 5.56279e-05
36 *214:43 *234:21 0.000218812
37 *214:43 *243:18 8.64543e-05
38 *214:55 *216:21 3.3746e-05
39 *214:55 *217:126 0.000138718
40 *214:55 *217:136 0
41 *214:55 *223:10 0.000428022
42 *214:55 *223:26 7.02729e-05
43 *214:55 *233:8 0
44 *214:55 *238:12 4.90994e-05
45 *214:55 *243:18 0
46 *214:55 *273:16 0
47 *214:55 *310:28 0
48 *214:55 *311:32 1.34354e-05
49 *214:70 *217:104 0
50 *214:70 *238:12 1.19692e-05
51 *214:80 *245:51 0.000243578
52 *214:80 *264:24 0
53 *214:96 *245:51 5.3304e-05
54 *214:96 *264:24 0
55 *214:96 *277:20 9.4812e-05
56 *214:110 *912:B1 3.28357e-06
57 *214:110 *912:B2 0.000137828
58 *214:110 *249:91 5.3304e-05
59 *214:110 *249:110 3.25507e-05
60 *214:110 *293:40 5.3304e-05
61 *214:110 *307:42 0.000185382
62 *862:A2 *862:A3 0.000148529
63 *862:A2 *214:72 2.02872e-05
64 *865:A1 *865:A2 5.41385e-05
65 *937:B *214:80 9.84851e-05
66 *1035:A3 *214:96 2.93747e-05
67 *1038:A2 *214:96 0.000133697
68 *3:19 *214:55 0
69 *82:8 *214:110 0.000183253
70 *93:18 *214:80 1.24376e-05
71 *93:25 *214:80 0.000155357
72 *95:6 *214:80 1.39317e-05
73 *95:21 *214:80 7.03476e-05
74 *154:8 *996:D 5.3304e-05
75 *174:10 *214:80 1.02949e-05
76 *192:18 *996:D 3.35554e-05
77 *193:10 *996:D 8.83401e-05
78 *193:10 *214:96 5.39341e-05
79 *195:10 *214:96 0.000111502
80 *198:10 *996:D 0.000161875
81 *199:12 *214:96 2.09577e-05
82 *199:12 *214:110 0.000179488
83 *209:22 *214:14 0.000546009
84 *211:103 *214:14 0.000144501
85 *211:103 *214:23 0.00152762
86 *211:103 *214:43 0.000316552
87 *212:97 *862:A3 5.47983e-06
88 *213:74 *214:72 5.70419e-05
89 *213:74 *214:80 1.76557e-05
90 *213:74 *214:96 2.05503e-05
91 *213:81 *214:72 0.000120857
92 *213:87 *862:A3 0
93 *213:87 *214:70 0.000192087
94 *213:93 *214:55 0.0013936
95 *213:93 *214:70 2.55642e-05
96 *213:118 *214:43 2.18286e-05
97 *213:118 *214:55 0
*RES
1 *849:X *214:4 23 
2 *214:4 *214:14 42.5114 
3 *214:14 *1048:A1 23 
4 *214:4 *214:23 31.82 
5 *214:23 *214:35 20.8207 
6 *214:35 *214:43 36.1055 
7 *214:43 *871:A1_N 23 
8 *214:35 *868:B 23 
9 *214:23 *214:55 20.2171 
10 *214:55 *865:A2 40.0714 
11 *214:55 *214:70 17.9621 
12 *214:70 *214:72 3.95643 
13 *214:72 *214:80 30.2664 
14 *214:80 *214:82 15 
15 *214:82 *214:96 39.135 
16 *214:96 *214:110 38.0579 
17 *214:110 *982:B1 23 
18 *214:96 *1038:B1 23 
19 *214:82 *1035:A2 23 
20 *214:80 *996:D 45.7057 
21 *214:72 *850:D 23 
22 *214:70 *862:A3 26.5007 
*END

*D_NET *215 0.00376477
*CONN
*I *859:B I *D sky130_fd_sc_hd__nand2_1
*I *851:C I *D sky130_fd_sc_hd__or3_1
*I *857:A2 I *D sky130_fd_sc_hd__o21a_1
*I *850:X O *D sky130_fd_sc_hd__or4_1
*CAP
1 *859:B 6.75341e-05
2 *851:C 0
3 *857:A2 2.29619e-05
4 *850:X 0.000311724
5 *215:16 0.000564586
6 *215:8 0.000920882
7 *857:A2 *851:A 5.55551e-05
8 *857:A2 *307:114 5.68439e-05
9 *857:A2 *307:123 5.52998e-05
10 *859:B *875:B2 3.86731e-05
11 *215:8 *217:98 0
12 *215:8 *224:8 1.94522e-05
13 *215:8 *239:8 8.78864e-05
14 *215:16 *851:A 7.10815e-05
15 *215:16 *217:17 0
16 *215:16 *307:123 4.2573e-05
17 *910:A *215:16 0.000258096
18 *1077:A *215:16 0.000145915
19 *3:19 *215:16 0.000124094
20 *66:10 *215:16 0.000135547
21 *68:10 *215:16 1.41891e-05
22 *68:29 *859:B 0
23 *68:29 *215:16 1.98991e-05
24 *171:8 *215:8 0.000129664
25 *171:8 *215:16 0.000195162
26 *213:87 *215:8 7.80354e-05
27 *213:93 *215:8 0.000140295
28 *213:93 *215:16 0.000208824
*RES
1 *850:X *215:8 45.1879 
2 *215:8 *215:16 27.5321 
3 *215:16 *857:A2 24.0979 
4 *215:16 *851:C 23 
5 *215:8 *859:B 39.1186 
*END

*D_NET *216 0.00112298
*CONN
*I *853:B I *D sky130_fd_sc_hd__or3b_2
*I *854:B I *D sky130_fd_sc_hd__nand2_1
*I *851:X O *D sky130_fd_sc_hd__or3_1
*CAP
1 *853:B 0
2 *854:B 7.8026e-05
3 *851:X 9.08248e-05
4 *216:21 0.000107941
5 *216:6 0.000276792
6 *854:B *851:A 0
7 *854:B *217:126 0.000146197
8 *854:B *310:22 5.79559e-05
9 *216:6 *1056:A1 2.92911e-06
10 *216:6 *217:126 1.41077e-05
11 *216:21 *218:12 0.000140949
12 *216:21 *223:10 0.000138727
13 *216:21 *310:28 3.47879e-05
14 *214:55 *216:21 3.3746e-05
*RES
1 *851:X *216:6 24.0979 
2 *216:6 *854:B 25.4236 
3 *216:6 *216:21 32.9621 
4 *216:21 *853:B 23 
*END

*D_NET *217 0.0185342
*CONN
*I *854:A I *D sky130_fd_sc_hd__nand2_1
*I *853:C_N I *D sky130_fd_sc_hd__or3b_2
*I *865:B1 I *D sky130_fd_sc_hd__o21a_1
*I *862:B1 I *D sky130_fd_sc_hd__o31a_1
*I *859:A I *D sky130_fd_sc_hd__nand2_1
*I *896:B I *D sky130_fd_sc_hd__and3_1
*I *1007:B1 I *D sky130_fd_sc_hd__o21ai_1
*I *1062:A1 I *D sky130_fd_sc_hd__a31o_1
*I *920:A2 I *D sky130_fd_sc_hd__a21oi_1
*I *857:B1 I *D sky130_fd_sc_hd__o21a_1
*I *852:X O *D sky130_fd_sc_hd__buf_2
*CAP
1 *854:A 0
2 *853:C_N 0
3 *865:B1 0
4 *862:B1 0
5 *859:A 8.34249e-05
6 *896:B 3.65402e-05
7 *1007:B1 0
8 *1062:A1 0
9 *920:A2 0
10 *857:B1 0
11 *852:X 0
12 *217:136 0.000143599
13 *217:126 0.000633268
14 *217:104 0.000167938
15 *217:98 0.000825769
16 *217:81 0.000935802
17 *217:63 0.000760879
18 *217:50 0.000664618
19 *217:44 0.0024009
20 *217:40 0.00126677
21 *217:23 0.000537934
22 *217:17 0.000710082
23 *217:8 0.000372466
24 *217:4 0.000629702
25 *217:8 *307:114 1.83667e-05
26 *217:17 *851:A 8.4047e-05
27 *217:17 *858:A 5.94125e-05
28 *217:17 *307:114 5.50369e-05
29 *217:23 *920:B1 1.11037e-05
30 *217:23 *260:43 3.22879e-05
31 *217:23 *276:22 0.000784273
32 *217:40 *896:C 0
33 *217:40 *920:A1 0.000144501
34 *217:40 *920:B1 2.93431e-05
35 *217:40 *276:22 4.288e-05
36 *217:40 *311:38 0
37 *217:44 *260:18 0.000481304
38 *217:44 *265:24 5.38496e-05
39 *217:44 *310:81 0.000200604
40 *217:50 *849:A 0.000347189
41 *217:50 *892:B 0.000267691
42 *217:50 *894:A_N 1.252e-05
43 *217:50 *1091:A 5.3304e-05
44 *217:50 *243:42 2.62931e-05
45 *217:50 *252:8 5.81707e-06
46 *217:50 *255:10 0.000132918
47 *217:50 *257:14 0.000271401
48 *217:50 *266:58 1.01436e-05
49 *217:50 *267:10 0
50 *217:50 *311:72 0.000144813
51 *217:63 *886:A2 2.92911e-06
52 *217:63 *888:B 3.7122e-06
53 *217:63 *915:A2 1.71719e-05
54 *217:63 *1007:A1 3.23576e-05
55 *217:63 *251:10 0.00013228
56 *217:63 *251:27 8.66845e-05
57 *217:63 *252:8 7.48596e-05
58 *217:63 *266:58 1.73044e-05
59 *217:63 *267:27 7.37814e-06
60 *217:63 *309:49 0.000123832
61 *217:63 *309:59 0.000208293
62 *217:63 *310:81 0.000122913
63 *217:63 *310:100 0.000110605
64 *217:63 *311:72 0.000191803
65 *217:81 *307:114 9.7644e-05
66 *217:98 *224:8 7.59111e-05
67 *217:98 *238:12 5.40337e-05
68 *217:98 *307:108 2.12147e-05
69 *217:98 *307:114 9.73687e-05
70 *217:126 *1056:A1 0.000217532
71 *217:126 *243:106 1.8788e-05
72 *217:126 *310:22 4.93812e-05
73 *217:126 *311:32 4.93223e-05
74 *217:126 *311:38 4.06849e-05
75 *217:136 *877:A2 0.000121432
76 *217:136 *219:10 3.54728e-05
77 *217:136 *310:28 6.23248e-06
78 *854:B *217:126 0.000146197
79 *865:A1 *217:98 0.000139352
80 *865:A2 *217:98 1.03836e-05
81 *910:B *217:23 0.000221992
82 *1059:A *217:50 0.000906859
83 *1062:B1 *217:50 2.93845e-05
84 *1077:A *217:17 4.08488e-05
85 *3:19 *217:8 0
86 *3:19 *217:17 0
87 *55:20 *896:B 0
88 *56:30 *217:40 0
89 *56:30 *217:44 0
90 *58:14 *217:63 0.000157932
91 *66:10 *217:8 0
92 *66:10 *217:17 0
93 *68:10 *217:17 1.58805e-05
94 *68:10 *217:81 0.000103835
95 *68:29 *859:A 2.95526e-05
96 *68:29 *217:81 2.96123e-05
97 *68:29 *217:98 3.70768e-05
98 *79:12 *896:B 4.67998e-05
99 *79:12 *217:40 7.39525e-05
100 *80:31 *859:A 3.77412e-05
101 *80:31 *217:81 0.000139882
102 *80:31 *217:98 1.13812e-05
103 *163:10 *217:98 0
104 *170:10 *217:17 0.000136486
105 *170:10 *217:81 0.000207696
106 *210:23 *217:50 0.000141052
107 *211:103 *217:126 2.07355e-05
108 *213:87 *217:104 0
109 *213:93 *217:126 9.5877e-05
110 *213:118 *217:126 0
111 *213:118 *217:136 0.000144894
112 *214:55 *217:126 0.000138718
113 *214:55 *217:136 0
114 *214:70 *217:104 0
115 *215:8 *217:98 0
116 *215:16 *217:17 0
117 *216:6 *217:126 1.41077e-05
*RES
1 *852:X *217:4 23 
2 *217:4 *217:8 17.2579 
3 *217:8 *857:B1 38 
4 *217:8 *217:17 5.42714 
5 *217:17 *217:23 24.2179 
6 *217:23 *920:A2 23 
7 *217:23 *217:40 26.8009 
8 *217:40 *217:44 10.3744 
9 *217:44 *217:50 34.6475 
10 *217:50 *1062:A1 23 
11 *217:44 *217:63 28.6818 
12 *217:63 *1007:B1 23 
13 *217:40 *896:B 46.6732 
14 *217:17 *217:81 5.77929 
15 *217:81 *859:A 39.595 
16 *217:81 *217:98 27.47 
17 *217:98 *217:104 32.61 
18 *217:104 *862:B1 23 
19 *217:98 *865:B1 23 
20 *217:4 *217:126 39.8393 
21 *217:126 *217:136 33.3764 
22 *217:136 *853:C_N 23 
23 *217:126 *854:A 23 
*END

*D_NET *218 0.0014087
*CONN
*I *877:A2 I *D sky130_fd_sc_hd__o22a_1
*I *878:A2 I *D sky130_fd_sc_hd__a21oi_4
*I *853:X O *D sky130_fd_sc_hd__or3b_2
*CAP
1 *877:A2 0.000123731
2 *878:A2 0
3 *853:X 0
4 *218:12 0.000273922
5 *218:4 0.000397653
6 *877:A2 *220:10 0.000142634
7 *218:12 *855:B 1.21972e-05
8 *218:12 *219:10 1.03972e-05
9 *218:12 *220:10 6.58415e-06
10 *218:12 *223:10 6.67764e-05
11 *218:12 *310:28 6.15719e-05
12 *218:12 *310:30 2.64616e-05
13 *213:118 *877:A2 2.43944e-05
14 *216:21 *218:12 0.000140949
15 *217:136 *877:A2 0.000121432
*RES
1 *853:X *218:4 23 
2 *218:4 *218:12 35.2407 
3 *218:12 *878:A2 23 
4 *218:4 *877:A2 26.2521 
*END

*D_NET *219 0.00138277
*CONN
*I *855:B I *D sky130_fd_sc_hd__xor2_1
*I *854:Y O *D sky130_fd_sc_hd__nand2_1
*CAP
1 *855:B 0.000163532
2 *854:Y 0.000176152
3 *219:10 0.000339683
4 *855:B *220:10 0.000179473
5 *855:B *310:30 0.000257636
6 *219:10 *276:39 1.36714e-05
7 *219:10 *310:22 5.79559e-05
8 *219:10 *310:28 0.0001366
9 *217:136 *219:10 3.54728e-05
10 *218:12 *855:B 1.21972e-05
11 *218:12 *219:10 1.03972e-05
*RES
1 *854:Y *219:10 40.8793 
2 *219:10 *855:B 41.48 
*END

*D_NET *220 0.00253391
*CONN
*I *876:A2 I *D sky130_fd_sc_hd__o221a_1
*I *856:B I *D sky130_fd_sc_hd__and2_1
*I *855:X O *D sky130_fd_sc_hd__xor2_1
*CAP
1 *876:A2 0.000157257
2 *856:B 0.000270402
3 *855:X 0.00033729
4 *220:10 0.000764949
5 *856:B *856:A 1.83444e-05
6 *856:B *1070:CLK 0
7 *856:B *243:14 5.56356e-05
8 *856:B *262:6 0.000210859
9 *876:A2 *223:10 0
10 *876:A2 *241:10 0
11 *876:A2 *242:10 0
12 *220:10 *242:10 0
13 *220:10 *243:14 0.000141888
14 *220:10 *276:39 0.00018522
15 *855:B *220:10 0.000179473
16 *877:A2 *220:10 0.000142634
17 *212:116 *876:A2 6.33771e-05
18 *218:12 *220:10 6.58415e-06
*RES
1 *855:X *220:10 44.5664 
2 *220:10 *856:B 43.4271 
3 *220:10 *876:A2 40.9621 
*END

*D_NET *221 0.000703554
*CONN
*I *877:B1 I *D sky130_fd_sc_hd__o22a_1
*I *856:X O *D sky130_fd_sc_hd__and2_1
*CAP
1 *877:B1 4.09233e-05
2 *856:X 6.81944e-05
3 *221:8 0.000109118
4 *877:B1 *877:B2 0.000102389
5 *221:8 *236:14 0.000167123
6 *221:8 *241:10 0.000136609
7 *221:8 *243:14 0
8 *213:118 *877:B1 7.91977e-05
*RES
1 *856:X *221:8 40.2579 
2 *221:8 *877:B1 39.5743 
*END

*D_NET *222 0.000515605
*CONN
*I *858:B I *D sky130_fd_sc_hd__xnor2_1
*I *857:X O *D sky130_fd_sc_hd__o21a_1
*CAP
1 *858:B 0
2 *857:X 0.000128564
3 *222:10 0.000128564
4 *222:10 *307:114 0.000167064
5 *66:10 *222:10 1.32939e-05
6 *67:10 *222:10 7.81176e-05
*RES
1 *857:X *222:10 40.8793 
2 *222:10 *858:B 38 
*END

*D_NET *223 0.00285916
*CONN
*I *876:B1 I *D sky130_fd_sc_hd__o221a_1
*I *875:A2 I *D sky130_fd_sc_hd__a22o_1
*I *858:Y O *D sky130_fd_sc_hd__xnor2_1
*CAP
1 *876:B1 0.000123495
2 *875:A2 0
3 *858:Y 0.000457372
4 *223:26 0.000244165
5 *223:16 0.000458747
6 *223:10 0.000548458
7 *876:B1 *876:B2 3.23857e-06
8 *876:B1 *876:C1 6.23756e-05
9 *223:10 *276:39 0
10 *223:10 *310:30 6.08617e-05
11 *223:26 *876:B2 1.28557e-05
12 *876:A2 *223:10 0
13 *1013:A *223:16 3.28357e-06
14 *66:18 *223:10 0.000180507
15 *214:55 *223:10 0.000428022
16 *214:55 *223:26 7.02729e-05
17 *216:21 *223:10 0.000138727
18 *218:12 *223:10 6.67764e-05
*RES
1 *858:Y *223:10 47.2593 
2 *223:10 *223:16 16.595 
3 *223:16 *223:26 34.9093 
4 *223:26 *875:A2 23 
5 *223:16 *876:B1 25.5479 
*END

*D_NET *224 0.000363555
*CONN
*I *860:B I *D sky130_fd_sc_hd__xor2_1
*I *859:Y O *D sky130_fd_sc_hd__nand2_1
*CAP
1 *860:B 0
2 *859:Y 0.000107505
3 *224:8 0.000107505
4 *171:8 *224:8 5.31824e-05
5 *215:8 *224:8 1.94522e-05
6 *217:98 *224:8 7.59111e-05
*RES
1 *859:Y *224:8 40.2579 
2 *224:8 *860:B 38 
*END

*D_NET *225 0.000821007
*CONN
*I *861:B I *D sky130_fd_sc_hd__or2_1
*I *874:A2 I *D sky130_fd_sc_hd__a22o_1
*I *860:X O *D sky130_fd_sc_hd__xor2_1
*CAP
1 *861:B 6.98565e-05
2 *874:A2 0
3 *860:X 7.19038e-05
4 *225:8 0.00014176
5 *861:B *861:A 8.10694e-05
6 *861:B *874:A1 5.50106e-05
7 *861:B *874:B1 0.000138704
8 *861:B *874:B2 4.94485e-05
9 *225:8 *861:A 0.000137651
10 *225:8 *874:A1 7.5604e-05
11 *225:8 *874:B2 0
*RES
1 *860:X *225:8 25.0714 
2 *225:8 *874:A2 23 
3 *225:8 *861:B 26.1693 
*END

*D_NET *226 0.000767649
*CONN
*I *875:B1 I *D sky130_fd_sc_hd__a22o_1
*I *861:X O *D sky130_fd_sc_hd__or2_1
*CAP
1 *875:B1 0.000201372
2 *861:X 4.64847e-05
3 *226:8 0.000247857
4 *875:B1 *875:A1 9.90118e-05
5 *226:8 *273:16 8.50366e-05
6 *212:116 *226:8 8.78864e-05
*RES
1 *861:X *226:8 39.2014 
2 *226:8 *875:B1 41.5007 
*END

*D_NET *227 0.00075117
*CONN
*I *863:B I *D sky130_fd_sc_hd__xnor2_1
*I *862:X O *D sky130_fd_sc_hd__o31a_1
*CAP
1 *863:B 3.95309e-05
2 *862:X 7.18968e-05
3 *227:8 0.000111428
4 *863:B *277:20 0.000140927
5 *863:B *296:161 0.000140927
6 *227:8 *273:16 0.000135547
7 *227:8 *277:28 0.000110913
*RES
1 *862:X *227:8 39.9057 
2 *227:8 *863:B 39.5743 
*END

*D_NET *228 0.00207909
*CONN
*I *864:B I *D sky130_fd_sc_hd__or2_1
*I *873:A2 I *D sky130_fd_sc_hd__a22o_1
*I *863:Y O *D sky130_fd_sc_hd__xnor2_1
*CAP
1 *864:B 0.000152441
2 *873:A2 0.000190028
3 *863:Y 0.000388512
4 *228:10 0.000730981
5 *864:B *1064:CLK 5.50106e-05
6 *864:B *229:10 5.50106e-05
7 *864:B *271:16 2.35258e-05
8 *864:B *277:28 3.46673e-05
9 *873:A2 *873:B2 0.000100803
10 *873:A2 *229:10 0.000133278
11 *873:A2 *271:22 4.14538e-05
12 *228:10 *271:22 3.36312e-06
13 *228:10 *273:16 0
14 *228:10 *277:20 9.41704e-05
15 *228:10 *296:161 7.58413e-05
16 *212:108 *873:A2 0
*RES
1 *863:Y *228:10 43.7379 
2 *228:10 *873:A2 41.7079 
3 *228:10 *864:B 41.0243 
*END

*D_NET *229 0.00222945
*CONN
*I *874:B1 I *D sky130_fd_sc_hd__a22o_1
*I *864:X O *D sky130_fd_sc_hd__or2_1
*CAP
1 *874:B1 0.00048598
2 *864:X 0.000347796
3 *229:10 0.000833776
4 *874:B1 *861:A 3.28923e-05
5 *874:B1 *874:A1 0
6 *874:B1 *231:16 5.68958e-05
7 *229:10 *236:14 5.58975e-06
8 *229:10 *237:8 0.0001366
9 *229:10 *277:28 2.92911e-06
10 *861:B *874:B1 0.000138704
11 *864:B *229:10 5.50106e-05
12 *873:A2 *229:10 0.000133278
13 *212:108 *229:10 0
14 *212:116 *229:10 0
*RES
1 *864:X *229:10 44.1729 
2 *229:10 *874:B1 45.975 
*END

*D_NET *230 0.000186249
*CONN
*I *866:B I *D sky130_fd_sc_hd__xnor2_1
*I *865:X O *D sky130_fd_sc_hd__o21a_1
*CAP
1 *866:B 4.30943e-05
2 *865:X 4.30943e-05
3 *866:B *238:12 0.000100061
*RES
1 *865:X *866:B 47.0979 
*END

*D_NET *231 0.000844789
*CONN
*I *867:B I *D sky130_fd_sc_hd__or2_1
*I *872:A2 I *D sky130_fd_sc_hd__a21o_1
*I *866:Y O *D sky130_fd_sc_hd__xnor2_1
*CAP
1 *867:B 2.5035e-05
2 *872:A2 0
3 *866:Y 5.08971e-05
4 *231:16 0.000215827
5 *231:8 0.000241689
6 *867:B *872:A1 5.50049e-05
7 *231:8 *237:8 8.71559e-05
8 *231:16 *872:A1 2.87566e-05
9 *231:16 *236:14 5.56279e-05
10 *874:B1 *231:16 5.68958e-05
11 *212:116 *231:8 2.79004e-05
*RES
1 *866:Y *231:8 39.2014 
2 *231:8 *231:16 19.35 
3 *231:16 *872:A2 23 
4 *231:16 *867:B 23.6214 
*END

*D_NET *232 0.000874226
*CONN
*I *873:B1 I *D sky130_fd_sc_hd__a22o_1
*I *867:X O *D sky130_fd_sc_hd__or2_1
*CAP
1 *873:B1 3.80122e-05
2 *867:X 0.000201221
3 *232:10 0.000239233
4 *873:B1 *873:B2 5.3304e-05
5 *232:10 *872:A1 1.14762e-05
6 *232:10 *243:138 0.00012733
7 *232:10 *262:34 0.000166513
8 *232:10 *270:16 3.71369e-05
*RES
1 *867:X *232:10 41.8321 
2 *232:10 *873:B1 38.6214 
*END

*D_NET *233 0.000319702
*CONN
*I *869:B I *D sky130_fd_sc_hd__xor2_1
*I *868:Y O *D sky130_fd_sc_hd__nand2_1
*CAP
1 *869:B 0
2 *868:Y 0.000127956
3 *233:8 0.000127956
4 *214:35 *233:8 0
5 *214:43 *233:8 6.37905e-05
6 *214:55 *233:8 0
*RES
1 *868:Y *233:8 40.2579 
2 *233:8 *869:B 38 
*END

*D_NET *234 0.00119803
*CONN
*I *870:A2 I *D sky130_fd_sc_hd__a21oi_1
*I *871:B1 I *D sky130_fd_sc_hd__o2bb2a_1
*I *869:X O *D sky130_fd_sc_hd__xor2_1
*CAP
1 *870:A2 0
2 *871:B1 0
3 *869:X 2.66391e-05
4 *234:21 0.000283368
5 *234:6 0.000310007
6 *234:21 *871:B2 0
7 *234:21 *235:12 0.000130286
8 *234:21 *236:8 7.51453e-06
9 *234:21 *275:8 8.77628e-05
10 *211:103 *234:21 6.44924e-05
11 *213:118 *234:6 1.3523e-05
12 *214:43 *234:6 5.56279e-05
13 *214:43 *234:21 0.000218812
*RES
1 *869:X *234:6 23.6214 
2 *234:6 *871:B1 23 
3 *234:6 *234:21 36.5871 
4 *234:21 *870:A2 23 
*END

*D_NET *235 0.000841359
*CONN
*I *871:A2_N I *D sky130_fd_sc_hd__o2bb2a_1
*I *870:Y O *D sky130_fd_sc_hd__a21oi_1
*CAP
1 *871:A2_N 4.6478e-05
2 *870:Y 0.000260989
3 *235:12 0.000307467
4 *235:12 *870:A1 2.50593e-05
5 *235:12 *871:B2 0
6 *235:12 *268:16 7.61229e-06
7 *235:12 *275:8 8.16757e-06
8 *211:103 *871:A2_N 5.52998e-05
9 *234:21 *235:12 0.000130286
*RES
1 *870:Y *235:12 42.8057 
2 *235:12 *871:A2_N 38.6214 
*END

*D_NET *236 0.00265478
*CONN
*I *872:B1 I *D sky130_fd_sc_hd__a21o_1
*I *871:X O *D sky130_fd_sc_hd__o2bb2a_1
*CAP
1 *872:B1 0
2 *871:X 4.58078e-05
3 *236:14 0.000670324
4 *236:8 0.000716132
5 *236:14 *876:A1 0.000258928
6 *236:14 *241:10 8.5868e-05
7 *236:14 *243:14 0
8 *236:14 *243:18 0
9 *236:14 *262:25 6.16603e-05
10 *236:14 *262:34 6.29538e-05
11 *236:14 *275:8 0.000505765
12 *211:103 *236:8 1.14876e-05
13 *212:116 *236:14 0
14 *221:8 *236:14 0.000167123
15 *229:10 *236:14 5.58975e-06
16 *231:16 *236:14 5.56279e-05
17 *234:21 *236:8 7.51453e-06
*RES
1 *871:X *236:8 38.6214 
2 *236:8 *236:14 31.6129 
3 *236:14 *872:B1 23 
*END

*D_NET *237 0.00108881
*CONN
*I *873:B2 I *D sky130_fd_sc_hd__a22o_1
*I *872:X O *D sky130_fd_sc_hd__a21o_1
*CAP
1 *873:B2 0.00023842
2 *872:X 6.87994e-05
3 *237:8 0.00030722
4 *873:B2 *238:12 9.65021e-05
5 *873:A2 *873:B2 0.000100803
6 *873:B1 *873:B2 5.3304e-05
7 *212:116 *237:8 0
8 *229:10 *237:8 0.0001366
9 *231:8 *237:8 8.71559e-05
*RES
1 *872:X *237:8 39.9057 
2 *237:8 *873:B2 42.4536 
*END

*D_NET *238 0.00170453
*CONN
*I *874:B2 I *D sky130_fd_sc_hd__a22o_1
*I *873:X O *D sky130_fd_sc_hd__a22o_1
*CAP
1 *874:B2 2.95002e-05
2 *873:X 0.000600617
3 *238:12 0.000630117
4 *874:B2 *861:A 6.67393e-05
5 *861:B *874:B2 4.94485e-05
6 *865:A2 *238:12 1.64402e-05
7 *866:B *238:12 0.000100061
8 *873:B2 *238:12 9.65021e-05
9 *214:55 *238:12 4.90994e-05
10 *214:70 *238:12 1.19692e-05
11 *217:98 *238:12 5.40337e-05
12 *225:8 *874:B2 0
*RES
1 *873:X *238:12 47.4457 
2 *238:12 *874:B2 39.1186 
*END

*D_NET *239 0.000570838
*CONN
*I *875:B2 I *D sky130_fd_sc_hd__a22o_1
*I *874:X O *D sky130_fd_sc_hd__a22o_1
*CAP
1 *875:B2 0.000140764
2 *874:X 3.74323e-05
3 *239:8 0.000178196
4 *859:B *875:B2 3.86731e-05
5 *213:93 *239:8 8.78864e-05
6 *215:8 *239:8 8.78864e-05
*RES
1 *874:X *239:8 39.2014 
2 *239:8 *875:B2 40.4236 
*END

*D_NET *240 0.000680497
*CONN
*I *876:C1 I *D sky130_fd_sc_hd__o221a_1
*I *875:X O *D sky130_fd_sc_hd__a22o_1
*CAP
1 *876:C1 0.00011088
2 *875:X 0.000121867
3 *240:10 0.000232747
4 *876:C1 *876:B2 4.50063e-05
5 *240:10 *875:A1 2.86326e-05
6 *240:10 *876:B2 7.89883e-05
7 *876:B1 *876:C1 6.23756e-05
*RES
1 *875:X *240:10 39.8229 
2 *240:10 *876:C1 40.9207 
*END

*D_NET *241 0.00134448
*CONN
*I *877:B2 I *D sky130_fd_sc_hd__o22a_1
*I *876:X O *D sky130_fd_sc_hd__o221a_1
*CAP
1 *877:B2 7.51085e-05
2 *876:X 0.000281037
3 *241:10 0.000356145
4 *877:B2 *242:10 2.93335e-05
5 *241:10 *242:10 0.000164019
6 *241:10 *243:14 0
7 *876:A2 *241:10 0
8 *877:B1 *877:B2 0.000102389
9 *212:116 *241:10 9.92279e-05
10 *213:118 *877:B2 1.47394e-05
11 *221:8 *241:10 0.000136609
12 *236:14 *241:10 8.5868e-05
*RES
1 *876:X *241:10 43.8207 
2 *241:10 *877:B2 40.0714 
*END

*D_NET *242 0.000500698
*CONN
*I *878:B1 I *D sky130_fd_sc_hd__a21oi_4
*I *877:X O *D sky130_fd_sc_hd__o22a_1
*CAP
1 *878:B1 0
2 *877:X 0.000153673
3 *242:10 0.000153673
4 *242:10 *243:14 0
5 *876:A2 *242:10 0
6 *877:B2 *242:10 2.93335e-05
7 *220:10 *242:10 0
8 *241:10 *242:10 0.000164019
*RES
1 *877:X *242:10 40.8793 
2 *242:10 *878:B1 38 
*END

*D_NET *243 0.0214523
*CONN
*I *1056:A3 I *D sky130_fd_sc_hd__a31o_1
*I *1054:A3 I *D sky130_fd_sc_hd__a31o_1
*I *1052:A3 I *D sky130_fd_sc_hd__a31o_1
*I *1050:A3 I *D sky130_fd_sc_hd__a31o_1
*I *1048:A3 I *D sky130_fd_sc_hd__a31o_1
*I *1060:A3 I *D sky130_fd_sc_hd__a31o_1
*I *1062:A3 I *D sky130_fd_sc_hd__a31o_1
*I *879:B I *D sky130_fd_sc_hd__nor2_1
*I *1045:B I *D sky130_fd_sc_hd__or3_1
*I *1058:A3 I *D sky130_fd_sc_hd__a31o_1
*I *878:Y O *D sky130_fd_sc_hd__a21oi_4
*CAP
1 *1056:A3 2.28037e-05
2 *1054:A3 0
3 *1052:A3 4.33541e-05
4 *1050:A3 4.14467e-05
5 *1048:A3 2.05149e-05
6 *1060:A3 0
7 *1062:A3 0
8 *879:B 0
9 *1045:B 0
10 *1058:A3 0
11 *878:Y 0.000303512
12 *243:138 0.000662656
13 *243:121 0.000919283
14 *243:110 0.000357479
15 *243:106 0.000294775
16 *243:78 0.000818997
17 *243:65 0.00124569
18 *243:48 0.000568686
19 *243:42 0.000833445
20 *243:24 0.000975461
21 *243:20 0.0016654
22 *243:18 0.00170593
23 *243:14 0.000817774
24 *1048:A3 *310:55 3.28357e-06
25 *1056:A3 *1056:A1 4.17736e-05
26 *1056:A3 *310:22 2.64616e-05
27 *243:14 *276:39 5.22438e-05
28 *243:18 *871:B2 0.000233819
29 *243:18 *269:10 0.000193187
30 *243:18 *275:8 0
31 *243:18 *311:22 0.000131021
32 *243:20 *311:12 5.56279e-05
33 *243:24 *310:55 4.69521e-05
34 *243:42 *1076:RESET_B 0.000530748
35 *243:42 *265:10 0.000287587
36 *243:42 *291:8 2.93335e-05
37 *243:42 *301:8 0.000218759
38 *243:65 *276:8 0
39 *243:78 *1081:A 0.000133652
40 *243:78 *1120:A 6.28499e-05
41 *243:78 *244:16 1.07603e-05
42 *243:78 *247:14 0.000187484
43 *243:78 *261:70 5.93746e-05
44 *243:78 *261:81 0.000129772
45 *243:78 *267:55 0
46 *243:78 *307:74 0.000109343
47 *243:106 *1056:A1 0.00057464
48 *243:106 *310:22 0.000309758
49 *243:110 *1073:CLK 0.000107651
50 *243:110 *310:22 6.25829e-05
51 *243:121 *1073:CLK 0.000134585
52 *243:121 *262:25 7.78303e-05
53 *243:138 *1066:RESET_B 0
54 *243:138 *262:25 0.000105283
55 *243:138 *262:34 0.00014355
56 *243:138 *277:36 0.000119941
57 *856:B *243:14 5.56356e-05
58 *1045:C *243:78 0.000152796
59 *1050:A2 *1050:A3 1.24376e-05
60 *1060:B1 *243:24 0.000323904
61 *1061:A *243:48 6.48049e-05
62 *1062:B1 *243:42 6.87338e-05
63 *46:10 *243:24 0.000229392
64 *47:10 *1050:A3 2.98648e-05
65 *48:10 *1052:A3 1.84917e-05
66 *48:10 *243:138 0.000141038
67 *49:8 *243:138 5.45343e-05
68 *200:10 *243:65 0.000140021
69 *209:10 *243:138 0.000121969
70 *209:14 *243:121 0.000175996
71 *209:14 *243:138 1.74126e-05
72 *209:16 *243:110 7.45278e-05
73 *209:16 *243:121 3.3123e-05
74 *209:22 *243:20 0.000767041
75 *209:24 *243:20 1.61385e-05
76 *209:24 *243:24 6.06127e-05
77 *209:32 *243:24 6.63159e-06
78 *209:32 *243:42 1.85591e-05
79 *209:32 *243:48 1.19796e-05
80 *209:45 *243:48 3.29039e-05
81 *209:125 *243:138 0.000663414
82 *210:8 *243:48 0.000194309
83 *210:8 *243:65 0.000345555
84 *210:23 *243:42 1.54983e-05
85 *210:23 *243:48 5.41385e-05
86 *210:49 *243:65 6.16439e-05
87 *211:10 *243:48 9.48318e-05
88 *211:10 *243:65 0.00064582
89 *211:35 *243:78 0.000136609
90 *212:116 *1052:A3 9.79925e-05
91 *213:118 *1050:A3 5.12254e-05
92 *213:118 *243:14 0.000125314
93 *213:118 *243:18 0.000159618
94 *214:14 *243:20 0.000299957
95 *214:43 *243:18 8.64543e-05
96 *214:55 *243:18 0
97 *217:50 *243:42 2.62931e-05
98 *217:126 *243:106 1.8788e-05
99 *220:10 *243:14 0.000141888
100 *221:8 *243:14 0
101 *232:10 *243:138 0.00012733
102 *236:14 *243:14 0
103 *236:14 *243:18 0
104 *241:10 *243:14 0
105 *242:10 *243:14 0
*RES
1 *878:Y *243:14 44.4629 
2 *243:14 *243:18 23.2443 
3 *243:18 *243:20 29.2071 
4 *243:20 *243:24 7.31214 
5 *243:24 *243:42 45.3493 
6 *243:42 *243:48 19.4121 
7 *243:48 *1058:A3 38 
8 *243:48 *243:65 27.1179 
9 *243:65 *1045:B 23 
10 *243:65 *243:78 44.3136 
11 *243:78 *879:B 23 
12 *243:42 *1062:A3 23 
13 *243:24 *1060:A3 23 
14 *243:20 *1048:A3 23.4971 
15 *243:14 *243:106 21.8357 
16 *243:106 *243:110 17.9621 
17 *243:110 *1050:A3 39.0979 
18 *243:110 *243:121 5.77929 
19 *243:121 *1052:A3 39.0979 
20 *243:121 *243:138 34.2436 
21 *243:138 *1054:A3 23 
22 *243:106 *1056:A3 23.6214 
*END

*D_NET *244 0.0128566
*CONN
*I *1036:B1 I *D sky130_fd_sc_hd__a22o_1
*I *1040:B1 I *D sky130_fd_sc_hd__a22o_1
*I *1044:B1 I *D sky130_fd_sc_hd__a22o_1
*I *880:B1_N I *D sky130_fd_sc_hd__o21ba_1
*I *879:Y O *D sky130_fd_sc_hd__nor2_1
*CAP
1 *1036:B1 0.000392739
2 *1040:B1 0
3 *1044:B1 6.42437e-05
4 *880:B1_N 0
5 *879:Y 0
6 *244:60 0.00319976
7 *244:35 0.00329774
8 *244:33 0.000958952
9 *244:16 0.000601245
10 *244:4 0.00113372
11 *1036:B1 *1036:A2 6.15689e-05
12 *1036:B1 *247:128 2.24366e-06
13 *1036:B1 *263:18 0.000467074
14 *1044:B1 *1044:A2 5.79559e-05
15 *1044:B1 *267:91 2.06951e-05
16 *244:16 *880:A1 0.000180849
17 *244:16 *1081:A 0.000135884
18 *244:16 *1120:A 0.000162018
19 *244:16 *261:91 2.02872e-05
20 *244:16 *267:55 0
21 *244:16 *267:91 6.08173e-05
22 *244:33 *1065:CLK 0.000136486
23 *244:33 *1067:RESET_B 1.42891e-05
24 *244:33 *1120:A 0.000126169
25 *244:33 *265:51 0
26 *244:33 *296:71 1.49812e-05
27 *244:33 *296:86 0
28 *244:60 *1067:RESET_B 0.000130809
29 *244:60 *293:40 0.000184489
30 *929:D *1036:B1 1.7278e-05
31 *1020:A *244:60 3.41998e-06
32 *1020:C *244:60 5.58003e-05
33 *1033:A *244:60 5.3304e-05
34 *1033:C *244:60 5.5792e-05
35 *193:28 *1036:B1 2.99519e-05
36 *199:20 *244:33 0.000163922
37 *211:35 *244:16 0.000115764
38 *211:50 *1044:B1 7.85062e-05
39 *211:50 *244:16 5.40616e-06
40 *211:50 *244:33 0.000451889
41 *211:50 *244:35 2.05503e-05
42 *212:88 *244:60 0.000256613
43 *213:74 *244:60 0.000112665
44 *243:78 *244:16 1.07603e-05
*RES
1 *879:Y *244:4 23 
2 *244:4 *244:16 41.4757 
3 *244:16 *880:B1_N 23 
4 *244:4 *244:33 27.2111 
5 *244:33 *244:35 0.849286 
6 *244:35 *1044:B1 39.5639 
7 *244:35 *244:60 41.9536 
8 *244:60 *1040:B1 23 
9 *244:33 *1036:B1 46.7311 
*END

*D_NET *245 0.0164095
*CONN
*I *984:A I *D sky130_fd_sc_hd__nand2_1
*I *977:A1 I *D sky130_fd_sc_hd__a31o_1
*I *995:A1 I *D sky130_fd_sc_hd__a22o_1
*I *996:A I *D sky130_fd_sc_hd__and4_1
*I *1038:A1 I *D sky130_fd_sc_hd__a22o_1
*I *983:A I *D sky130_fd_sc_hd__and4_1
*I *1035:A1 I *D sky130_fd_sc_hd__a31o_1
*I *1009:A0 I *D sky130_fd_sc_hd__mux2_1
*I *920:A1 I *D sky130_fd_sc_hd__a21oi_1
*I *896:A I *D sky130_fd_sc_hd__and3_1
*I *881:X O *D sky130_fd_sc_hd__buf_2
*CAP
1 *984:A 0.000201736
2 *977:A1 0.000112936
3 *995:A1 9.53321e-05
4 *996:A 0
5 *1038:A1 0
6 *983:A 0.000355147
7 *1035:A1 0
8 *1009:A0 0.000195917
9 *920:A1 0.000211708
10 *896:A 5.23426e-05
11 *881:X 5.70292e-05
12 *245:138 0.00131295
13 *245:115 0.000176731
14 *245:107 0.000477479
15 *245:93 0.000555205
16 *245:76 0.000735977
17 *245:72 0.00195838
18 *245:51 0.00123892
19 *245:16 0.000432827
20 *245:10 0.000481211
21 *245:8 0.000674074
22 *896:A *896:C 1.14154e-05
23 *896:A *259:14 3.22467e-05
24 *920:A1 *896:C 2.07921e-05
25 *920:A1 *920:B1 1.8561e-05
26 *920:A1 *259:14 1.03836e-05
27 *977:A1 *296:29 0.000139448
28 *977:A1 *296:43 2.93431e-05
29 *984:A *984:B 1.9054e-05
30 *984:A *296:29 0.000368598
31 *1009:A0 *311:62 5.45541e-05
32 *245:8 *311:46 1.50028e-05
33 *245:16 *260:18 1.49187e-05
34 *245:51 *264:24 0
35 *245:51 *277:20 9.65021e-05
36 *245:72 *277:20 0.000148249
37 *245:107 *996:B 8.76309e-05
38 *245:107 *293:40 3.74732e-05
39 *245:115 *996:B 0.000138859
40 *245:115 *264:24 0.000263201
41 *935:B *245:51 0
42 *936:A *245:51 9.21516e-05
43 *937:B *245:51 0
44 *970:B *245:138 0.000233453
45 *980:A1 *245:138 0.000266399
46 *983:D *245:107 7.01552e-06
47 *986:B *977:A1 5.58003e-05
48 *995:A2 *995:A1 5.8118e-05
49 *996:D *245:72 0
50 *996:D *245:107 7.38742e-05
51 *1003:B *245:51 0
52 *1035:A3 *245:51 9.78729e-06
53 *1035:A3 *245:72 4.94227e-05
54 *55:79 *245:10 0.000141724
55 *55:79 *245:51 0.000336579
56 *76:21 *245:51 0
57 *77:14 *245:51 8.62876e-05
58 *79:12 *245:10 0.000270378
59 *79:12 *245:16 0.000160125
60 *79:12 *245:51 0.000111277
61 *91:12 *245:115 0.000121827
62 *108:18 *245:138 0
63 *108:33 *245:138 5.39108e-05
64 *123:12 *245:138 0
65 *127:10 *245:72 0.000178288
66 *127:10 *245:138 0.000274682
67 *129:10 *977:A1 0.000318912
68 *129:10 *984:A 1.22546e-05
69 *129:10 *245:138 0.000187612
70 *139:25 *995:A1 6.17437e-06
71 *140:10 *245:107 0.000188934
72 *140:10 *245:115 0.000138859
73 *141:8 *983:A 6.85344e-06
74 *141:8 *245:76 2.34953e-05
75 *141:26 *245:72 1.72455e-05
76 *141:48 *245:138 0.000192229
77 *142:8 *984:A 0.000207707
78 *152:10 *245:72 8.50457e-05
79 *153:8 *995:A1 6.17437e-06
80 *154:8 *245:107 5.56356e-05
81 *154:22 *245:72 5.66152e-05
82 *167:8 *1009:A0 0.000189176
83 *180:6 *245:72 1.76557e-05
84 *180:25 *245:72 0.000188993
85 *192:18 *245:72 2.24366e-06
86 *192:38 *245:72 0.00016852
87 *197:8 *245:72 3.98887e-05
88 *198:10 *995:A1 9.41704e-05
89 *198:10 *245:72 0
90 *198:10 *245:107 8.36198e-05
91 *212:61 *983:A 5.44109e-05
92 *212:74 *983:A 3.49843e-05
93 *212:74 *245:93 0.000147608
94 *212:74 *245:107 9.28078e-06
95 *212:88 *245:107 2.05503e-05
96 *214:80 *245:51 0.000243578
97 *214:96 *245:51 5.3304e-05
98 *217:40 *920:A1 0.000144501
*RES
1 *881:X *245:8 38.6214 
2 *245:8 *245:10 3.66643 
3 *245:10 *245:16 17.8793 
4 *245:16 *896:A 24.1186 
5 *245:16 *920:A1 26.0036 
6 *245:10 *1009:A0 42.4536 
7 *245:8 *245:51 26.6 
8 *245:51 *1035:A1 23 
9 *245:51 *245:72 31.82 
10 *245:72 *245:76 18.0036 
11 *245:76 *983:A 27.4536 
12 *245:76 *245:93 18.0243 
13 *245:93 *245:107 21.7943 
14 *245:107 *245:115 35.2407 
15 *245:115 *1038:A1 23 
16 *245:107 *996:A 23 
17 *245:93 *995:A1 40.0714 
18 *245:72 *245:138 20.9214 
19 *245:138 *977:A1 41.9564 
20 *245:138 *984:A 44.67 
*END

*D_NET *246 0.0119387
*CONN
*I *899:A I *D sky130_fd_sc_hd__nand2_1
*I *912:B2 I *D sky130_fd_sc_hd__a22o_1
*I *929:A I *D sky130_fd_sc_hd__nand4_1
*I *928:B2 I *D sky130_fd_sc_hd__a22o_1
*I *944:A I *D sky130_fd_sc_hd__nand4_2
*I *913:A I *D sky130_fd_sc_hd__nand4_2
*I *1007:A1 I *D sky130_fd_sc_hd__o21ai_1
*I *886:B2 I *D sky130_fd_sc_hd__a22o_1
*I *1008:A1 I *D sky130_fd_sc_hd__a31o_1
*I *884:A I *D sky130_fd_sc_hd__nand4_1
*I *882:X O *D sky130_fd_sc_hd__clkbuf_4
*CAP
1 *899:A 0.000338381
2 *912:B2 0.000289906
3 *929:A 0
4 *928:B2 1.87628e-05
5 *944:A 0
6 *913:A 0
7 *1007:A1 0.000210252
8 *886:B2 0
9 *1008:A1 6.08378e-05
10 *884:A 0
11 *882:X 0
12 *246:103 0.000164547
13 *246:97 0.000702678
14 *246:78 0.000723736
15 *246:70 0.000866051
16 *246:55 0.000675175
17 *246:48 0.000185772
18 *246:36 0.000371278
19 *246:23 0.000315513
20 *246:21 0.000516944
21 *246:12 0.000301865
22 *246:4 0.000355638
23 *899:A *900:A 1.07299e-05
24 *899:A *249:8 8.27118e-05
25 *899:A *252:8 2.36059e-05
26 *899:A *259:14 0.000136743
27 *899:A *265:24 1.09903e-05
28 *899:A *309:104 4.82251e-05
29 *912:B2 *911:B 0
30 *912:B2 *912:A1 4.98398e-05
31 *912:B2 *912:B1 3.68207e-05
32 *928:B2 *928:A2 5.56356e-05
33 *1007:A1 *272:20 0
34 *1008:A1 *249:14 4.69521e-05
35 *1008:A1 *249:18 0
36 *246:12 *261:70 7.74854e-05
37 *246:12 *261:81 4.41821e-06
38 *246:12 *309:160 0.000403111
39 *246:12 *311:72 3.7122e-06
40 *246:21 *900:A 5.58003e-05
41 *246:21 *311:72 2.2065e-05
42 *246:23 *900:A 0.000186303
43 *246:23 *247:30 9.28078e-06
44 *246:23 *249:14 1.90974e-05
45 *246:36 *247:30 1.12695e-05
46 *246:36 *249:14 1.00203e-05
47 *246:36 *252:8 5.18546e-05
48 *246:36 *309:49 9.76777e-06
49 *246:48 *886:A2 1.30496e-05
50 *246:48 *915:A2 2.11066e-05
51 *246:48 *247:30 7.47205e-05
52 *246:48 *247:65 1.05846e-05
53 *246:48 *249:62 2.5343e-05
54 *246:48 *307:108 0.000338391
55 *246:55 *309:49 1.00446e-05
56 *246:70 *309:49 7.57222e-05
57 *246:70 *310:152 0
58 *246:78 *309:49 2.15048e-05
59 *246:97 *913:D 1.37232e-05
60 *246:97 *247:73 1.41077e-05
61 *246:97 *247:111 0.000152972
62 *246:97 *249:83 7.02296e-05
63 *246:97 *263:18 0.000186756
64 *246:97 *265:68 0.000388876
65 *246:97 *296:86 0.00018536
66 *246:97 *309:43 1.46911e-05
67 *246:103 *247:128 0.000236928
68 *246:103 *247:143 9.5956e-06
69 *925:B *246:97 0.000276484
70 *926:A1 *246:78 9.67842e-05
71 *926:A1 *246:97 5.38612e-05
72 *932:A *246:97 4.41821e-06
73 *1007:A2 *246:36 0
74 *1008:B1 *1008:A1 5.5792e-05
75 *1045:C *246:12 0.000482882
76 *58:14 *246:12 9.66668e-05
77 *58:14 *246:21 0.000137525
78 *59:14 *899:A 8.78864e-05
79 *59:14 *246:23 4.29197e-05
80 *69:29 *912:B2 0.000179592
81 *69:29 *246:78 1.01436e-05
82 *70:6 *912:B2 4.33627e-05
83 *70:10 *912:B2 6.67823e-05
84 *70:40 *912:B2 0.000140361
85 *70:40 *246:97 0
86 *71:19 *246:97 8.82119e-05
87 *72:10 *912:B2 7.38891e-05
88 *72:10 *246:70 0.000177555
89 *84:12 *912:B2 5.71002e-06
90 *87:10 *246:103 3.76157e-05
91 *164:8 *1008:A1 0.000142678
92 *165:10 *1007:A1 2.19998e-05
93 *165:10 *246:70 0
94 *179:14 *246:12 5.61255e-06
95 *199:12 *912:B2 8.30041e-05
96 *212:42 *928:B2 2.93431e-05
97 *214:110 *912:B2 0.000137828
98 *217:63 *1007:A1 3.23576e-05
*RES
1 *882:X *246:4 23 
2 *246:4 *246:12 38.12 
3 *246:12 *884:A 23 
4 *246:4 *246:21 16.5743 
5 *246:21 *246:23 2.61 
6 *246:23 *1008:A1 40.0714 
7 *246:23 *246:36 2.43393 
8 *246:36 *246:48 32.2267 
9 *246:48 *886:B2 23 
10 *246:36 *246:55 0.673214 
11 *246:55 *1007:A1 41.8736 
12 *246:55 *246:70 8.06821 
13 *246:70 *246:78 17.8689 
14 *246:78 *913:A 23 
15 *246:78 *246:97 44.065 
16 *246:97 *246:103 33.3143 
17 *246:103 *944:A 23 
18 *246:103 *928:B2 23.6214 
19 *246:97 *929:A 23 
20 *246:70 *912:B2 46.0889 
21 *246:21 *899:A 44.4214 
*END

*D_NET *247 0.0134921
*CONN
*I *913:B I *D sky130_fd_sc_hd__nand4_2
*I *982:B2 I *D sky130_fd_sc_hd__a22o_1
*I *928:A1 I *D sky130_fd_sc_hd__a22o_1
*I *944:B I *D sky130_fd_sc_hd__nand4_2
*I *929:B I *D sky130_fd_sc_hd__nand4_1
*I *974:A I *D sky130_fd_sc_hd__and4_1
*I *912:A1 I *D sky130_fd_sc_hd__a22o_1
*I *884:B I *D sky130_fd_sc_hd__nand4_1
*I *901:A I *D sky130_fd_sc_hd__or2_1
*I *900:A I *D sky130_fd_sc_hd__nand2_1
*I *883:X O *D sky130_fd_sc_hd__buf_2
*CAP
1 *913:B 0
2 *982:B2 2.59286e-05
3 *928:A1 0
4 *944:B 0
5 *929:B 4.35729e-05
6 *974:A 0
7 *912:A1 3.94928e-05
8 *884:B 0
9 *901:A 2.77218e-05
10 *900:A 0.000215544
11 *883:X 0
12 *247:143 0.000178859
13 *247:128 0.000194043
14 *247:113 0.000361971
15 *247:111 0.000576606
16 *247:94 0.000424323
17 *247:86 0.000329007
18 *247:73 0.000424544
19 *247:65 0.000765884
20 *247:30 0.000983232
21 *247:14 0.000947824
22 *247:4 0.000740838
23 *900:A *900:B 5.2273e-05
24 *900:A *252:8 0.000212941
25 *900:A *311:62 0.000213049
26 *900:A *311:72 2.50118e-05
27 *901:A *249:14 5.3304e-05
28 *912:A1 *912:B1 9.66668e-05
29 *929:B *296:86 5.56593e-05
30 *982:B2 *249:91 9.79925e-05
31 *982:B2 *293:40 8.55549e-05
32 *247:14 *883:A 6.17437e-06
33 *247:14 *884:C 2.33679e-05
34 *247:14 *261:81 0.000185301
35 *247:14 *307:74 2.68258e-05
36 *247:30 *884:C 0.000100069
37 *247:30 *884:D 1.11037e-05
38 *247:30 *252:8 1.12695e-05
39 *247:30 *254:12 1.64845e-05
40 *247:30 *261:81 9.78317e-06
41 *247:30 *307:89 3.50795e-05
42 *247:30 *307:108 1.32634e-05
43 *247:65 *886:A2 3.38416e-05
44 *247:65 *888:A 0.000181578
45 *247:65 *915:A2 0.000190614
46 *247:65 *249:62 0.000242123
47 *247:65 *249:83 0.000256377
48 *247:65 *250:8 5.3304e-05
49 *247:65 *265:37 8.68049e-06
50 *247:65 *307:74 3.18142e-05
51 *247:65 *309:49 0.000123233
52 *247:73 *913:D 0
53 *247:73 *277:20 0.000438474
54 *247:73 *307:50 0.000219543
55 *247:86 *293:40 0.000170019
56 *247:86 *307:42 9.74279e-05
57 *247:86 *307:50 3.67392e-05
58 *247:94 *249:91 5.5792e-05
59 *247:94 *293:40 5.3304e-05
60 *247:111 *249:83 0.000334692
61 *247:111 *263:18 5.34244e-05
62 *247:111 *296:86 5.3304e-05
63 *247:113 *296:86 0.000185223
64 *247:128 *928:A2 9.41704e-05
65 *247:128 *296:71 1.64964e-05
66 *247:143 *280:23 0.000234508
67 *247:143 *296:86 3.46013e-05
68 *899:A *900:A 1.07299e-05
69 *912:B2 *912:A1 4.98398e-05
70 *926:A1 *247:73 0.000351487
71 *929:D *247:128 0.000162254
72 *931:A2 *247:94 5.75756e-06
73 *944:C *247:128 2.64616e-05
74 *1036:B1 *247:128 2.24366e-06
75 *58:6 *900:A 5.63404e-05
76 *58:14 *900:A 4.22172e-05
77 *70:18 *247:94 3.39102e-05
78 *70:40 *247:73 1.40958e-05
79 *70:40 *247:86 2.37049e-05
80 *71:19 *247:65 1.14452e-05
81 *72:10 *247:73 0.000216392
82 *83:14 *247:86 9.97764e-06
83 *83:14 *247:94 0.000194606
84 *83:20 *247:111 0.000176
85 *84:12 *247:94 5.84317e-05
86 *87:10 *247:143 0.000162416
87 *164:8 *901:A 2.64616e-05
88 *193:18 *247:94 9.8592e-06
89 *212:14 *247:128 6.2088e-05
90 *212:42 *247:128 2.64616e-05
91 *243:78 *247:14 0.000187484
92 *246:21 *900:A 5.58003e-05
93 *246:23 *900:A 0.000186303
94 *246:23 *247:30 9.28078e-06
95 *246:36 *247:30 1.12695e-05
96 *246:48 *247:30 7.47205e-05
97 *246:48 *247:65 1.05846e-05
98 *246:97 *247:73 1.41077e-05
99 *246:97 *247:111 0.000152972
100 *246:103 *247:128 0.000236928
101 *246:103 *247:143 9.5956e-06
*RES
1 *883:X *247:4 23 
2 *247:4 *247:14 34.3293 
3 *247:14 *247:30 34.4953 
4 *247:30 *900:A 44.4629 
5 *247:30 *901:A 38.6214 
6 *247:14 *884:B 23 
7 *247:4 *247:65 42.6771 
8 *247:65 *247:73 23.7207 
9 *247:73 *912:A1 39.0979 
10 *247:73 *247:86 18.6664 
11 *247:86 *247:94 33.8321 
12 *247:94 *974:A 23 
13 *247:94 *247:111 7.64357 
14 *247:111 *247:113 2.05071 
15 *247:113 *929:B 23.6214 
16 *247:113 *247:128 35.1164 
17 *247:128 *944:B 23 
18 *247:111 *247:143 34.785 
19 *247:143 *928:A1 23 
20 *247:86 *982:B2 24.0979 
21 *247:65 *913:B 23 
*END

*D_NET *248 0.00252201
*CONN
*I *915:B1 I *D sky130_fd_sc_hd__a22o_1
*I *888:A I *D sky130_fd_sc_hd__and2_1
*I *887:C I *D sky130_fd_sc_hd__nand4_1
*I *884:Y O *D sky130_fd_sc_hd__nand4_1
*CAP
1 *915:B1 0.000104327
2 *888:A 0.000246719
3 *887:C 0
4 *884:Y 9.8361e-05
5 *248:23 0.00058592
6 *248:12 0.000333235
7 *888:A *886:A2 3.28925e-06
8 *915:B1 *915:B2 0.000157986
9 *915:B1 *249:62 5.19016e-05
10 *915:B1 *307:62 2.93845e-05
11 *248:12 *884:C 6.84304e-05
12 *248:12 *887:D 3.57928e-05
13 *248:12 *249:20 3.28357e-06
14 *248:12 *267:55 0.000164593
15 *248:23 *886:B1 7.37814e-06
16 *248:23 *887:B 1.24376e-05
17 *248:23 *887:D 0.000230682
18 *248:23 *915:B2 1.01436e-05
19 *248:23 *249:62 2.38139e-05
20 *248:23 *266:75 0.000159181
21 *248:23 *267:55 1.35714e-05
22 *247:65 *888:A 0.000181578
*RES
1 *884:Y *248:12 26.19 
2 *248:12 *887:C 23 
3 *248:12 *248:23 19.2879 
4 *248:23 *888:A 41.7286 
5 *248:23 *915:B1 40.8793 
*END

*D_NET *249 0.0136926
*CONN
*I *900:B I *D sky130_fd_sc_hd__nand2_1
*I *901:B I *D sky130_fd_sc_hd__or2_1
*I *887:A I *D sky130_fd_sc_hd__nand4_1
*I *974:B I *D sky130_fd_sc_hd__and4_1
*I *996:B I *D sky130_fd_sc_hd__and4_1
*I *1038:B2 I *D sky130_fd_sc_hd__a22o_1
*I *982:A1 I *D sky130_fd_sc_hd__a22o_1
*I *915:A1 I *D sky130_fd_sc_hd__a22o_1
*I *889:B I *D sky130_fd_sc_hd__nand2_1
*I *898:A2 I *D sky130_fd_sc_hd__a31o_1
*I *885:X O *D sky130_fd_sc_hd__buf_2
*CAP
1 *900:B 0.0001526
2 *901:B 0
3 *887:A 0
4 *974:B 0
5 *996:B 0.000109241
6 *1038:B2 0
7 *982:A1 0
8 *915:A1 6.87056e-05
9 *889:B 0.000311488
10 *898:A2 0.000143237
11 *885:X 0.000106314
12 *249:110 0.000119692
13 *249:102 0.000344101
14 *249:91 0.000347083
15 *249:83 0.00105837
16 *249:62 0.0012884
17 *249:26 0.000742092
18 *249:20 0.000696577
19 *249:18 0.000139347
20 *249:14 0.000454429
21 *249:8 0.000589968
22 *889:B *1074:CLK 4.2125e-05
23 *889:B *1074:RESET_B 0
24 *889:B *293:84 6.31687e-05
25 *889:B *311:72 9.58714e-05
26 *889:B *311:80 0.000184746
27 *898:A2 *898:A3 1.24376e-05
28 *898:A2 *267:10 0.000109739
29 *898:A2 *309:63 9.53015e-05
30 *898:A2 *309:77 1.14452e-05
31 *898:A2 *311:72 2.02872e-05
32 *900:B *310:152 5.71002e-06
33 *900:B *311:62 6.95121e-05
34 *915:A1 *915:A2 1.24376e-05
35 *996:B *293:40 0.000340473
36 *249:18 *887:B 5.74135e-05
37 *249:18 *251:10 1.21972e-05
38 *249:18 *309:59 1.57556e-05
39 *249:18 *310:104 5.3304e-05
40 *249:26 *267:10 0.000321479
41 *249:26 *267:55 0.000155772
42 *249:26 *309:59 7.56656e-05
43 *249:26 *309:61 0.000118631
44 *249:26 *309:63 0.000282906
45 *249:62 *886:B1 2.5343e-05
46 *249:62 *915:A2 9.08711e-05
47 *249:62 *266:75 7.67576e-05
48 *249:62 *309:59 5.58003e-05
49 *249:62 *310:100 5.77295e-05
50 *249:83 *913:C 0.000166513
51 *249:83 *913:D 0.000140208
52 *249:83 *263:18 3.20742e-05
53 *249:83 *265:51 1.27508e-05
54 *249:83 *265:68 0.000339858
55 *249:83 *280:10 0.000161947
56 *249:83 *280:23 0.000135335
57 *249:83 *296:86 5.6461e-05
58 *249:83 *307:62 0.000122557
59 *249:91 *293:40 3.74911e-05
60 *249:91 *307:42 2.46108e-05
61 *249:102 *293:40 9.40715e-05
62 *249:110 *272:20 0.000185382
63 *899:A *249:8 8.27118e-05
64 *900:A *900:B 5.2273e-05
65 *901:A *249:14 5.3304e-05
66 *915:B1 *249:62 5.19016e-05
67 *916:C *915:A1 4.00259e-06
68 *982:B2 *249:91 9.79925e-05
69 *1007:A2 *249:14 4.90185e-05
70 *1008:A1 *249:14 4.69521e-05
71 *1008:A1 *249:18 0
72 *1008:B1 *249:14 5.5792e-05
73 *1009:S *900:B 5.2273e-05
74 *16:10 *249:62 4.73716e-05
75 *16:10 *249:83 7.70737e-05
76 *58:6 *900:B 5.58003e-05
77 *59:14 *249:8 0.000123361
78 *59:14 *249:14 6.12731e-05
79 *59:25 *249:14 5.91105e-05
80 *60:12 *900:B 1.13812e-05
81 *60:12 *249:8 0.000185517
82 *71:19 *249:83 1.62615e-05
83 *83:14 *249:91 0.00011196
84 *91:12 *249:110 0.000185382
85 *140:10 *996:B 6.55954e-05
86 *140:10 *249:102 6.17437e-06
87 *164:8 *249:14 2.91673e-05
88 *164:8 *249:18 9.41704e-05
89 *166:8 *900:B 9.78317e-06
90 *213:30 *249:91 1.0092e-05
91 *214:110 *249:91 5.3304e-05
92 *214:110 *249:110 3.25507e-05
93 *245:107 *996:B 8.76309e-05
94 *245:115 *996:B 0.000138859
95 *246:23 *249:14 1.90974e-05
96 *246:36 *249:14 1.00203e-05
97 *246:48 *249:62 2.5343e-05
98 *246:97 *249:83 7.02296e-05
99 *247:65 *249:62 0.000242123
100 *247:65 *249:83 0.000256377
101 *247:94 *249:91 5.5792e-05
102 *247:111 *249:83 0.000334692
103 *248:12 *249:20 3.28357e-06
104 *248:23 *249:62 2.38139e-05
*RES
1 *885:X *249:8 41.1382 
2 *249:8 *249:14 20.9139 
3 *249:14 *249:18 3.37643 
4 *249:18 *249:20 0.497143 
5 *249:20 *249:26 22.3329 
6 *249:26 *898:A2 40.6721 
7 *249:26 *889:B 43.3029 
8 *249:20 *249:62 24.0521 
9 *249:62 *915:A1 39.1186 
10 *249:62 *249:83 33.6221 
11 *249:83 *249:91 34.5571 
12 *249:91 *982:A1 23 
13 *249:91 *249:102 2.21643 
14 *249:102 *249:110 33.4593 
15 *249:110 *1038:B2 23 
16 *249:102 *996:B 26.9564 
17 *249:83 *974:B 23 
18 *249:18 *887:A 23 
19 *249:14 *901:B 23 
20 *249:8 *900:B 41.8632 
*END

*D_NET *250 0.0013735
*CONN
*I *915:B2 I *D sky130_fd_sc_hd__a22o_1
*I *887:D I *D sky130_fd_sc_hd__nand4_1
*I *886:X O *D sky130_fd_sc_hd__a22o_1
*CAP
1 *915:B2 5.41791e-05
2 *887:D 0.000168117
3 *886:X 4.99221e-05
4 *250:8 0.000272218
5 *887:D *884:C 1.09903e-05
6 *887:D *887:B 3.81801e-05
7 *887:D *265:51 0.000135989
8 *915:B2 *265:51 0.000155995
9 *915:B1 *915:B2 0.000157986
10 *247:65 *250:8 5.3304e-05
11 *248:12 *887:D 3.57928e-05
12 *248:23 *887:D 0.000230682
13 *248:23 *915:B2 1.01436e-05
*RES
1 *886:X *250:8 38.6214 
2 *250:8 *887:D 42.5779 
3 *250:8 *915:B2 40.2579 
*END

*D_NET *251 0.00241164
*CONN
*I *916:A I *D sky130_fd_sc_hd__nand3_1
*I *917:A1 I *D sky130_fd_sc_hd__a21o_1
*I *888:B I *D sky130_fd_sc_hd__and2_1
*I *887:Y O *D sky130_fd_sc_hd__nand4_1
*CAP
1 *916:A 0.000142747
2 *917:A1 1.49546e-05
3 *888:B 3.96079e-05
4 *887:Y 0.000231489
5 *251:27 0.000309111
6 *251:10 0.000422506
7 *888:B *886:A2 2.64616e-05
8 *251:10 *887:B 9.66585e-05
9 *251:10 *915:A2 0.000134521
10 *251:10 *310:104 2.02872e-05
11 *251:27 *915:A2 0.000152285
12 *251:27 *309:49 3.47776e-05
13 *916:B *916:A 2.4754e-05
14 *916:C *916:A 4.5051e-05
15 *916:C *917:A1 1.14154e-05
16 *916:C *251:27 7.44161e-06
17 *917:B1 *916:A 0.000190434
18 *917:B1 *917:A1 0
19 *918:C *916:A 0
20 *73:8 *917:A1 2.77232e-05
21 *73:8 *251:27 5.15762e-05
22 *74:14 *916:A 7.53384e-06
23 *75:6 *916:A 0.000185434
24 *217:63 *888:B 3.7122e-06
25 *217:63 *251:10 0.00013228
26 *217:63 *251:27 8.66845e-05
27 *249:18 *251:10 1.21972e-05
*RES
1 *887:Y *251:10 41.9564 
2 *251:10 *888:B 38.6214 
3 *251:10 *251:27 18.7286 
4 *251:27 *917:A1 23.4971 
5 *251:27 *916:A 27.4536 
*END

*D_NET *252 0.00252568
*CONN
*I *895:B I *D sky130_fd_sc_hd__xnor2_1
*I *894:A_N I *D sky130_fd_sc_hd__and2b_1
*I *888:X O *D sky130_fd_sc_hd__and2_1
*CAP
1 *895:B 0
2 *894:A_N 0.000109024
3 *888:X 0.00042473
4 *252:8 0.000533755
5 *894:A_N *257:14 0.000166532
6 *894:A_N *310:55 9.41659e-05
7 *252:8 *265:24 0.000173142
8 *252:8 *309:49 1.0092e-05
9 *252:8 *309:59 0.000211342
10 *252:8 *309:104 8.29585e-06
11 *252:8 *310:55 5.79413e-06
12 *252:8 *310:62 9.23705e-06
13 *252:8 *310:81 4.80423e-06
14 *252:8 *311:72 0.000325197
15 *899:A *252:8 2.36059e-05
16 *900:A *252:8 0.000212941
17 *56:12 *894:A_N 5.67058e-05
18 *217:50 *894:A_N 1.252e-05
19 *217:50 *252:8 5.81707e-06
20 *217:63 *252:8 7.48596e-05
21 *246:36 *252:8 5.18546e-05
22 *247:30 *252:8 1.12695e-05
*RES
1 *888:X *252:8 48.3571 
2 *252:8 *894:A_N 41.2314 
3 *252:8 *895:B 38 
*END

*D_NET *253 0.000768693
*CONN
*I *893:A I *D sky130_fd_sc_hd__xnor2_1
*I *889:Y O *D sky130_fd_sc_hd__nand2_1
*CAP
1 *893:A 0
2 *889:Y 0.000244461
3 *253:12 0.000244461
4 *253:12 *261:12 0
5 *253:12 *293:84 0.000279772
*RES
1 *889:Y *253:12 42.1014 
2 *253:12 *893:A 38 
*END

*D_NET *254 0.00333385
*CONN
*I *892:A_N I *D sky130_fd_sc_hd__and2b_1
*I *898:B1 I *D sky130_fd_sc_hd__a31o_1
*I *890:X O *D sky130_fd_sc_hd__and4_1
*CAP
1 *892:A_N 9.96156e-05
2 *898:B1 0.000110765
3 *890:X 0.000231279
4 *254:33 0.000471891
5 *254:16 0.000651249
6 *254:12 0.000399487
7 *898:B1 *261:10 0
8 *898:B1 *267:10 5.81567e-05
9 *898:B1 *311:80 7.70499e-06
10 *254:12 *260:18 8.76002e-05
11 *254:12 *265:24 0
12 *254:12 *267:27 4.66905e-05
13 *254:12 *309:61 4.44897e-05
14 *254:12 *309:63 1.0092e-05
15 *254:16 *260:18 7.68689e-05
16 *254:16 *261:10 0
17 *254:16 *266:75 2.05503e-05
18 *254:16 *267:10 7.39425e-05
19 *254:33 *892:B 0.000190617
20 *254:33 *255:10 0.000123637
21 *254:33 *276:22 0.000262864
22 *254:33 *309:63 8.45309e-05
23 *254:33 *309:77 1.22803e-05
24 *56:8 *254:33 0.000116314
25 *56:12 *892:A_N 0.000136738
26 *247:30 *254:12 1.64845e-05
*RES
1 *890:X *254:12 47.1585 
2 *254:12 *254:16 11.4904 
3 *254:16 *898:B1 39.9057 
4 *254:16 *254:33 37.3743 
5 *254:33 *892:A_N 39.5743 
*END

*D_NET *255 0.00224518
*CONN
*I *898:A3 I *D sky130_fd_sc_hd__a31o_1
*I *892:B I *D sky130_fd_sc_hd__and2b_1
*I *891:X O *D sky130_fd_sc_hd__a22o_1
*CAP
1 *898:A3 7.78957e-05
2 *892:B 0.000127355
3 *891:X 0.000271103
4 *255:10 0.000476354
5 *892:B *257:8 5.67058e-05
6 *892:B *267:10 0
7 *898:A3 *309:86 7.15126e-05
8 *898:A3 *311:72 0.000178517
9 *255:10 *276:22 0.00021677
10 *898:A2 *898:A3 1.24376e-05
11 *56:8 *892:B 1.22906e-05
12 *56:12 *892:B 2.93747e-05
13 *217:50 *892:B 0.000267691
14 *217:50 *255:10 0.000132918
15 *254:33 *892:B 0.000190617
16 *254:33 *255:10 0.000123637
*RES
1 *891:X *255:10 42.4329 
2 *255:10 *892:B 42.2879 
3 *255:10 *898:A3 40.0507 
*END

*D_NET *256 0.000454522
*CONN
*I *893:B I *D sky130_fd_sc_hd__xnor2_1
*I *892:X O *D sky130_fd_sc_hd__and2b_1
*CAP
1 *893:B 0.000116244
2 *892:X 0.000116244
3 *893:B *257:8 2.30292e-05
4 *893:B *309:77 0.000199006
*RES
1 *892:X *893:B 49.045 
*END

*D_NET *257 0.00172582
*CONN
*I *894:B I *D sky130_fd_sc_hd__and2b_1
*I *895:A I *D sky130_fd_sc_hd__xnor2_1
*I *893:Y O *D sky130_fd_sc_hd__xnor2_1
*CAP
1 *894:B 0.000190657
2 *895:A 0
3 *893:Y 0.00022884
4 *257:14 0.000103316
5 *257:8 0.000522813
6 *257:14 *310:55 3.39231e-05
7 *892:B *257:8 5.67058e-05
8 *893:B *257:8 2.30292e-05
9 *894:A_N *257:14 0.000166532
10 *56:12 *894:B 8.46575e-05
11 *56:12 *257:8 4.39488e-05
12 *217:50 *257:14 0.000271401
*RES
1 *893:Y *257:8 26.5007 
2 *257:8 *257:14 33.6664 
3 *257:14 *895:A 23 
4 *257:8 *894:B 26.0243 
*END

*D_NET *258 0.00305284
*CONN
*I *908:A1 I *D sky130_fd_sc_hd__o21ai_2
*I *909:B I *D sky130_fd_sc_hd__or3_1
*I *894:X O *D sky130_fd_sc_hd__and2b_1
*CAP
1 *908:A1 0.000228585
2 *909:B 0
3 *894:X 0.000696558
4 *258:10 0.000925143
5 *907:B *258:10 6.66531e-05
6 *908:A2 *908:A1 4.95081e-05
7 *908:B1 *908:A1 0.00015405
8 *55:20 *258:10 4.2158e-05
9 *55:37 *258:10 2.29313e-05
10 *56:12 *258:10 0.000173278
11 *56:16 *258:10 0.000187129
12 *61:21 *258:10 4.19743e-05
13 *61:35 *258:10 0.000146197
14 *65:8 *908:A1 0.000133309
15 *65:8 *258:10 0.000185364
*RES
1 *894:X *258:10 36.1743 
2 *258:10 *909:B 23 
3 *258:10 *908:A1 27.9507 
*END

*D_NET *259 0.00303682
*CONN
*I *920:B1 I *D sky130_fd_sc_hd__a21oi_1
*I *896:C I *D sky130_fd_sc_hd__and3_1
*I *895:Y O *D sky130_fd_sc_hd__xnor2_1
*CAP
1 *920:B1 6.13681e-05
2 *896:C 3.73418e-05
3 *895:Y 0.000180852
4 *259:14 0.000412679
5 *259:10 0.000494821
6 *920:B1 *276:22 0.000128497
7 *259:10 *309:86 1.32314e-05
8 *259:10 *309:104 0.000215369
9 *259:10 *309:117 4.17736e-05
10 *259:10 *310:55 2.60152e-05
11 *259:14 *899:B 5.50049e-05
12 *259:14 *276:22 0.000918818
13 *896:A *896:C 1.14154e-05
14 *896:A *259:14 3.22467e-05
15 *899:A *259:14 0.000136743
16 *920:A1 *896:C 2.07921e-05
17 *920:A1 *920:B1 1.8561e-05
18 *920:A1 *259:14 1.03836e-05
19 *57:8 *259:10 0
20 *60:12 *259:10 0.000180456
21 *217:23 *920:B1 1.11037e-05
22 *217:40 *896:C 0
23 *217:40 *920:B1 2.93431e-05
*RES
1 *895:Y *259:10 42.2879 
2 *259:10 *259:14 25.15 
3 *259:14 *896:C 24.0771 
4 *259:14 *920:B1 25.0714 
*END

*D_NET *260 0.00473647
*CONN
*I *1079:A I *D sky130_fd_sc_hd__clkbuf_16
*I *1078:A I *D sky130_fd_sc_hd__clkbuf_16
*I *1077:X O *D sky130_fd_sc_hd__clkbuf_16
*CAP
1 *1079:A 0
2 *1078:A 8.62608e-05
3 *1077:X 0
4 *260:43 0.000378204
5 *260:18 0.00118578
6 *260:4 0.00147773
7 *1078:A *266:44 0.00016794
8 *1078:A *266:58 0
9 *1078:A *276:22 8.92628e-05
10 *260:18 *265:24 4.15094e-05
11 *260:18 *267:10 7.22049e-05
12 *260:18 *310:81 0.000251418
13 *260:43 *311:38 5.0926e-05
14 *55:20 *260:18 0
15 *167:8 *260:18 7.61733e-05
16 *167:8 *260:43 0.000166088
17 *217:23 *260:43 3.22879e-05
18 *217:44 *260:18 0.000481304
19 *245:16 *260:18 1.49187e-05
20 *254:12 *260:18 8.76002e-05
21 *254:16 *260:18 7.68689e-05
*RES
1 *1077:X *260:4 23 
2 *260:4 *260:18 37.3429 
3 *260:18 *1078:A 40.4184 
4 *260:4 *260:43 35.655 
5 *260:43 *1079:A 23 
*END

*D_NET *261 0.0136714
*CONN
*I *1065:CLK I *D sky130_fd_sc_hd__dfrtp_1
*I *1067:CLK I *D sky130_fd_sc_hd__dfrtp_1
*I *1063:CLK I *D sky130_fd_sc_hd__dfrtp_1
*I *1068:CLK I *D sky130_fd_sc_hd__dfrtp_1
*I *1074:CLK I *D sky130_fd_sc_hd__dfrtp_1
*I *1075:CLK I *D sky130_fd_sc_hd__dfrtp_1
*I *1076:CLK I *D sky130_fd_sc_hd__dfrtp_1
*I *1069:CLK I *D sky130_fd_sc_hd__dfrtp_1
*I *1078:X O *D sky130_fd_sc_hd__clkbuf_16
*CAP
1 *1065:CLK 0.000249639
2 *1067:CLK 0
3 *1063:CLK 0.000149436
4 *1068:CLK 5.36181e-05
5 *1074:CLK 0.000918971
6 *1075:CLK 0
7 *1076:CLK 0
8 *1069:CLK 0.000405039
9 *1078:X 0.000153171
10 *261:106 0.000257922
11 *261:91 0.00101886
12 *261:81 0.00123583
13 *261:70 0.00064173
14 *261:45 0.000538675
15 *261:33 0.000971584
16 *261:12 0.00121136
17 *261:10 0.00146746
18 *261:8 0.000541662
19 *1065:CLK *265:51 0
20 *1065:CLK *277:20 7.40794e-05
21 *1068:CLK *884:C 5.5792e-05
22 *1068:CLK *884:D 5.56279e-05
23 *1068:CLK *267:55 7.44098e-05
24 *1069:CLK *1069:RESET_B 0.000163558
25 *1069:CLK *289:14 0.000144006
26 *1069:CLK *290:8 2.95526e-05
27 *1074:CLK *1074:RESET_B 0.000123839
28 *1074:CLK *293:84 5.79611e-05
29 *261:8 *266:44 9.41704e-05
30 *261:8 *276:22 2.16575e-05
31 *261:10 *1084:A 0.000231425
32 *261:10 *311:80 4.77164e-06
33 *261:12 *1084:A 0.000113511
34 *261:12 *289:14 0.000486897
35 *261:12 *293:84 0
36 *261:12 *311:80 2.77188e-05
37 *261:33 *1061:B 1.15396e-05
38 *261:45 *1061:B 1.84917e-05
39 *261:45 *265:10 7.52305e-05
40 *261:70 *1084:A 0.000127662
41 *261:81 *265:51 0
42 *261:81 *307:62 5.67342e-05
43 *261:81 *307:74 1.88491e-05
44 *261:91 *1120:A 3.31198e-05
45 *261:106 *277:14 0
46 *261:106 *281:27 0.000208301
47 *261:106 *293:64 0
48 *879:A *261:91 5.3304e-05
49 *889:B *1074:CLK 4.2125e-05
50 *898:B1 *261:10 0
51 *1075:D *1069:CLK 0.000100543
52 *1075:D *261:33 0.000103948
53 *1076:D *261:45 0.000104578
54 *209:32 *261:45 0.000170043
55 *211:35 *1065:CLK 5.01986e-05
56 *211:35 *261:81 8.62876e-05
57 *211:50 *1065:CLK 0.00021356
58 *211:82 *261:12 0
59 *243:78 *261:70 5.93746e-05
60 *243:78 *261:81 0.000129772
61 *244:16 *261:91 2.02872e-05
62 *244:33 *1065:CLK 0.000136486
63 *246:12 *261:70 7.74854e-05
64 *246:12 *261:81 4.41821e-06
65 *247:14 *261:81 0.000185301
66 *247:30 *261:81 9.78317e-06
67 *253:12 *261:12 0
68 *254:16 *261:10 0
*RES
1 *1078:X *261:8 40.0507 
2 *261:8 *261:10 3.31429 
3 *261:10 *261:12 8.24429 
4 *261:12 *1069:CLK 45.8093 
5 *261:12 *261:33 20.7586 
6 *261:33 *261:45 39.1143 
7 *261:45 *1076:CLK 23 
8 *261:33 *1075:CLK 23 
9 *261:10 *1074:CLK 49.9729 
10 *261:8 *261:70 4.72286 
11 *261:70 *1068:CLK 39.5743 
12 *261:70 *261:81 7.89214 
13 *261:81 *261:91 25.2121 
14 *261:91 *1063:CLK 25.0507 
15 *261:91 *261:106 36.0486 
16 *261:106 *1067:CLK 23 
17 *261:81 *1065:CLK 43.2407 
*END

*D_NET *262 0.00822231
*CONN
*I *1070:CLK I *D sky130_fd_sc_hd__dfrtp_1
*I *1066:CLK I *D sky130_fd_sc_hd__dfrtp_1
*I *1072:CLK I *D sky130_fd_sc_hd__dfrtp_1
*I *1064:CLK I *D sky130_fd_sc_hd__dfrtp_1
*I *1071:CLK I *D sky130_fd_sc_hd__dfrtp_1
*I *1073:CLK I *D sky130_fd_sc_hd__dfrtp_1
*I *1079:X O *D sky130_fd_sc_hd__clkbuf_16
*CAP
1 *1070:CLK 9.93151e-05
2 *1066:CLK 0.000498078
3 *1072:CLK 0
4 *1064:CLK 4.33889e-05
5 *1071:CLK 0
6 *1073:CLK 0.000471178
7 *1079:X 0.00066855
8 *262:45 0.000653501
9 *262:34 0.000543076
10 *262:25 0.000508063
11 *262:8 0.000634977
12 *262:6 0.000767865
13 *1064:CLK *1066:RESET_B 5.50106e-05
14 *1064:CLK *271:16 0.000139357
15 *1066:CLK *1054:A1 5.3304e-05
16 *1066:CLK *1066:RESET_B 0.000230939
17 *1066:CLK *296:161 0.000219079
18 *1073:CLK *876:A1 5.56203e-05
19 *1073:CLK *275:8 0.000318197
20 *1073:CLK *310:22 3.89103e-05
21 *262:6 *856:A 2.98648e-05
22 *262:6 *276:22 0.000370383
23 *262:6 *276:39 0.000100061
24 *262:25 *876:A1 7.09341e-05
25 *262:34 *1066:RESET_B 1.58805e-05
26 *262:34 *271:22 0.000168754
27 *262:34 *277:36 0
28 *262:45 *1066:RESET_B 0.000107641
29 *856:B *1070:CLK 0
30 *856:B *262:6 0.000210859
31 *864:B *1064:CLK 5.50106e-05
32 *910:B *262:6 5.50106e-05
33 *1066:D *1066:CLK 2.93335e-05
34 *50:10 *1073:CLK 6.93449e-05
35 *211:103 *1073:CLK 8.07935e-05
36 *232:10 *262:34 0.000166513
37 *236:14 *262:25 6.16603e-05
38 *236:14 *262:34 6.29538e-05
39 *243:110 *1073:CLK 0.000107651
40 *243:121 *1073:CLK 0.000134585
41 *243:121 *262:25 7.78303e-05
42 *243:138 *262:25 0.000105283
43 *243:138 *262:34 0.00014355
*RES
1 *1079:X *262:6 35.0557 
2 *262:6 *262:8 15 
3 *262:8 *1073:CLK 49.9729 
4 *262:8 *262:25 5.075 
5 *262:25 *1071:CLK 38 
6 *262:25 *262:34 8.59643 
7 *262:34 *1064:CLK 39.5743 
8 *262:34 *262:45 2.96214 
9 *262:45 *1072:CLK 38 
10 *262:45 *1066:CLK 49.0821 
11 *262:6 *1070:CLK 24.595 
*END

*D_NET *263 0.0163254
*CONN
*I *849:A I *D sky130_fd_sc_hd__buf_2
*I *958:D I *D sky130_fd_sc_hd__nand4_2
*I *957:B1 I *D sky130_fd_sc_hd__a22o_1
*I *974:D I *D sky130_fd_sc_hd__and4_1
*I *1094:X O *D sky130_fd_sc_hd__clkbuf_2
*CAP
1 *849:A 0.00089781
2 *958:D 0
3 *957:B1 0
4 *974:D 0
5 *1094:X 0
6 *263:57 0.00155229
7 *263:39 0.000340342
8 *263:29 0.000781751
9 *263:18 0.00106627
10 *263:10 0.0028692
11 *263:4 0.00201601
12 *849:A *1047:B 4.90346e-05
13 *849:A *1059:B 0.000141052
14 *849:A *1091:A 5.3304e-05
15 *849:A *1092:A 0.000103647
16 *263:10 *276:8 0.000113134
17 *263:10 *278:8 0.000355906
18 *263:10 *281:10 0.000169099
19 *263:10 *281:27 0.00130739
20 *263:18 *296:86 3.81382e-05
21 *263:29 *281:27 0.000814091
22 *263:39 *958:C 0.000193935
23 *263:39 *266:12 9.94675e-05
24 *263:39 *266:22 1.14452e-05
25 *263:39 *267:108 0.000108681
26 *263:57 *1091:A 3.64337e-05
27 *263:57 *265:10 0
28 *263:57 *289:14 3.06228e-05
29 *929:D *263:18 2.64616e-05
30 *981:A *263:18 0
31 *1036:B1 *263:18 0.000467074
32 *1059:A *849:A 0.000104388
33 *1059:A *263:57 0.000231039
34 *1105:A *263:29 0.000105399
35 *12:10 *263:10 0
36 *38:13 *263:10 0
37 *51:10 *263:10 5.80963e-05
38 *63:12 *849:A 0.000231229
39 *83:20 *263:18 0.000182219
40 *87:10 *263:18 0.00018553
41 *90:10 *263:18 0.000214388
42 *193:28 *263:18 2.09577e-05
43 *201:10 *849:A 1.39317e-05
44 *210:8 *263:10 0
45 *210:23 *263:57 0.000349813
46 *210:49 *263:10 0
47 *211:82 *849:A 0.000238151
48 *211:103 *849:A 9.86932e-05
49 *213:37 *263:18 2.95526e-05
50 *217:50 *849:A 0.000347189
51 *246:97 *263:18 0.000186756
52 *247:111 *263:18 5.34244e-05
53 *249:83 *263:18 3.20742e-05
*RES
1 *1094:X *263:4 23 
2 *263:4 *263:10 49.22 
3 *263:10 *263:18 36.1493 
4 *263:18 *974:D 23 
5 *263:10 *263:29 26.8071 
6 *263:29 *263:39 35.8829 
7 *263:39 *957:B1 23 
8 *263:29 *958:D 23 
9 *263:4 *263:57 39.7979 
10 *263:57 *849:A 43.445 
*END

*D_NET *264 0.0163302
*CONN
*I *939:A I *D sky130_fd_sc_hd__and2_1
*I *953:A I *D sky130_fd_sc_hd__and2_1
*I *924:A I *D sky130_fd_sc_hd__and2_1
*I *881:A I *D sky130_fd_sc_hd__buf_2
*I *897:A I *D sky130_fd_sc_hd__nand2_2
*I *1095:X O *D sky130_fd_sc_hd__clkbuf_2
*CAP
1 *939:A 0
2 *953:A 0.000183956
3 *924:A 0.000138005
4 *881:A 0.000134407
5 *897:A 0
6 *1095:X 0
7 *264:30 0.000573731
8 *264:24 0.00179827
9 *264:20 0.00152177
10 *264:14 0.000910384
11 *264:6 0.0032752
12 *264:4 0.00248169
13 *881:A *897:B 1.45185e-05
14 *881:A *311:46 3.22051e-05
15 *881:A *311:62 5.40337e-05
16 *953:A *272:8 3.32865e-05
17 *953:A *307:20 1.13812e-05
18 *264:6 *285:18 0.00249677
19 *264:20 *939:B 0.000104392
20 *264:24 *272:20 0
21 *264:30 *272:20 0
22 *919:B *264:30 9.19684e-06
23 *935:B *264:24 4.6318e-06
24 *935:B *264:30 3.99459e-05
25 *964:A *264:14 3.22051e-05
26 *964:A *264:20 2.75811e-05
27 *964:C *264:14 3.15198e-05
28 *968:B1 *924:A 6.09117e-05
29 *969:B *924:A 0
30 *990:B1 *264:24 0
31 *992:A *264:14 9.58714e-05
32 *55:6 *881:A 6.63159e-06
33 *55:6 *264:30 3.0918e-05
34 *55:53 *264:30 1.35999e-05
35 *55:79 *264:30 0
36 *74:35 *264:30 0.000102235
37 *76:21 *264:30 1.17152e-05
38 *91:12 *924:A 1.41077e-05
39 *91:12 *264:24 0.000185433
40 *91:12 *264:30 5.91383e-05
41 *92:8 *264:30 8.85189e-05
42 *96:20 *264:24 0.000105165
43 *106:8 *264:24 2.93666e-05
44 *108:18 *264:24 0
45 *109:18 *264:24 0
46 *110:18 *953:A 7.46288e-05
47 *110:18 *264:24 0.000116314
48 *120:8 *953:A 0
49 *120:8 *264:24 0
50 *121:14 *953:A 1.07299e-05
51 *123:12 *264:24 0
52 *137:12 *264:14 7.52305e-05
53 *137:14 *264:14 2.56281e-05
54 *141:48 *264:14 0.000215349
55 *144:10 *264:14 0.000153197
56 *144:14 *264:14 7.78715e-05
57 *179:31 *264:30 0.000451118
58 *213:54 *264:24 6.49268e-05
59 *213:60 *264:24 7.56617e-05
60 *213:74 *264:24 1.36853e-05
61 *214:80 *264:24 0
62 *214:96 *264:24 0
63 *245:51 *264:24 0
64 *245:115 *264:24 0.000263201
*RES
1 *1095:X *264:4 23 
2 *264:4 *264:6 37.7829 
3 *264:6 *264:14 46.0329 
4 *264:14 *264:20 17.5479 
5 *264:20 *264:24 24.7121 
6 *264:24 *264:30 25.3986 
7 *264:30 *897:A 23 
8 *264:30 *881:A 26.045 
9 *264:24 *924:A 40.5686 
10 *264:20 *953:A 41.3143 
11 *264:14 *939:A 23 
*END

*D_NET *265 0.0182045
*CONN
*I *956:A I *D sky130_fd_sc_hd__and2_1
*I *942:A I *D sky130_fd_sc_hd__and2_1
*I *927:A I *D sky130_fd_sc_hd__and2_1
*I *911:A I *D sky130_fd_sc_hd__and2_1
*I *885:A I *D sky130_fd_sc_hd__buf_2
*I *1096:X O *D sky130_fd_sc_hd__dlymetal6s2s_1
*CAP
1 *956:A 0.000159846
2 *942:A 0.000234491
3 *927:A 0.00014641
4 *911:A 0
5 *885:A 0
6 *1096:X 0.000241076
7 *265:85 0.000737192
8 *265:68 0.00111133
9 *265:51 0.00132503
10 *265:37 0.00155884
11 *265:24 0.00127408
12 *265:10 0.00322781
13 *265:8 0.00133894
14 *927:A *927:B 0.00010018
15 *942:A *296:49 0.000106808
16 *956:A *309:43 3.50862e-06
17 *265:10 *1074:RESET_B 1.09886e-05
18 *265:10 *1084:A 0
19 *265:10 *1091:A 0
20 *265:10 *289:14 0
21 *265:24 *891:A2 5.3304e-05
22 *265:24 *276:22 9.41704e-05
23 *265:24 *309:104 2.02872e-05
24 *265:24 *310:55 5.05059e-05
25 *265:24 *310:62 0.000120537
26 *265:24 *310:81 9.81333e-06
27 *265:37 *1046:A2 6.17437e-06
28 *265:37 *1074:RESET_B 0.000204711
29 *265:37 *1084:A 0
30 *265:37 *1087:A 7.56794e-05
31 *265:37 *266:34 0.000432393
32 *265:37 *266:44 0
33 *265:37 *293:66 1.39826e-05
34 *265:37 *306:8 3.53698e-05
35 *265:37 *307:74 0.000265762
36 *265:51 *912:B1 3.86731e-05
37 *265:51 *913:C 7.80251e-05
38 *265:51 *913:D 4.22436e-05
39 *265:51 *307:62 0.000288936
40 *265:51 *307:74 4.95212e-05
41 *265:68 *911:B 5.58003e-05
42 *265:68 *912:B1 3.15669e-05
43 *265:68 *280:23 0.000214534
44 *265:68 *309:43 7.89617e-05
45 *265:85 *280:23 0
46 *265:85 *309:43 0.000183655
47 sideband_out[5] *265:8 0.000103647
48 *887:D *265:51 0.000135989
49 *899:A *265:24 1.09903e-05
50 *915:B2 *265:51 0.000155995
51 *932:A *265:68 0.000107747
52 *932:A *265:85 0
53 *955:B1 *942:A 9.46894e-05
54 *1065:CLK *265:51 0
55 *16:10 *265:51 2.97097e-06
56 *45:8 *265:37 8.57577e-05
57 *85:6 *927:A 9.5877e-05
58 *85:28 *265:68 2.70366e-05
59 *85:28 *265:85 1.69668e-05
60 *86:10 *265:68 8.62876e-05
61 *86:26 *265:68 0.00014411
62 *99:10 *265:85 0.000108681
63 *101:46 *942:A 5.56279e-05
64 *104:36 *265:85 0.000171796
65 *116:10 *956:A 0.00020177
66 *116:10 *265:85 0.000384435
67 *199:12 *265:51 1.61385e-05
68 *199:12 *265:68 0.000137525
69 *206:10 *265:10 8.51167e-05
70 *208:8 *265:10 5.10083e-05
71 *209:32 *265:10 7.37626e-05
72 *209:45 *265:10 3.884e-05
73 *210:29 *265:10 0.000187986
74 *210:55 *265:37 0.000221124
75 *217:44 *265:24 5.38496e-05
76 *243:42 *265:10 0.000287587
77 *244:33 *265:51 0
78 *246:97 *265:68 0.000388876
79 *247:65 *265:37 8.68049e-06
80 *249:83 *265:51 1.27508e-05
81 *249:83 *265:68 0.000339858
82 *252:8 *265:24 0.000173142
83 *254:12 *265:24 0
84 *260:18 *265:24 4.15094e-05
85 *261:45 *265:10 7.52305e-05
86 *261:81 *265:51 0
87 *263:57 *265:10 0
*RES
1 *1096:X *265:8 42.9093 
2 *265:8 *265:10 22.8582 
3 *265:10 *265:24 37.2316 
4 *265:24 *885:A 23 
5 *265:10 *265:37 46.5196 
6 *265:37 *265:51 28.7957 
7 *265:51 *911:A 23 
8 *265:51 *265:68 32.1929 
9 *265:68 *927:A 41.0036 
10 *265:68 *265:85 9.98429 
11 *265:85 *942:A 42.93 
12 *265:85 *956:A 40.9621 
*END

*D_NET *266 0.0143982
*CONN
*I *943:A1 I *D sky130_fd_sc_hd__a22o_1
*I *958:B I *D sky130_fd_sc_hd__nand4_2
*I *957:A1 I *D sky130_fd_sc_hd__a22o_1
*I *883:A I *D sky130_fd_sc_hd__buf_2
*I *890:B I *D sky130_fd_sc_hd__and4_1
*I *886:A1 I *D sky130_fd_sc_hd__a22o_1
*I *891:A1 I *D sky130_fd_sc_hd__a22o_1
*I *1097:X O *D sky130_fd_sc_hd__clkbuf_2
*CAP
1 *943:A1 9.49677e-05
2 *958:B 6.47528e-05
3 *957:A1 0
4 *883:A 0.00033047
5 *890:B 0
6 *886:A1 0
7 *891:A1 0
8 *1097:X 0.000196909
9 *266:107 0.00015972
10 *266:75 0.000300683
11 *266:65 0.00054505
12 *266:58 0.000203192
13 *266:44 0.000640619
14 *266:34 0.0012021
15 *266:22 0.00185189
16 *266:12 0.00111736
17 *266:10 0.000689719
18 *266:8 0.000770386
19 *883:A *1087:A 0.000183735
20 *883:A *307:74 5.89166e-05
21 *943:A1 *943:B1 4.93812e-05
22 *943:A1 *943:B2 0.000141677
23 *943:A1 *267:108 4.2573e-05
24 *958:B *958:C 2.6194e-05
25 *958:B *267:108 9.67842e-05
26 *266:8 *309:10 0.000100477
27 *266:10 *277:14 0.00024836
28 *266:10 *296:59 0
29 *266:12 *267:108 2.24973e-05
30 *266:12 *274:41 0
31 *266:12 *277:14 7.75329e-06
32 *266:22 *848:A 5.62433e-06
33 *266:22 *267:55 0.00019266
34 *266:22 *267:91 0.000853292
35 *266:22 *274:16 3.35885e-06
36 *266:22 *274:41 0
37 *266:22 *277:14 2.10505e-05
38 *266:22 *293:62 1.47563e-05
39 *266:22 *293:64 0.000154385
40 *266:22 *293:66 0.000146686
41 *266:34 *267:55 0.000308701
42 *266:34 *293:66 6.13704e-05
43 *266:34 *306:8 1.13812e-05
44 *266:44 *1084:A 0.00013449
45 *266:44 *276:22 0.000120029
46 *266:44 *309:104 1.18862e-05
47 *266:58 *267:27 6.01083e-05
48 *266:58 *276:22 9.58714e-05
49 *266:58 *309:63 0.00010023
50 *266:58 *309:104 1.59094e-05
51 *266:58 *310:100 0
52 *266:65 *890:A 9.64943e-05
53 *266:75 *886:B1 1.14452e-05
54 *266:75 *267:10 3.18198e-05
55 *266:75 *267:55 0.000146491
56 *266:75 *309:160 2.73074e-05
57 *1045:C *266:34 0.000149925
58 *1045:C *266:65 0.000136475
59 *1078:A *266:44 0.00016794
60 *1078:A *266:58 0
61 *1112:A *266:8 3.22879e-05
62 *39:15 *266:8 2.30292e-05
63 *42:8 *266:22 0.000502561
64 *44:8 *266:22 0.000140884
65 *115:8 *266:10 4.23817e-05
66 *115:8 *266:12 4.66036e-05
67 *116:8 *943:A1 0.000316755
68 *116:8 *958:B 0.000140259
69 *217:50 *266:58 1.01436e-05
70 *217:63 *266:58 1.73044e-05
71 *247:14 *883:A 6.17437e-06
72 *248:23 *266:75 0.000159181
73 *249:62 *266:75 7.67576e-05
74 *254:16 *266:75 2.05503e-05
75 *261:8 *266:44 9.41704e-05
76 *263:39 *266:12 9.94675e-05
77 *263:39 *266:22 1.14452e-05
78 *265:37 *266:34 0.000432393
79 *265:37 *266:44 0
*RES
1 *1097:X *266:8 41.9564 
2 *266:8 *266:10 13.5264 
3 *266:10 *266:12 2.61 
4 *266:12 *266:22 26.68 
5 *266:22 *266:34 26.8071 
6 *266:34 *266:44 38.265 
7 *266:44 *266:58 34.3914 
8 *266:58 *891:A1 23 
9 *266:34 *266:65 3.95643 
10 *266:65 *266:75 36.5457 
11 *266:75 *886:A1 23 
12 *266:65 *890:B 23 
13 *266:22 *883:A 43.3029 
14 *266:12 *957:A1 38 
15 *266:10 *266:107 15 
16 *266:107 *958:B 25.0714 
17 *266:107 *943:A1 26.9771 
*END

*D_NET *267 0.016911
*CONN
*I *943:B2 I *D sky130_fd_sc_hd__a22o_1
*I *958:A I *D sky130_fd_sc_hd__nand4_2
*I *957:B2 I *D sky130_fd_sc_hd__a22o_1
*I *882:A I *D sky130_fd_sc_hd__clkbuf_4
*I *891:B2 I *D sky130_fd_sc_hd__a22o_1
*I *890:A I *D sky130_fd_sc_hd__and4_1
*I *1098:X O *D sky130_fd_sc_hd__clkbuf_2
*CAP
1 *943:B2 3.13473e-05
2 *958:A 0
3 *957:B2 0
4 *882:A 2.05553e-05
5 *891:B2 0
6 *890:A 5.29266e-05
7 *1098:X 0.000801867
8 *267:108 0.000195134
9 *267:91 0.00174687
10 *267:55 0.00262925
11 *267:27 9.7179e-05
12 *267:21 0.000185577
13 *267:12 0.00012077
14 *267:10 0.00209563
15 *267:6 0.00185133
16 *882:A *890:C 4.08664e-05
17 *890:A *890:C 1.24376e-05
18 *943:B2 *943:B1 3.52024e-05
19 *943:B2 *958:C 0.00010623
20 *267:10 *1076:RESET_B 0.000106182
21 *267:10 *1093:A 0.000261056
22 *267:10 *289:14 0
23 *267:10 *290:12 0.000748709
24 *267:10 *293:84 0.000579929
25 *267:10 *309:77 5.20202e-05
26 *267:10 *310:55 0
27 *267:10 *311:80 0
28 *267:21 *890:C 0.000163466
29 *267:27 *309:61 4.15283e-06
30 *267:27 *309:63 2.55847e-05
31 *267:27 *310:81 0.000125552
32 *267:27 *310:100 4.9858e-05
33 *267:55 *884:C 9.78729e-06
34 *267:55 *887:B 8.06804e-06
35 *267:91 *848:A 0.000151832
36 *267:91 *274:8 3.91818e-05
37 *267:91 *274:16 6.43129e-05
38 *267:108 *958:C 0.000139357
39 *267:108 *274:8 5.3304e-05
40 *267:108 *274:16 0
41 *267:108 *277:14 0.000160191
42 *892:B *267:10 0
43 *898:A2 *267:10 0.000109739
44 *898:B1 *267:10 5.81567e-05
45 *943:A1 *943:B2 0.000141677
46 *943:A1 *267:108 4.2573e-05
47 *958:B *267:108 9.67842e-05
48 *1044:B1 *267:91 2.06951e-05
49 *1045:C *882:A 5.3304e-05
50 *1045:C *890:A 0.000141177
51 *1045:C *267:21 0.000179725
52 *1068:CLK *267:55 7.44098e-05
53 *1068:D *267:55 1.1669e-05
54 *44:8 *267:91 5.75756e-06
55 *56:8 *267:10 1.44813e-05
56 *102:8 *267:91 0
57 *211:50 *267:91 0.000386392
58 *213:10 *267:91 7.15351e-05
59 *217:50 *267:10 0
60 *217:63 *267:27 7.37814e-06
61 *243:78 *267:55 0
62 *244:16 *267:55 0
63 *244:16 *267:91 6.08173e-05
64 *248:12 *267:55 0.000164593
65 *248:23 *267:55 1.35714e-05
66 *249:26 *267:10 0.000321479
67 *249:26 *267:55 0.000155772
68 *254:12 *267:27 4.66905e-05
69 *254:16 *267:10 7.39425e-05
70 *260:18 *267:10 7.22049e-05
71 *263:39 *267:108 0.000108681
72 *266:12 *267:108 2.24973e-05
73 *266:22 *267:55 0.00019266
74 *266:22 *267:91 0.000853292
75 *266:34 *267:55 0.000308701
76 *266:58 *267:27 6.01083e-05
77 *266:65 *890:A 9.64943e-05
78 *266:75 *267:10 3.18198e-05
79 *266:75 *267:55 0.000146491
*RES
1 *1098:X *267:6 35.5321 
2 *267:6 *267:10 39.795 
3 *267:10 *267:12 15 
4 *267:12 *890:A 24.5743 
5 *267:12 *267:21 2.05071 
6 *267:21 *267:27 32.61 
7 *267:27 *891:B2 23 
8 *267:21 *882:A 23.6214 
9 *267:10 *267:55 47.8454 
10 *267:55 *267:91 48.5054 
11 *267:91 *957:B2 23 
12 *267:91 *267:108 34.9507 
13 *267:108 *958:A 23 
14 *267:108 *943:B2 24.5743 
*END

*D_NET *268 0.00329692
*CONN
*I *870:B1 I *D sky130_fd_sc_hd__a21oi_1
*I *1099:X O *D sky130_fd_sc_hd__clkbuf_1
*CAP
1 *870:B1 0
2 *1099:X 9.65528e-05
3 *268:16 0.00116765
4 *268:8 0.0012642
5 *268:8 *288:21 0.000196491
6 *268:16 *1055:B 0.000290702
7 *1055:A *268:16 0.000262732
8 *31:15 *268:8 0
9 *205:10 *268:16 1.09834e-05
10 *235:12 *268:16 7.61229e-06
*RES
1 *1099:X *268:8 40.61 
2 *268:8 *268:16 36.6257 
3 *268:16 *870:B1 23 
*END

*D_NET *269 0.00510106
*CONN
*I *871:B2 I *D sky130_fd_sc_hd__o2bb2a_1
*I *870:A1 I *D sky130_fd_sc_hd__a21oi_1
*I *1100:X O *D sky130_fd_sc_hd__buf_1
*CAP
1 *871:B2 0.000175939
2 *870:A1 0.00030944
3 *1100:X 0.00117098
4 *269:10 0.00115352
5 *269:6 0.00183912
6 *871:B2 *275:8 0
7 *269:10 *275:8 0
8 *234:21 *871:B2 0
9 *235:12 *870:A1 2.50593e-05
10 *235:12 *871:B2 0
11 *243:18 *871:B2 0.000233819
12 *243:18 *269:10 0.000193187
*RES
1 *1100:X *269:6 38.3907 
2 *269:6 *269:10 28.5264 
3 *269:10 *870:A1 42.3293 
4 *269:10 *871:B2 41.3143 
*END

*D_NET *270 0.00767866
*CONN
*I *867:A I *D sky130_fd_sc_hd__or2_1
*I *872:A1 I *D sky130_fd_sc_hd__a21o_1
*I *1101:X O *D sky130_fd_sc_hd__buf_1
*CAP
1 *867:A 0
2 *872:A1 0.000134708
3 *1101:X 0.000118208
4 *270:16 0.00112407
5 *270:12 0.00253647
6 *270:10 0.00166532
7 *270:10 *287:25 4.52113e-05
8 *270:12 *271:12 0
9 *270:12 *279:21 0.000868181
10 *270:12 *287:25 0.00105412
11 *867:B *872:A1 5.50049e-05
12 *231:16 *872:A1 2.87566e-05
13 *232:10 *872:A1 1.14762e-05
14 *232:10 *270:16 3.71369e-05
*RES
1 *1101:X *270:10 40.8689 
2 *270:10 *270:12 39.5954 
3 *270:12 *270:16 32.2964 
4 *270:16 *872:A1 25.5479 
5 *270:16 *867:A 23 
*END

*D_NET *271 0.00712205
*CONN
*I *864:A I *D sky130_fd_sc_hd__or2_1
*I *873:A1 I *D sky130_fd_sc_hd__a22o_1
*I *1102:X O *D sky130_fd_sc_hd__buf_1
*CAP
1 *864:A 0
2 *873:A1 0
3 *1102:X 0
4 *271:22 8.58396e-05
5 *271:16 0.000984991
6 *271:12 0.00230097
7 *271:6 0.00140182
8 *271:12 *287:25 0.00102574
9 *271:16 *1064:D 4.08612e-05
10 *271:16 *1064:RESET_B 2.8521e-05
11 *271:16 *1066:RESET_B 0.000159897
12 *271:16 *1080:A 5.56279e-05
13 *271:16 *277:28 0.000119477
14 *271:16 *292:8 0.000198335
15 *271:16 *293:12 0.000301263
16 int4_out[1] *271:12 4.2255e-05
17 *864:B *271:16 2.35258e-05
18 *873:A2 *271:22 4.14538e-05
19 *1064:CLK *271:16 0.000139357
20 *228:10 *271:22 3.36312e-06
21 *262:34 *271:22 0.000168754
22 *270:12 *271:12 0
*RES
1 *1102:X *271:6 38 
2 *271:6 *271:12 48.7436 
3 *271:12 *271:16 21.1286 
4 *271:16 *271:22 32.2579 
5 *271:22 *873:A1 23 
6 *271:16 *864:A 23 
*END

*D_NET *272 0.0115504
*CONN
*I *861:A I *D sky130_fd_sc_hd__or2_1
*I *874:A1 I *D sky130_fd_sc_hd__a22o_1
*I *1103:X O *D sky130_fd_sc_hd__buf_1
*CAP
1 *861:A 0.000340917
2 *874:A1 0.000216946
3 *1103:X 0.000512523
4 *272:26 0.00164133
5 *272:20 0.00252178
6 *272:8 0.00195084
7 *272:8 *939:B 0.000119878
8 *272:8 *307:20 5.6882e-05
9 *272:8 *309:14 0.000187827
10 *272:20 *939:B 2.80935e-06
11 *272:20 *310:152 6.32792e-05
12 *272:26 *860:A 7.44354e-05
13 *861:B *861:A 8.10694e-05
14 *861:B *874:A1 5.50106e-05
15 *874:B1 *861:A 3.28923e-05
16 *874:B1 *874:A1 0
17 *874:B2 *861:A 6.67393e-05
18 *919:B *272:26 5.73309e-05
19 *922:A *272:26 0.000129736
20 *922:B_N *272:26 8.87689e-05
21 *950:B *272:20 0.000117244
22 *953:A *272:8 3.32865e-05
23 *979:C *272:8 0.000120805
24 *980:A2 *272:8 8.78864e-05
25 *1007:A1 *272:20 0
26 *1015:B1 *874:A1 5.50049e-05
27 *1015:B1 *272:26 0.00012308
28 *55:61 *272:20 0.000244609
29 *68:41 *272:26 0.000105391
30 *72:10 *272:20 0
31 *77:6 *272:26 8.44063e-05
32 *80:10 *272:26 9.97435e-06
33 *82:8 *272:20 0.000206416
34 *91:12 *272:20 0.000455117
35 *96:10 *272:20 9.41178e-05
36 *96:20 *272:20 4.95545e-05
37 *97:19 *272:8 2.13808e-05
38 *97:19 *272:20 5.95012e-05
39 *105:44 *272:20 2.72055e-05
40 *106:8 *272:20 0.000100778
41 *107:8 *272:20 0.000218952
42 *111:8 *272:8 0.000159997
43 *119:27 *272:8 3.53698e-05
44 *121:14 *272:8 0.000151635
45 *121:14 *272:20 3.05976e-05
46 *173:10 *272:26 0.000141052
47 *179:31 *272:20 8.298e-05
48 *213:43 *272:20 0.000134433
49 *225:8 *861:A 0.000137651
50 *225:8 *874:A1 7.5604e-05
51 *249:110 *272:20 0.000185382
52 *264:24 *272:20 0
53 *264:30 *272:20 0
*RES
1 *1103:X *272:8 49.5896 
2 *272:8 *272:20 47.1382 
3 *272:20 *272:26 20.5486 
4 *272:26 *874:A1 27.495 
5 *272:26 *861:A 30.0636 
*END

*D_NET *273 0.00993419
*CONN
*I *875:A1 I *D sky130_fd_sc_hd__a22o_1
*I *876:B2 I *D sky130_fd_sc_hd__o221a_1
*I *1104:X O *D sky130_fd_sc_hd__buf_1
*CAP
1 *875:A1 0.000125176
2 *876:B2 0.000270375
3 *1104:X 0.000391097
4 *273:16 0.00279139
5 *273:10 0.00239583
6 *273:8 0.000391097
7 *273:8 *296:14 0.000457969
8 *273:8 *296:153 0.000364765
9 *273:8 *307:8 0.00136499
10 *273:16 *293:34 6.96714e-05
11 *273:16 *296:153 0
12 *273:16 *296:161 0
13 *875:B1 *875:A1 9.90118e-05
14 *876:B1 *876:B2 3.23857e-06
15 *876:C1 *876:B2 4.50063e-05
16 *43:10 *273:16 0.00018258
17 *146:31 *273:16 0
18 *212:108 *273:16 0.000186025
19 *212:116 *876:B2 0.000157464
20 *212:116 *273:16 0.000297452
21 *214:55 *273:16 0
22 *223:26 *876:B2 1.28557e-05
23 *226:8 *273:16 8.50366e-05
24 *227:8 *273:16 0.000135547
25 *228:10 *273:16 0
26 *240:10 *875:A1 2.86326e-05
27 *240:10 *876:B2 7.89883e-05
*RES
1 *1104:X *273:8 38.4114 
2 *273:8 *273:10 15 
3 *273:10 *273:16 45.2814 
4 *273:16 *876:B2 43.945 
5 *273:16 *875:A1 41.045 
*END

*D_NET *274 0.00319649
*CONN
*I *957:A2 I *D sky130_fd_sc_hd__a22o_1
*I *943:B1 I *D sky130_fd_sc_hd__a22o_1
*I *958:C I *D sky130_fd_sc_hd__nand4_2
*I *848:A I *D sky130_fd_sc_hd__clkbuf_4
*I *1105:X O *D sky130_fd_sc_hd__buf_1
*CAP
1 *957:A2 0
2 *943:B1 5.02748e-05
3 *958:C 0.000196142
4 *848:A 0.000158723
5 *1105:X 0.000422232
6 *274:41 0.000425759
7 *274:16 0.000436709
8 *274:8 0.000520875
9 *943:A1 *943:B1 4.93812e-05
10 *943:B2 *943:B1 3.52024e-05
11 *943:B2 *958:C 0.00010623
12 *958:B *958:C 2.6194e-05
13 *102:8 *848:A 0
14 *115:8 *274:41 8.85189e-05
15 *213:10 *848:A 2.93431e-05
16 *263:39 *958:C 0.000193935
17 *266:12 *274:41 0
18 *266:22 *848:A 5.62433e-06
19 *266:22 *274:16 3.35885e-06
20 *266:22 *274:41 0
21 *267:91 *848:A 0.000151832
22 *267:91 *274:8 3.91818e-05
23 *267:91 *274:16 6.43129e-05
24 *267:108 *958:C 0.000139357
25 *267:108 *274:8 5.3304e-05
26 *267:108 *274:16 0
*RES
1 *1105:X *274:8 28.7586 
2 *274:8 *274:16 16.9161 
3 *274:16 *848:A 42.1739 
4 *274:16 *274:41 18.9357 
5 *274:41 *958:C 27.6918 
6 *274:41 *943:B1 24.3361 
7 *274:8 *957:A2 23 
*END

*D_NET *275 0.00477456
*CONN
*I *876:A1 I *D sky130_fd_sc_hd__o221a_1
*I *856:A I *D sky130_fd_sc_hd__and2_1
*I *1106:X O *D sky130_fd_sc_hd__clkbuf_1
*CAP
1 *876:A1 0.000305205
2 *856:A 0.000106474
3 *1106:X 0
4 *275:8 0.00155116
5 *275:6 0.00113948
6 *856:B *856:A 1.83444e-05
7 *871:B2 *275:8 0
8 *1073:CLK *876:A1 5.56203e-05
9 *1073:CLK *275:8 0.000318197
10 *209:20 *275:8 0
11 *212:116 *876:A1 0.000318659
12 *234:21 *275:8 8.77628e-05
13 *235:12 *275:8 8.16757e-06
14 *236:14 *876:A1 0.000258928
15 *236:14 *275:8 0.000505765
16 *243:18 *275:8 0
17 *262:6 *856:A 2.98648e-05
18 *262:25 *876:A1 7.09341e-05
19 *269:10 *275:8 0
*RES
1 *1106:X *275:6 38 
2 *275:6 *275:8 23.7386 
3 *275:8 *856:A 40.0921 
4 *275:8 *876:A1 45.1464 
*END

*D_NET *276 0.00965294
*CONN
*I *877:A1 I *D sky130_fd_sc_hd__o22a_1
*I *878:A1 I *D sky130_fd_sc_hd__a21oi_4
*I *1107:X O *D sky130_fd_sc_hd__dlymetal6s2s_1
*CAP
1 *877:A1 0
2 *878:A1 0
3 *1107:X 0.000116462
4 *276:39 0.000234701
5 *276:22 0.0025112
6 *276:12 0.00229998
7 *276:8 0.000139944
8 *276:22 *891:A2 2.02872e-05
9 *276:22 *1057:B 6.28327e-05
10 *276:22 *309:104 5.61255e-06
11 *910:B *276:22 0.000154121
12 *920:B1 *276:22 0.000128497
13 *1078:A *276:22 8.92628e-05
14 *68:10 *276:22 0.000137651
15 *206:10 *276:22 9.41704e-05
16 *210:49 *276:8 4.21594e-06
17 *210:49 *276:22 0.000261956
18 *217:23 *276:22 0.000784273
19 *217:40 *276:22 4.288e-05
20 *219:10 *276:39 1.36714e-05
21 *220:10 *276:39 0.00018522
22 *223:10 *276:39 0
23 *243:14 *276:39 5.22438e-05
24 *243:65 *276:8 0
25 *254:33 *276:22 0.000262864
26 *255:10 *276:22 0.00021677
27 *259:14 *276:22 0.000918818
28 *261:8 *276:22 2.16575e-05
29 *262:6 *276:22 0.000370383
30 *262:6 *276:39 0.000100061
31 *263:10 *276:8 0.000113134
32 *265:24 *276:22 9.41704e-05
33 *266:44 *276:22 0.000120029
34 *266:58 *276:22 9.58714e-05
*RES
1 *1107:X *276:8 40.9621 
2 *276:8 *276:12 15.4971 
3 *276:12 *276:22 47.6429 
4 *276:22 *878:A1 23 
5 *276:22 *276:39 35.5307 
6 *276:39 *877:A1 23 
*END

*D_NET *277 0.0146414
*CONN
*I *1064:D I *D sky130_fd_sc_hd__dfrtp_1
*I *844:A I *D sky130_fd_sc_hd__clkbuf_4
*I *1108:X O *D sky130_fd_sc_hd__buf_1
*CAP
1 *1064:D 7.01429e-05
2 *844:A 0
3 *1108:X 0.000156856
4 *277:36 0.000184549
5 *277:28 0.000848329
6 *277:20 0.00387762
7 *277:14 0.00483865
8 *277:10 0.00171153
9 *277:14 *281:27 0
10 *277:14 *293:62 3.16861e-05
11 *277:14 *293:64 4.26957e-05
12 *277:20 *913:D 2.38288e-05
13 *277:20 *296:161 3.74633e-05
14 *277:20 *296:169 0.000276693
15 *277:36 *1066:RESET_B 5.31444e-05
16 *863:B *277:20 0.000140927
17 *864:B *277:28 3.46673e-05
18 *1004:A2 *277:20 4.75206e-05
19 *1004:B1 *277:20 2.93845e-05
20 *1065:CLK *277:20 7.40794e-05
21 *1065:D *277:20 1.44464e-05
22 *162:10 *277:20 0.000218476
23 *180:6 *277:20 1.32289e-05
24 *193:28 *277:14 1.39826e-05
25 *209:10 *277:36 2.45549e-06
26 *211:62 *277:14 0.000195316
27 *214:96 *277:20 9.4812e-05
28 *227:8 *277:28 0.000110913
29 *228:10 *277:20 9.41704e-05
30 *229:10 *277:28 2.92911e-06
31 *243:138 *277:36 0.000119941
32 *245:51 *277:20 9.65021e-05
33 *245:72 *277:20 0.000148249
34 *247:73 *277:20 0.000438474
35 *261:106 *277:14 0
36 *262:34 *277:36 0
37 *266:10 *277:14 0.00024836
38 *266:12 *277:14 7.75329e-06
39 *266:22 *277:14 2.10505e-05
40 *267:108 *277:14 0.000160191
41 *271:16 *1064:D 4.08612e-05
42 *271:16 *277:28 0.000119477
*RES
1 *1108:X *277:10 41.3454 
2 *277:10 *277:14 46.8482 
3 *277:14 *277:20 47.0007 
4 *277:20 *277:28 37.8921 
5 *277:28 *277:36 33.9357 
6 *277:36 *844:A 23 
7 *277:28 *1064:D 23.9995 
*END

*D_NET *278 0.00130822
*CONN
*I *1086:A I *D sky130_fd_sc_hd__dlygate4sd3_1
*I *1116:A I *D sky130_fd_sc_hd__clkbuf_4
*I *1065:Q O *D sky130_fd_sc_hd__dfrtp_1
*CAP
1 *1086:A 0
2 *1116:A 0
3 *1065:Q 0.000171903
4 *278:18 0.000106574
5 *278:12 0.000256891
6 *278:8 0.00032222
7 *278:18 *281:27 9.47303e-05
8 *263:10 *278:8 0.000355906
*RES
1 *1065:Q *278:8 42.7229 
2 *278:8 *278:12 17.0507 
3 *278:12 *278:18 32.61 
4 *278:18 *1116:A 23 
5 *278:12 *1086:A 23 
*END

*D_NET *279 0.00432464
*CONN
*I *1117:A I *D sky130_fd_sc_hd__clkbuf_4
*I *1088:A I *D sky130_fd_sc_hd__dlygate4sd3_1
*I *1066:Q O *D sky130_fd_sc_hd__dfrtp_1
*CAP
1 *1117:A 0.000116512
2 *1088:A 0
3 *1066:Q 0.000117913
4 *279:21 0.00127139
5 *279:10 0.00115488
6 *279:8 0.000117913
7 *279:21 *312:10 0.000177696
8 *211:147 *279:21 0.000500161
9 *270:12 *279:21 0.000868181
*RES
1 *1066:Q *279:8 40.2579 
2 *279:8 *279:10 15 
3 *279:10 *1088:A 23 
4 *279:10 *279:21 42.7571 
5 *279:21 *1117:A 39.5743 
*END

*D_NET *280 0.00608513
*CONN
*I *1118:A I *D sky130_fd_sc_hd__clkbuf_4
*I *1089:A I *D sky130_fd_sc_hd__dlygate4sd3_1
*I *1067:Q O *D sky130_fd_sc_hd__dfrtp_1
*CAP
1 *1118:A 0
2 *1089:A 4.47995e-05
3 *1067:Q 0.000243602
4 *280:23 0.0011877
5 *280:10 0.0014761
6 *280:10 *296:86 0.000161947
7 *280:23 *296:43 0.000118017
8 *280:23 *296:86 0.000150563
9 *972:C *280:23 0.000239717
10 *85:28 *280:23 0.000122386
11 *87:10 *280:23 6.24933e-05
12 *87:23 *280:23 0.00012477
13 *98:10 *280:23 0.000185755
14 *101:46 *280:23 7.19778e-05
15 *103:8 *280:23 6.68793e-05
16 *115:18 *280:23 0.000658174
17 *116:10 *280:23 4.06512e-05
18 *117:8 *280:23 0.000140884
19 *193:18 *1089:A 1.59094e-05
20 *199:12 *280:10 0.00022648
21 *212:14 *280:23 0
22 *247:143 *280:23 0.000234508
23 *249:83 *280:10 0.000161947
24 *249:83 *280:23 0.000135335
25 *265:68 *280:23 0.000214534
26 *265:85 *280:23 0
*RES
1 *1067:Q *280:10 42.785 
2 *280:10 *1089:A 38.6214 
3 *280:10 *280:23 43.3164 
4 *280:23 *1118:A 23 
*END

*D_NET *281 0.0072659
*CONN
*I *1119:A I *D sky130_fd_sc_hd__clkbuf_4
*I *1087:A I *D sky130_fd_sc_hd__dlygate4sd3_1
*I *1068:Q O *D sky130_fd_sc_hd__dfrtp_1
*CAP
1 *1119:A 6.63506e-05
2 *1087:A 0.00048221
3 *1068:Q 0.000184711
4 *281:27 0.00141711
5 *281:10 0.00201768
6 *1087:A *1046:A2 7.44257e-05
7 *1087:A *307:74 6.17437e-06
8 *281:27 *293:64 0
9 *281:27 *293:66 0
10 *883:A *1087:A 0.000183735
11 *1046:A1 *1087:A 2.64616e-05
12 *15:10 *281:27 0
13 *41:10 *281:27 0.000116314
14 *200:10 *281:10 2.14486e-05
15 *211:10 *281:10 0
16 *211:35 *281:10 0
17 *211:35 *281:27 0
18 *261:106 *281:27 0.000208301
19 *263:10 *281:10 0.000169099
20 *263:10 *281:27 0.00130739
21 *263:29 *281:27 0.000814091
22 *265:37 *1087:A 7.56794e-05
23 *277:14 *281:27 0
24 *278:18 *281:27 9.47303e-05
*RES
1 *1068:Q *281:10 41.3557 
2 *281:10 *1087:A 47.3836 
3 *281:10 *281:27 36.7679 
4 *281:27 *1119:A 39.0979 
*END

*D_NET *282 0.00175075
*CONN
*I *1120:A I *D sky130_fd_sc_hd__clkbuf_4
*I *1081:A I *D sky130_fd_sc_hd__dlygate4sd3_1
*I *1063:Q O *D sky130_fd_sc_hd__dfrtp_1
*CAP
1 *1120:A 0.000371735
2 *1081:A 0.000127881
3 *1063:Q 0
4 *282:6 0.000499616
5 *879:A *1120:A 2.64616e-05
6 *211:35 *1081:A 4.96717e-05
7 *211:50 *1120:A 2.16891e-05
8 *243:78 *1081:A 0.000133652
9 *243:78 *1120:A 6.28499e-05
10 *244:16 *1081:A 0.000135884
11 *244:16 *1120:A 0.000162018
12 *244:33 *1120:A 0.000126169
13 *261:91 *1120:A 3.31198e-05
*RES
1 *1063:Q *282:6 38 
2 *282:6 *1081:A 41.0036 
3 *282:6 *1120:A 44.3593 
*END

*D_NET *283 0.00218078
*CONN
*I *1092:A I *D sky130_fd_sc_hd__dlygate4sd3_1
*I *1121:A I *D sky130_fd_sc_hd__clkbuf_4
*I *1069:Q O *D sky130_fd_sc_hd__dfrtp_1
*CAP
1 *1092:A 0.000238215
2 *1121:A 0
3 *1069:Q 0
4 *283:10 0.000706249
5 *283:6 0.000944464
6 *849:A *1092:A 0.000103647
7 *63:24 *1092:A 0
8 *201:10 *1092:A 0
9 *211:88 *1092:A 2.76611e-06
10 *211:103 *1092:A 0.000185434
11 *214:14 *1092:A 0
*RES
1 *1069:Q *283:6 38 
2 *283:6 *283:10 28.5264 
3 *283:10 *1121:A 23 
4 *283:6 *1092:A 43.7171 
*END

*D_NET *284 0.00143187
*CONN
*I *1122:A I *D sky130_fd_sc_hd__buf_2
*I *1090:A I *D sky130_fd_sc_hd__dlygate4sd3_1
*I *1070:Q O *D sky130_fd_sc_hd__dfrtp_1
*CAP
1 *1122:A 0
2 *1090:A 0
3 *1070:Q 0.000250544
4 *284:23 0.000448321
5 *284:8 0.000698865
6 sideband_out[1] *284:23 3.41361e-05
*RES
1 *1070:Q *284:8 27.4536 
2 *284:8 *1090:A 23 
3 *284:8 *284:23 38.6171 
4 *284:23 *1122:A 23 
*END

*D_NET *285 0.00836693
*CONN
*I *847:A I *D sky130_fd_sc_hd__clkbuf_4
*I *956:B I *D sky130_fd_sc_hd__and2_1
*I *1109:X O *D sky130_fd_sc_hd__buf_1
*CAP
1 *847:A 0
2 *956:B 0.000190996
3 *1109:X 0.000240386
4 *285:20 0.000627151
5 *285:18 0.0015154
6 *285:8 0.00131963
7 *962:A1 *285:20 0.000137368
8 *962:A2 *285:20 2.46906e-05
9 *978:A1 *285:20 5.5792e-05
10 *979:A *285:18 5.3304e-05
11 *979:B *285:18 4.67488e-05
12 *979:C *285:18 0.000143661
13 *979:C *285:20 0.000519686
14 *985:B *285:18 5.68958e-05
15 *985:B *285:20 9.78729e-06
16 *999:A1 *285:18 7.48608e-05
17 *999:A2 *285:18 0.000189522
18 *111:17 *285:20 0.00021677
19 *118:12 *956:B 0.000218987
20 *118:12 *285:20 9.53319e-05
21 *119:8 *285:20 1.12268e-05
22 *119:19 *285:20 1.41129e-05
23 *134:16 *285:20 5.3304e-05
24 *137:8 *285:18 5.45541e-05
25 *264:6 *285:18 0.00249677
*RES
1 *1109:X *285:8 42.3707 
2 *285:8 *285:18 49.1579 
3 *285:18 *285:20 10.15 
4 *285:20 *956:B 27.4536 
5 *285:20 *847:A 23 
*END

*D_NET *286 0.00464367
*CONN
*I *1083:A I *D sky130_fd_sc_hd__dlygate4sd3_1
*I *1123:A I *D sky130_fd_sc_hd__clkbuf_4
*I *1071:Q O *D sky130_fd_sc_hd__dfrtp_1
*CAP
1 *1083:A 0.000171867
2 *1123:A 0
3 *1071:Q 7.78942e-05
4 *286:10 0.00132592
5 *286:6 0.00157568
6 *286:10 *1073:RESET_B 0
7 *286:10 *300:8 0.000169683
8 *286:10 *305:8 0.000170807
9 *286:10 *310:14 0.00115182
*RES
1 *1071:Q *286:6 24.0979 
2 *286:6 *286:10 45.7814 
3 *286:10 *1123:A 38 
4 *286:6 *1083:A 26.0243 
*END

*D_NET *287 0.0058356
*CONN
*I *1124:A I *D sky130_fd_sc_hd__buf_2
*I *1085:A I *D sky130_fd_sc_hd__dlygate4sd3_1
*I *1072:Q O *D sky130_fd_sc_hd__dfrtp_1
*CAP
1 *1124:A 0
2 *1085:A 0
3 *1072:Q 0.000474284
4 *287:25 0.000891329
5 *287:21 0.00115904
6 *287:12 0.000267716
7 *287:10 0.000474284
8 *287:10 *1072:RESET_B 0.000276598
9 *287:10 *312:10 0.000167275
10 *270:10 *287:25 4.52113e-05
11 *270:12 *287:25 0.00105412
12 *271:12 *287:25 0.00102574
*RES
1 *1072:Q *287:10 46.12 
2 *287:10 *287:12 15 
3 *287:12 *1085:A 23 
4 *287:12 *287:21 19.4329 
5 *287:21 *287:25 46.1336 
6 *287:25 *1124:A 23 
*END

*D_NET *288 0.00299161
*CONN
*I *1125:A I *D sky130_fd_sc_hd__buf_2
*I *1082:A I *D sky130_fd_sc_hd__dlygate4sd3_1
*I *1073:Q O *D sky130_fd_sc_hd__dfrtp_1
*CAP
1 *1125:A 0
2 *1082:A 0
3 *1073:Q 0.000351702
4 *288:21 0.000735565
5 *288:8 0.00108727
6 *288:8 *310:14 9.91701e-05
7 *288:21 *311:8 0.000521421
8 *268:8 *288:21 0.000196491
*RES
1 *1073:Q *288:8 29.8357 
2 *288:8 *1082:A 23 
3 *288:8 *288:21 46.3229 
4 *288:21 *1125:A 23 
*END

*D_NET *289 0.00514752
*CONN
*I *1084:A I *D sky130_fd_sc_hd__dlygate4sd3_1
*I *1126:A I *D sky130_fd_sc_hd__clkbuf_4
*I *1074:Q O *D sky130_fd_sc_hd__dfrtp_1
*CAP
1 *1084:A 0.000265474
2 *1126:A 0
3 *1074:Q 7.17209e-05
4 *289:14 0.00112903
5 *289:8 0.00146622
6 *289:8 *293:84 0.000100061
7 *289:14 *1091:A 0.000341048
8 *289:14 *290:12 0
9 *289:14 *291:14 0.000505354
10 *1069:CLK *289:14 0.000144006
11 *210:29 *289:14 0
12 *261:10 *1084:A 0.000231425
13 *261:12 *1084:A 0.000113511
14 *261:12 *289:14 0.000486897
15 *261:70 *1084:A 0.000127662
16 *263:57 *289:14 3.06228e-05
17 *265:10 *1084:A 0
18 *265:10 *289:14 0
19 *265:37 *1084:A 0
20 *266:44 *1084:A 0.00013449
21 *267:10 *289:14 0
*RES
1 *1074:Q *289:8 39.0979 
2 *289:8 *289:14 40.4579 
3 *289:14 *1126:A 23 
4 *289:8 *1084:A 44.4836 
*END

*D_NET *290 0.00268026
*CONN
*I *1093:A I *D sky130_fd_sc_hd__dlygate4sd3_1
*I *1127:A I *D sky130_fd_sc_hd__clkbuf_4
*I *1075:Q O *D sky130_fd_sc_hd__dfrtp_1
*CAP
1 *1093:A 0.000211626
2 *1127:A 0
3 *1075:Q 4.61395e-05
4 *290:12 0.000562706
5 *290:8 0.000820472
6 *1093:A *310:55 0
7 *1069:CLK *290:8 2.95526e-05
8 *207:8 *1093:A 0
9 *267:10 *1093:A 0.000261056
10 *267:10 *290:12 0.000748709
11 *289:14 *290:12 0
*RES
1 *1075:Q *290:8 38.6214 
2 *290:8 *290:12 28.5264 
3 *290:12 *1127:A 23 
4 *290:8 *1093:A 41.6664 
*END

*D_NET *291 0.00294618
*CONN
*I *1091:A I *D sky130_fd_sc_hd__dlygate4sd3_1
*I *1128:A I *D sky130_fd_sc_hd__clkbuf_4
*I *1076:Q O *D sky130_fd_sc_hd__dfrtp_1
*CAP
1 *1091:A 0.000229082
2 *1128:A 0
3 *1076:Q 4.66791e-05
4 *291:14 0.000687937
5 *291:8 0.000963699
6 *849:A *1091:A 5.3304e-05
7 *217:50 *1091:A 5.3304e-05
8 *243:42 *291:8 2.93335e-05
9 *263:57 *1091:A 3.64337e-05
10 *265:10 *1091:A 0
11 *289:14 *1091:A 0.000341048
12 *289:14 *291:14 0.000505354
*RES
1 *1076:Q *291:8 38.6214 
2 *291:8 *291:14 29.6036 
3 *291:14 *1128:A 23 
4 *291:8 *1091:A 43.3443 
*END

*D_NET *292 0.00163055
*CONN
*I *1129:A I *D sky130_fd_sc_hd__clkbuf_4
*I *1064:Q O *D sky130_fd_sc_hd__dfrtp_1
*CAP
1 *1129:A 0
2 *1064:Q 0.000605648
3 *292:8 0.000605648
4 *292:8 *1080:A 3.22051e-05
5 *292:8 *293:12 0.000188713
6 *271:16 *292:8 0.000198335
*RES
1 *1064:Q *292:8 32.2179 
2 *292:8 *1129:A 23 
*END

*D_NET *293 0.0214671
*CONN
*I *1064:RESET_B I *D sky130_fd_sc_hd__dfrtp_1
*I *1065:RESET_B I *D sky130_fd_sc_hd__dfrtp_1
*I *1063:RESET_B I *D sky130_fd_sc_hd__dfrtp_1
*I *1068:RESET_B I *D sky130_fd_sc_hd__dfrtp_1
*I *1069:RESET_B I *D sky130_fd_sc_hd__dfrtp_1
*I *1075:RESET_B I *D sky130_fd_sc_hd__dfrtp_1
*I *1076:RESET_B I *D sky130_fd_sc_hd__dfrtp_1
*I *1074:RESET_B I *D sky130_fd_sc_hd__dfrtp_1
*I *1067:RESET_B I *D sky130_fd_sc_hd__dfrtp_1
*I *1066:RESET_B I *D sky130_fd_sc_hd__dfrtp_1
*I *1080:X O *D sky130_fd_sc_hd__buf_4
*CAP
1 *1064:RESET_B 4.42216e-06
2 *1065:RESET_B 0
3 *1063:RESET_B 0
4 *1068:RESET_B 0
5 *1069:RESET_B 0.000460014
6 *1075:RESET_B 0.000460014
7 *1076:RESET_B 0.00031299
8 *1074:RESET_B 0.00103137
9 *1067:RESET_B 0.00129639
10 *1066:RESET_B 0.00100037
11 *1080:X 0.000436686
12 *293:84 0.000926443
13 *293:66 0.000697722
14 *293:64 0.000419727
15 *293:62 0.000582545
16 *293:40 0.00214112
17 *293:34 0.0014422
18 *293:12 0.00128665
19 *1066:RESET_B *1054:A1 1.90678e-05
20 *1067:RESET_B *296:86 2.23334e-06
21 *293:40 *298:6 0.000363345
22 *293:84 *311:80 6.78027e-05
23 *880:A2 *1074:RESET_B 0.000210364
24 *880:A2 *293:66 0.000191713
25 *889:B *1074:RESET_B 0
26 *889:B *293:84 6.31687e-05
27 *982:B2 *293:40 8.55549e-05
28 *996:B *293:40 0.000340473
29 *996:D *293:40 0.000141177
30 *1020:A *293:40 3.26241e-05
31 *1020:B *293:40 0.000189848
32 *1020:C *293:40 3.0172e-05
33 *1033:A *293:40 5.3304e-05
34 *1033:B *293:40 0.000124874
35 *1033:C *293:40 5.82853e-05
36 *1064:CLK *1066:RESET_B 5.50106e-05
37 *1066:CLK *1066:RESET_B 0.000230939
38 *1067:D *293:62 4.28861e-05
39 *1069:CLK *1069:RESET_B 0.000163558
40 *1074:CLK *1074:RESET_B 0.000123839
41 *1074:CLK *293:84 5.79611e-05
42 *41:10 *293:66 0
43 *42:8 *293:62 8.6074e-05
44 *43:10 *293:40 5.22448e-05
45 *45:8 *293:66 8.78864e-05
46 *49:8 *1066:RESET_B 5.47354e-05
47 *52:8 *1076:RESET_B 0.0001366
48 *70:18 *293:40 3.23062e-05
49 *70:40 *293:40 2.05503e-05
50 *83:14 *293:40 1.13812e-05
51 *141:26 *293:40 0.000188109
52 *154:8 *293:40 8.24349e-05
53 *155:14 *293:40 0.000184707
54 *178:10 *293:40 0.000149896
55 *193:18 *293:40 0.000449266
56 *199:12 *1067:RESET_B 5.40241e-05
57 *206:10 *1074:RESET_B 0.000138708
58 *209:32 *1076:RESET_B 0.000287505
59 *209:58 *1074:RESET_B 4.74809e-05
60 *210:55 *1074:RESET_B 0.000221124
61 *211:82 *293:84 3.54728e-05
62 *211:147 *293:40 2.18286e-05
63 *214:110 *293:40 5.3304e-05
64 *243:42 *1076:RESET_B 0.000530748
65 *243:138 *1066:RESET_B 0
66 *244:33 *1067:RESET_B 1.42891e-05
67 *244:60 *1067:RESET_B 0.000130809
68 *244:60 *293:40 0.000184489
69 *245:107 *293:40 3.74732e-05
70 *247:86 *293:40 0.000170019
71 *247:94 *293:40 5.3304e-05
72 *249:91 *293:40 3.74911e-05
73 *249:102 *293:40 9.40715e-05
74 *253:12 *293:84 0.000279772
75 *261:12 *293:84 0
76 *261:106 *293:64 0
77 *262:34 *1066:RESET_B 1.58805e-05
78 *262:45 *1066:RESET_B 0.000107641
79 *265:10 *1074:RESET_B 1.09886e-05
80 *265:37 *1074:RESET_B 0.000204711
81 *265:37 *293:66 1.39826e-05
82 *266:22 *293:62 1.47563e-05
83 *266:22 *293:64 0.000154385
84 *266:22 *293:66 0.000146686
85 *266:34 *293:66 6.13704e-05
86 *267:10 *1076:RESET_B 0.000106182
87 *267:10 *293:84 0.000579929
88 *271:16 *1064:RESET_B 2.8521e-05
89 *271:16 *1066:RESET_B 0.000159897
90 *271:16 *293:12 0.000301263
91 *273:16 *293:34 6.96714e-05
92 *277:14 *293:62 3.16861e-05
93 *277:14 *293:64 4.26957e-05
94 *277:36 *1066:RESET_B 5.31444e-05
95 *281:27 *293:64 0
96 *281:27 *293:66 0
97 *289:8 *293:84 0.000100061
98 *292:8 *293:12 0.000188713
*RES
1 *1080:X *293:12 31.9071 
2 *293:12 *1066:RESET_B 45.8154 
3 *1066:RESET_B *293:34 33.3143 
4 *293:34 *293:40 48.5468 
5 *293:40 *1067:RESET_B 35.5577 
6 *1067:RESET_B *293:62 21.7632 
7 *293:62 *293:64 4.01857 
8 *293:64 *293:66 7.54 
9 *293:66 *1074:RESET_B 27.2525 
10 *1074:RESET_B *293:84 29.3032 
11 *293:84 *1076:RESET_B 24.1039 
12 *293:84 *1075:RESET_B 15 
13 *1075:RESET_B *1069:RESET_B 7.83 
14 *293:66 *1068:RESET_B 15 
15 *293:64 *1063:RESET_B 15 
16 *293:62 *1065:RESET_B 15 
17 *293:12 *1064:RESET_B 0.548929 
*END

*D_NET *294 0.00046611
*CONN
*I *880:A1 I *D sky130_fd_sc_hd__o21ba_1
*I *1081:X O *D sky130_fd_sc_hd__dlygate4sd3_1
*CAP
1 *880:A1 5.71417e-05
2 *1081:X 5.71417e-05
3 *211:35 *880:A1 0.000170977
4 *244:16 *880:A1 0.000180849
*RES
1 *1081:X *880:A1 48.0507 
*END

*D_NET *295 0.000449909
*CONN
*I *1036:A2 I *D sky130_fd_sc_hd__a22o_1
*I *1086:X O *D sky130_fd_sc_hd__dlygate4sd3_1
*CAP
1 *1036:A2 6.35136e-05
2 *1086:X 4.07517e-05
3 *295:8 0.000104265
4 *1036:B1 *1036:A2 6.15689e-05
5 *42:8 *295:8 8.78864e-05
6 *193:28 *1036:A2 6.17437e-06
7 *193:28 *295:8 8.57485e-05
*RES
1 *1086:X *295:8 39.2014 
2 *295:8 *1036:A2 39.4707 
*END

*D_NET *296 0.0246074
*CONN
*I *1054:A1 I *D sky130_fd_sc_hd__a31o_1
*I *863:A I *D sky130_fd_sc_hd__xnor2_1
*I *850:A I *D sky130_fd_sc_hd__or4_1
*I *977:A2 I *D sky130_fd_sc_hd__a31o_1
*I *942:B I *D sky130_fd_sc_hd__and2_1
*I *928:A2 I *D sky130_fd_sc_hd__a22o_1
*I *912:B1 I *D sky130_fd_sc_hd__a22o_1
*I *913:D I *D sky130_fd_sc_hd__nand4_2
*I *929:C I *D sky130_fd_sc_hd__nand4_1
*I *984:B I *D sky130_fd_sc_hd__nand2_1
*I *1110:X O *D sky130_fd_sc_hd__clkbuf_4
*CAP
1 *1054:A1 0.00029969
2 *863:A 0
3 *850:A 0
4 *977:A2 3.23952e-05
5 *942:B 2.18824e-05
6 *928:A2 0.000288625
7 *912:B1 0.000593323
8 *913:D 0.000215457
9 *929:C 0
10 *984:B 1.59615e-05
11 *1110:X 0
12 *296:169 0.000367093
13 *296:161 0.000813836
14 *296:155 0.00106684
15 *296:153 0.00213381
16 *296:86 0.00123201
17 *296:71 0.000677706
18 *296:59 0.00104884
19 *296:49 0.000763992
20 *296:43 0.00175183
21 *296:29 0.00208671
22 *296:14 0.0010067
23 *296:4 0.00226528
24 *912:B1 *911:B 0.000154625
25 *296:43 *307:20 5.14637e-06
26 *296:153 *307:8 0.000144071
27 *863:B *296:161 0.000140927
28 *912:A1 *912:B1 9.66668e-05
29 *912:B2 *912:B1 3.68207e-05
30 *928:B1 *928:A2 5.55743e-06
31 *928:B2 *928:A2 5.56356e-05
32 *929:B *296:86 5.56593e-05
33 *929:D *296:71 0.000151069
34 *929:D *296:86 1.24376e-05
35 *942:A *296:49 0.000106808
36 *954:A *296:59 6.07397e-05
37 *954:B *296:59 6.17437e-06
38 *955:B1 *296:49 1.74129e-05
39 *955:B1 *296:59 2.64616e-05
40 *962:A2 *296:43 4.30894e-05
41 *971:C *296:43 0.000147801
42 *977:A1 *296:29 0.000139448
43 *977:A1 *296:43 2.93431e-05
44 *984:A *984:B 1.9054e-05
45 *984:A *296:29 0.000368598
46 *986:B *296:29 5.58003e-05
47 *1066:CLK *1054:A1 5.3304e-05
48 *1066:CLK *296:161 0.000219079
49 *1066:RESET_B *1054:A1 1.90678e-05
50 *1067:RESET_B *296:86 2.23334e-06
51 *69:14 *912:B1 0.000140021
52 *69:29 *912:B1 3.32096e-05
53 *70:10 *912:B1 5.61255e-06
54 *72:10 *912:B1 5.3304e-05
55 *100:13 *296:59 2.64616e-05
56 *100:21 *296:59 0.000157955
57 *102:8 *296:59 0.000578559
58 *102:8 *296:71 9.35152e-05
59 *102:26 *296:59 8.29264e-05
60 *112:10 *296:59 6.17437e-06
61 *115:8 *296:59 0
62 *118:22 *296:43 0.000421254
63 *119:8 *296:43 0.000106671
64 *129:10 *296:43 8.48502e-06
65 *134:8 *296:43 0.000125555
66 *134:16 *296:43 0
67 *135:10 *296:29 9.62519e-05
68 *142:8 *296:29 7.095e-05
69 *161:10 *296:169 0
70 *199:20 *296:86 0
71 *212:12 *296:59 0.000220109
72 *212:14 *296:59 0.000573981
73 *212:14 *296:71 0.000103344
74 *212:42 *928:A2 3.78835e-05
75 *212:61 *928:A2 2.81066e-05
76 *212:88 *296:169 0.000166522
77 *213:74 *296:169 0
78 *213:87 *296:169 0
79 *214:110 *912:B1 3.28357e-06
80 *228:10 *296:161 7.58413e-05
81 *244:33 *296:71 1.49812e-05
82 *244:33 *296:86 0
83 *246:97 *913:D 1.37232e-05
84 *246:97 *296:86 0.00018536
85 *247:73 *913:D 0
86 *247:111 *296:86 5.3304e-05
87 *247:113 *296:86 0.000185223
88 *247:128 *928:A2 9.41704e-05
89 *247:128 *296:71 1.64964e-05
90 *247:143 *296:86 3.46013e-05
91 *249:83 *913:D 0.000140208
92 *249:83 *296:86 5.6461e-05
93 *263:18 *296:86 3.81382e-05
94 *265:51 *912:B1 3.86731e-05
95 *265:51 *913:D 4.22436e-05
96 *265:68 *912:B1 3.15669e-05
97 *266:10 *296:59 0
98 *273:8 *296:14 0.000457969
99 *273:8 *296:153 0.000364765
100 *273:16 *296:153 0
101 *273:16 *296:161 0
102 *277:20 *913:D 2.38288e-05
103 *277:20 *296:161 3.74633e-05
104 *277:20 *296:169 0.000276693
105 *280:10 *296:86 0.000161947
106 *280:23 *296:43 0.000118017
107 *280:23 *296:86 0.000150563
*RES
1 *1110:X *296:4 23 
2 *296:4 *296:14 37.4364 
3 *296:14 *984:B 23.4971 
4 *296:14 *296:29 11.5171 
5 *296:29 *296:43 41.5418 
6 *296:43 *296:49 18.8529 
7 *296:49 *296:59 30.3907 
8 *296:59 *296:71 20.9036 
9 *296:71 *929:C 23 
10 *296:71 *296:86 24.6736 
11 *296:86 *913:D 41.9979 
12 *296:86 *912:B1 47.4043 
13 *296:59 *928:A2 42.9507 
14 *296:49 *942:B 23.4971 
15 *296:29 *977:A2 23.4971 
16 *296:4 *296:153 47.5525 
17 *296:153 *296:155 6.18321 
18 *296:155 *296:161 24.6529 
19 *296:161 *296:169 38.7 
20 *296:169 *850:A 23 
21 *296:161 *863:A 23 
22 *296:155 *1054:A1 43.075 
*END

*D_NET *297 0.000253639
*CONN
*I *1046:A2 I *D sky130_fd_sc_hd__a21bo_1
*I *1087:X O *D sky130_fd_sc_hd__dlygate4sd3_1
*CAP
1 *1046:A2 8.65193e-05
2 *1087:X 8.65193e-05
3 *1087:A *1046:A2 7.44257e-05
4 *265:37 *1046:A2 6.17437e-06
*RES
1 *1087:X *1046:A2 47.5743 
*END

*D_NET *298 0.00116243
*CONN
*I *1040:A2 I *D sky130_fd_sc_hd__a22o_1
*I *1088:X O *D sky130_fd_sc_hd__dlygate4sd3_1
*CAP
1 *1040:A2 0
2 *1088:X 0.00012784
3 *298:6 0.00012784
4 *211:147 *298:6 0.000543405
5 *293:40 *298:6 0.000363345
*RES
1 *1088:X *298:6 28.8621 
2 *298:6 *1040:A2 23 
*END

*D_NET *299 0.000571282
*CONN
*I *1044:A2 I *D sky130_fd_sc_hd__a22o_1
*I *1089:X O *D sky130_fd_sc_hd__dlygate4sd3_1
*CAP
1 *1044:A2 6.86292e-05
2 *1089:X 6.86292e-05
3 *1044:B1 *1044:A2 5.79559e-05
4 *193:18 *1044:A2 0.000231039
5 *199:20 *1044:A2 5.56279e-05
6 *211:50 *1044:A2 3.43522e-05
7 *211:62 *1044:A2 5.50483e-05
*RES
1 *1089:X *1044:A2 49.0243 
*END

*D_NET *300 0.00100836
*CONN
*I *1049:B I *D sky130_fd_sc_hd__and2_1
*I *1090:X O *D sky130_fd_sc_hd__dlygate4sd3_1
*CAP
1 *1049:B 0.000303981
2 *1090:X 8.82946e-05
3 *300:8 0.000392275
4 *1049:A *1049:B 5.41288e-05
5 *286:10 *300:8 0.000169683
*RES
1 *1090:X *300:8 40.2579 
2 *300:8 *1049:B 43.3857 
*END

*D_NET *301 0.00115393
*CONN
*I *1061:B I *D sky130_fd_sc_hd__and2_1
*I *1091:X O *D sky130_fd_sc_hd__dlygate4sd3_1
*CAP
1 *1061:B 0.000321671
2 *1091:X 0.00012781
3 *301:8 0.000449481
4 *1075:D *1061:B 6.17437e-06
5 *243:42 *301:8 0.000218759
6 *261:33 *1061:B 1.15396e-05
7 *261:45 *1061:B 1.84917e-05
*RES
1 *1091:X *301:8 40.9621 
2 *301:8 *1061:B 42.205 
*END

*D_NET *302 0.000275797
*CONN
*I *1047:B I *D sky130_fd_sc_hd__and2_1
*I *1092:X O *D sky130_fd_sc_hd__dlygate4sd3_1
*CAP
1 *1047:B 8.50284e-05
2 *1092:X 8.50284e-05
3 *849:A *1047:B 4.90346e-05
4 *211:103 *1047:B 5.67058e-05
*RES
1 *1092:X *1047:B 48.0714 
*END

*D_NET *303 0.00029044
*CONN
*I *1059:B I *D sky130_fd_sc_hd__and2_1
*I *1093:X O *D sky130_fd_sc_hd__dlygate4sd3_1
*CAP
1 *1059:B 3.60242e-05
2 *1093:X 3.60242e-05
3 *849:A *1059:B 0.000141052
4 *1059:A *1059:B 7.73389e-05
*RES
1 *1093:X *1059:B 47.5743 
*END

*D_NET *304 0.00119762
*CONN
*I *1055:B I *D sky130_fd_sc_hd__and2_1
*I *1082:X O *D sky130_fd_sc_hd__dlygate4sd3_1
*CAP
1 *1055:B 0.000311312
2 *1082:X 7.07838e-05
3 *304:8 0.000382096
4 *304:8 *310:14 3.97596e-05
5 *1055:A *1055:B 0.000102971
6 *268:16 *1055:B 0.000290702
*RES
1 *1082:X *304:8 39.2014 
2 *304:8 *1055:B 45.6643 
*END

*D_NET *305 0.000943904
*CONN
*I *1051:B I *D sky130_fd_sc_hd__and2_1
*I *1083:X O *D sky130_fd_sc_hd__dlygate4sd3_1
*CAP
1 *1051:B 0.000268878
2 *1083:X 8.88525e-05
3 *305:8 0.000357731
4 *211:128 *1051:B 5.76359e-05
5 *286:10 *305:8 0.000170807
*RES
1 *1083:X *305:8 40.2579 
2 *305:8 *1051:B 42.9507 
*END

*D_NET *306 0.000709352
*CONN
*I *1057:B I *D sky130_fd_sc_hd__and2_1
*I *1084:X O *D sky130_fd_sc_hd__dlygate4sd3_1
*CAP
1 *1057:B 0.000182377
2 *1084:X 6.95714e-05
3 *306:8 0.000251948
4 *845:A *1057:B 0
5 *210:49 *1057:B 9.58714e-05
6 *265:37 *306:8 3.53698e-05
7 *266:34 *306:8 1.13812e-05
8 *276:22 *1057:B 6.28327e-05
*RES
1 *1084:X *306:8 39.2014 
2 *306:8 *1057:B 41.5214 
*END

*D_NET *307 0.0270626
*CONN
*I *953:B I *D sky130_fd_sc_hd__and2_1
*I *927:B I *D sky130_fd_sc_hd__and2_1
*I *912:A2 I *D sky130_fd_sc_hd__a22o_1
*I *913:C I *D sky130_fd_sc_hd__nand4_2
*I *860:A I *D sky130_fd_sc_hd__xor2_1
*I *1056:A1 I *D sky130_fd_sc_hd__a31o_1
*I *851:B I *D sky130_fd_sc_hd__or3_1
*I *857:A1 I *D sky130_fd_sc_hd__o21a_1
*I *886:B1 I *D sky130_fd_sc_hd__a22o_1
*I *884:D I *D sky130_fd_sc_hd__nand4_1
*I *1111:X O *D sky130_fd_sc_hd__clkbuf_4
*CAP
1 *953:B 1.40676e-05
2 *927:B 0.000195671
3 *912:A2 0
4 *913:C 6.43051e-05
5 *860:A 4.56634e-05
6 *1056:A1 0.000753758
7 *851:B 6.80591e-05
8 *857:A1 0
9 *886:B1 8.62542e-05
10 *884:D 6.39637e-05
11 *1111:X 0
12 *307:123 0.000929448
13 *307:114 0.00084231
14 *307:108 0.0027738
15 *307:89 0.00227054
16 *307:74 0.000291006
17 *307:62 0.000819436
18 *307:50 0.00122899
19 *307:42 0.00146379
20 *307:30 0.00143275
21 *307:20 0.001101
22 *307:8 0.00174458
23 *307:4 0.00119405
24 *1056:A1 *310:22 2.19764e-05
25 *307:20 *309:14 0
26 *307:30 *939:B 3.92944e-05
27 *307:30 *309:37 0.000142678
28 *307:42 *309:43 0
29 *307:74 *886:A2 1.11037e-05
30 *307:114 *851:A 0.000131568
31 *307:114 *858:A 4.92689e-05
32 *307:123 *851:A 1.40958e-05
33 is_outlier *307:89 5.54855e-05
34 is_outlier *307:108 9.0331e-06
35 *857:A2 *307:114 5.68439e-05
36 *857:A2 *307:123 5.52998e-05
37 *883:A *307:74 5.89166e-05
38 *915:B1 *307:62 2.93845e-05
39 *927:A *927:B 0.00010018
40 *949:A1 *307:42 0.000187237
41 *951:A1 *307:30 4.31931e-05
42 *951:A2 *927:B 1.14154e-05
43 *951:A2 *307:30 1.21972e-05
44 *953:A *307:20 1.13812e-05
45 *962:A2 *307:20 8.30566e-06
46 *971:C *307:20 1.16455e-05
47 *979:C *307:20 1.61321e-05
48 *980:A2 *307:20 0.00010134
49 *980:A2 *307:30 7.61229e-06
50 *1015:B1 *860:A 0.000139357
51 *1056:A3 *1056:A1 4.17736e-05
52 *1068:CLK *884:D 5.56279e-05
53 *1087:A *307:74 6.17437e-06
54 *1104:A *307:8 5.67058e-05
55 *1110:A *307:8 5.70419e-05
56 *1111:A *307:8 5.70419e-05
57 *16:10 *307:62 8.62876e-05
58 *50:10 *1056:A1 5.50049e-05
59 *66:10 *851:B 5.67058e-05
60 *66:10 *307:114 0.000228139
61 *66:10 *307:123 0.000126277
62 *67:10 *307:114 5.83085e-05
63 *72:10 *307:50 4.49946e-05
64 *82:8 *307:42 0.00014155
65 *82:8 *307:50 0.000102446
66 *89:25 *307:42 0.000110922
67 *90:10 *307:42 0.000108241
68 *97:19 *307:30 2.31731e-05
69 *105:44 *307:30 0.000246757
70 *107:8 *307:30 1.4471e-05
71 *111:27 *307:20 0.000131431
72 *119:27 *307:20 0.00015397
73 *132:17 *307:30 0.000609468
74 *132:17 *307:42 0.000221692
75 *163:10 *307:108 0
76 *170:10 *307:114 0.000342045
77 *172:10 *307:114 0
78 *213:30 *307:42 5.74648e-05
79 *214:110 *307:42 0.000185382
80 *215:16 *307:123 4.2573e-05
81 *216:6 *1056:A1 2.92911e-06
82 *217:8 *307:114 1.83667e-05
83 *217:17 *307:114 5.50369e-05
84 *217:81 *307:114 9.7644e-05
85 *217:98 *307:108 2.12147e-05
86 *217:98 *307:114 9.73687e-05
87 *217:126 *1056:A1 0.000217532
88 *222:10 *307:114 0.000167064
89 *243:78 *307:74 0.000109343
90 *243:106 *1056:A1 0.00057464
91 *246:48 *307:108 0.000338391
92 *247:14 *307:74 2.68258e-05
93 *247:30 *884:D 1.11037e-05
94 *247:30 *307:89 3.50795e-05
95 *247:30 *307:108 1.32634e-05
96 *247:65 *307:74 3.18142e-05
97 *247:73 *307:50 0.000219543
98 *247:86 *307:42 9.74279e-05
99 *247:86 *307:50 3.67392e-05
100 *248:23 *886:B1 7.37814e-06
101 *249:62 *886:B1 2.5343e-05
102 *249:83 *913:C 0.000166513
103 *249:83 *307:62 0.000122557
104 *249:91 *307:42 2.46108e-05
105 *261:81 *307:62 5.67342e-05
106 *261:81 *307:74 1.88491e-05
107 *265:37 *307:74 0.000265762
108 *265:51 *913:C 7.80251e-05
109 *265:51 *307:62 0.000288936
110 *265:51 *307:74 4.95212e-05
111 *266:75 *886:B1 1.14452e-05
112 *272:8 *307:20 5.6882e-05
113 *272:26 *860:A 7.44354e-05
114 *273:8 *307:8 0.00136499
115 *296:43 *307:20 5.14637e-06
116 *296:153 *307:8 0.000144071
*RES
1 *1111:X *307:4 23 
2 *307:4 *307:8 44.6836 
3 *307:8 *307:20 26.4343 
4 *307:20 *307:30 42.3457 
5 *307:30 *307:42 31.24 
6 *307:42 *307:50 41.5379 
7 *307:50 *307:62 38.6482 
8 *307:62 *307:74 35.7275 
9 *307:74 *884:D 39.4707 
10 *307:62 *307:89 8.48533 
11 *307:89 *886:B1 46.504 
12 *307:89 *307:108 13.366 
13 *307:108 *307:114 31.7579 
14 *307:114 *857:A1 23 
15 *307:114 *307:123 2.9 
16 *307:123 *851:B 24.0979 
17 *307:123 *1056:A1 36.6714 
18 *307:108 *860:A 39.5743 
19 *307:50 *913:C 40.2579 
20 *307:42 *912:A2 38 
21 *307:30 *927:B 26.9771 
22 *307:20 *953:B 23.4971 
*END

*D_NET *308 0.000693162
*CONN
*I *1053:B I *D sky130_fd_sc_hd__and2_1
*I *1085:X O *D sky130_fd_sc_hd__dlygate4sd3_1
*CAP
1 *1053:B 0
2 *1085:X 0.000331805
3 *308:8 0.000331805
4 *1053:A *308:8 2.95526e-05
*RES
1 *1085:X *308:8 28.8829 
2 *308:8 *1053:B 23 
*END

*D_NET *309 0.0274555
*CONN
*I *911:B I *D sky130_fd_sc_hd__and2_1
*I *886:A2 I *D sky130_fd_sc_hd__a22o_1
*I *884:C I *D sky130_fd_sc_hd__nand4_1
*I *890:D I *D sky130_fd_sc_hd__and4_1
*I *858:A I *D sky130_fd_sc_hd__xnor2_1
*I *851:A I *D sky130_fd_sc_hd__or3_1
*I *891:B1 I *D sky130_fd_sc_hd__a22o_1
*I *1058:A1 I *D sky130_fd_sc_hd__a31o_1
*I *939:B I *D sky130_fd_sc_hd__and2_1
*I *1112:X O *D sky130_fd_sc_hd__buf_2
*CAP
1 *911:B 0.000113021
2 *886:A2 0.000379515
3 *884:C 8.5874e-05
4 *890:D 4.99221e-05
5 *858:A 5.73213e-05
6 *851:A 0.000324317
7 *891:B1 0
8 *1058:A1 0
9 *939:B 0.000347899
10 *1112:X 0.00130158
11 *309:160 0.000413782
12 *309:117 0.00156634
13 *309:104 0.0004584
14 *309:86 0.00195507
15 *309:77 0.000622599
16 *309:63 0.00118108
17 *309:61 0.000386515
18 *309:59 0.000757465
19 *309:49 0.00134664
20 *309:43 0.00180851
21 *309:37 0.00140075
22 *309:14 0.00114773
23 *309:10 0.0017685
24 *858:A *310:43 2.64616e-05
25 *890:D *890:C 5.3304e-05
26 *309:49 *915:A2 2.472e-05
27 *309:59 *310:100 3.6608e-05
28 *309:61 *310:100 2.63142e-05
29 *309:86 *310:47 1.39431e-05
30 *309:86 *311:72 2.43944e-05
31 *309:104 *891:A2 7.68555e-05
32 *309:104 *310:55 9.26005e-05
33 *309:104 *310:62 0.00015229
34 *309:104 *310:81 2.05503e-05
35 *309:117 *310:43 0.000250556
36 *309:117 *310:47 6.12551e-05
37 int4_out[2] *309:10 1.04883e-05
38 *854:B *851:A 0
39 *857:A2 *851:A 5.55551e-05
40 *887:D *884:C 1.09903e-05
41 *888:A *886:A2 3.28925e-06
42 *888:B *886:A2 2.64616e-05
43 *893:B *309:77 0.000199006
44 *898:A2 *309:63 9.53015e-05
45 *898:A2 *309:77 1.14452e-05
46 *898:A3 *309:86 7.15126e-05
47 *899:A *309:104 4.82251e-05
48 *903:A *309:117 0.00010018
49 *912:B1 *911:B 0.000154625
50 *912:B2 *911:B 0
51 *925:A *309:43 0.000110267
52 *925:B *309:43 2.62774e-05
53 *925:B *309:49 2.37148e-05
54 *931:A2 *309:43 0.000220583
55 *931:B1 *309:43 1.27321e-05
56 *932:A *309:43 1.40435e-05
57 *949:A1 *309:43 0
58 *956:A *309:43 3.50862e-06
59 *964:A *939:B 4.79641e-05
60 *972:A *309:10 0.000150342
61 *972:C *309:10 2.83509e-05
62 *1058:A2 *309:77 6.17437e-06
63 *1068:CLK *884:C 5.5792e-05
64 *1103:A *309:10 2.93747e-05
65 *56:8 *309:77 8.85189e-05
66 *60:12 *309:104 1.41172e-05
67 *66:18 *858:A 5.3304e-05
68 *66:18 *309:117 0.000531159
69 *69:14 *911:B 5.3304e-05
70 *69:14 *309:43 4.64843e-05
71 *69:14 *309:49 3.32202e-05
72 *69:29 *309:49 1.17152e-05
73 *71:19 *309:49 6.82589e-05
74 *79:12 *309:117 2.93431e-05
75 *83:28 *309:43 0.000235781
76 *84:12 *309:43 0.000355359
77 *84:12 *309:49 0.000161198
78 *88:8 *309:43 3.59619e-05
79 *97:6 *939:B 0.000175903
80 *97:19 *939:B 1.79903e-05
81 *97:27 *309:43 0
82 *104:36 *309:43 8.47667e-05
83 *105:16 *309:43 0
84 *111:8 *309:14 0.000157004
85 *118:22 *309:14 9.85586e-06
86 *130:10 *309:10 0.000279219
87 *132:17 *309:14 0
88 *132:17 *309:43 0
89 *164:8 *309:59 0.000135037
90 *199:12 *911:B 0.000130213
91 *211:10 *309:77 0.000309116
92 *211:82 *309:77 0.000413698
93 *215:16 *851:A 7.10815e-05
94 *217:17 *851:A 8.4047e-05
95 *217:17 *858:A 5.94125e-05
96 *217:63 *886:A2 2.92911e-06
97 *217:63 *309:49 0.000123832
98 *217:63 *309:59 0.000208293
99 *246:12 *309:160 0.000403111
100 *246:36 *309:49 9.76777e-06
101 *246:48 *886:A2 1.30496e-05
102 *246:55 *309:49 1.00446e-05
103 *246:70 *309:49 7.57222e-05
104 *246:78 *309:49 2.15048e-05
105 *246:97 *309:43 1.46911e-05
106 *247:14 *884:C 2.33679e-05
107 *247:30 *884:C 0.000100069
108 *247:65 *886:A2 3.38416e-05
109 *247:65 *309:49 0.000123233
110 *248:12 *884:C 6.84304e-05
111 *249:18 *309:59 1.57556e-05
112 *249:26 *309:59 7.56656e-05
113 *249:26 *309:61 0.000118631
114 *249:26 *309:63 0.000282906
115 *249:62 *309:59 5.58003e-05
116 *251:27 *309:49 3.47776e-05
117 *252:8 *309:49 1.0092e-05
118 *252:8 *309:59 0.000211342
119 *252:8 *309:104 8.29585e-06
120 *254:12 *309:61 4.44897e-05
121 *254:12 *309:63 1.0092e-05
122 *254:33 *309:63 8.45309e-05
123 *254:33 *309:77 1.22803e-05
124 *259:10 *309:86 1.32314e-05
125 *259:10 *309:104 0.000215369
126 *259:10 *309:117 4.17736e-05
127 *264:20 *939:B 0.000104392
128 *265:24 *309:104 2.02872e-05
129 *265:68 *911:B 5.58003e-05
130 *265:68 *309:43 7.89617e-05
131 *265:85 *309:43 0.000183655
132 *266:8 *309:10 0.000100477
133 *266:44 *309:104 1.18862e-05
134 *266:58 *309:63 0.00010023
135 *266:58 *309:104 1.59094e-05
136 *266:75 *309:160 2.73074e-05
137 *267:10 *309:77 5.20202e-05
138 *267:27 *309:61 4.15283e-06
139 *267:27 *309:63 2.55847e-05
140 *267:55 *884:C 9.78729e-06
141 *272:8 *939:B 0.000119878
142 *272:8 *309:14 0.000187827
143 *272:20 *939:B 2.80935e-06
144 *276:22 *309:104 5.61255e-06
145 *307:20 *309:14 0
146 *307:30 *939:B 3.92944e-05
147 *307:30 *309:37 0.000142678
148 *307:42 *309:43 0
149 *307:74 *886:A2 1.11037e-05
150 *307:114 *851:A 0.000131568
151 *307:114 *858:A 4.92689e-05
152 *307:123 *851:A 1.40958e-05
*RES
1 *1112:X *309:10 42.8443 
2 *309:10 *309:14 23.2443 
3 *309:14 *939:B 45.2293 
4 *309:14 *309:37 36.3386 
5 *309:37 *309:43 23.0964 
6 *309:43 *309:49 13.2364 
7 *309:49 *309:59 36.6907 
8 *309:59 *309:61 1.90571 
9 *309:61 *309:63 5.42714 
10 *309:63 *309:77 29.5207 
11 *309:77 *1058:A1 23 
12 *309:63 *309:86 19.4329 
13 *309:86 *309:104 38.6793 
14 *309:104 *891:B1 23 
15 *309:86 *309:117 37.2264 
16 *309:117 *851:A 43.5307 
17 *309:117 *858:A 39.4707 
18 *309:61 *890:D 38.6214 
19 *309:59 *309:160 49.9093 
20 *309:160 *884:C 25.5479 
21 *309:49 *886:A2 42.8057 
22 *309:43 *911:B 41.1693 
*END

*D_NET *310 0.0236701
*CONN
*I *853:A I *D sky130_fd_sc_hd__or3b_2
*I *924:B I *D sky130_fd_sc_hd__and2_1
*I *899:B I *D sky130_fd_sc_hd__nand2_1
*I *915:A2 I *D sky130_fd_sc_hd__a22o_1
*I *887:B I *D sky130_fd_sc_hd__nand4_1
*I *1006:A I *D sky130_fd_sc_hd__nand2_1
*I *890:C I *D sky130_fd_sc_hd__and4_1
*I *891:A2 I *D sky130_fd_sc_hd__a22o_1
*I *1060:A1 I *D sky130_fd_sc_hd__a31o_1
*I *855:A I *D sky130_fd_sc_hd__xor2_1
*I *1113:X O *D sky130_fd_sc_hd__clkbuf_4
*CAP
1 *853:A 0
2 *924:B 0
3 *899:B 2.95294e-05
4 *915:A2 0.000402329
5 *887:B 0.00014019
6 *1006:A 0
7 *890:C 0.000169889
8 *891:A2 4.08321e-05
9 *1060:A1 0
10 *855:A 0
11 *1113:X 0.000513842
12 *310:152 0.000682139
13 *310:135 0.000861039
14 *310:104 0.000165516
15 *310:100 0.000645482
16 *310:81 0.000564221
17 *310:62 0.00031455
18 *310:55 0.000669573
19 *310:47 0.00106285
20 *310:43 0.00157381
21 *310:30 0.00129422
22 *310:28 0.000254487
23 *310:22 0.000706435
24 *310:14 0.00190908
25 *310:8 0.00180512
26 *854:B *310:22 5.79559e-05
27 *855:B *310:30 0.000257636
28 *858:A *310:43 2.64616e-05
29 *882:A *890:C 4.08664e-05
30 *887:D *887:B 3.81801e-05
31 *890:A *890:C 1.24376e-05
32 *890:D *890:C 5.3304e-05
33 *894:A_N *310:55 9.41659e-05
34 *900:B *310:152 5.71002e-06
35 *903:A *310:47 3.71251e-05
36 *915:A1 *915:A2 1.24376e-05
37 *968:B1 *310:152 0
38 *1048:A3 *310:55 3.28357e-06
39 *1056:A1 *310:22 2.19764e-05
40 *1056:A3 *310:22 2.64616e-05
41 *1060:B1 *310:55 0.000326398
42 *1073:CLK *310:22 3.89103e-05
43 *1093:A *310:55 0
44 *50:10 *310:22 0.000138708
45 *55:20 *310:135 0
46 *55:20 *310:152 0
47 *55:61 *310:152 0.000459393
48 *57:8 *310:135 4.08641e-05
49 *58:14 *915:A2 9.28078e-06
50 *58:14 *310:100 0.000157895
51 *60:12 *310:135 0
52 *60:12 *310:152 0
53 *61:8 *310:55 0
54 *66:18 *310:30 5.3304e-05
55 *66:18 *310:43 0.000619612
56 *72:10 *310:152 0
57 *73:8 *915:A2 6.17437e-06
58 *79:12 *310:43 4.68316e-05
59 *165:10 *310:152 6.10308e-05
60 *166:8 *310:152 8.78864e-05
61 *170:10 *310:43 0.000486246
62 *179:14 *890:C 3.86731e-05
63 *179:14 *310:152 0.00021739
64 *201:10 *310:55 0
65 *207:8 *310:55 0.000346523
66 *209:16 *310:22 5.24393e-05
67 *209:20 *310:22 0.000272312
68 *209:24 *310:55 0.000413284
69 *211:88 *310:55 0
70 *211:103 *310:14 1.48311e-05
71 *214:55 *310:28 0
72 *216:21 *310:28 3.47879e-05
73 *217:44 *310:81 0.000200604
74 *217:63 *915:A2 1.71719e-05
75 *217:63 *310:81 0.000122913
76 *217:63 *310:100 0.000110605
77 *217:126 *310:22 4.93812e-05
78 *217:136 *310:28 6.23248e-06
79 *218:12 *310:28 6.15719e-05
80 *218:12 *310:30 2.64616e-05
81 *219:10 *310:22 5.79559e-05
82 *219:10 *310:28 0.0001366
83 *223:10 *310:30 6.08617e-05
84 *243:24 *310:55 4.69521e-05
85 *243:106 *310:22 0.000309758
86 *243:110 *310:22 6.25829e-05
87 *246:48 *915:A2 2.11066e-05
88 *246:70 *310:152 0
89 *247:65 *915:A2 0.000190614
90 *248:23 *887:B 1.24376e-05
91 *249:18 *887:B 5.74135e-05
92 *249:18 *310:104 5.3304e-05
93 *249:62 *915:A2 9.08711e-05
94 *249:62 *310:100 5.77295e-05
95 *251:10 *887:B 9.66585e-05
96 *251:10 *915:A2 0.000134521
97 *251:10 *310:104 2.02872e-05
98 *251:27 *915:A2 0.000152285
99 *252:8 *310:55 5.79413e-06
100 *252:8 *310:62 9.23705e-06
101 *252:8 *310:81 4.80423e-06
102 *257:14 *310:55 3.39231e-05
103 *259:10 *310:55 2.60152e-05
104 *259:14 *899:B 5.50049e-05
105 *260:18 *310:81 0.000251418
106 *265:24 *891:A2 5.3304e-05
107 *265:24 *310:55 5.05059e-05
108 *265:24 *310:62 0.000120537
109 *265:24 *310:81 9.81333e-06
110 *266:58 *310:100 0
111 *267:10 *310:55 0
112 *267:21 *890:C 0.000163466
113 *267:27 *310:81 0.000125552
114 *267:27 *310:100 4.9858e-05
115 *267:55 *887:B 8.06804e-06
116 *272:20 *310:152 6.32792e-05
117 *276:22 *891:A2 2.02872e-05
118 *286:10 *310:14 0.00115182
119 *288:8 *310:14 9.91701e-05
120 *304:8 *310:14 3.97596e-05
121 *309:49 *915:A2 2.472e-05
122 *309:59 *310:100 3.6608e-05
123 *309:61 *310:100 2.63142e-05
124 *309:86 *310:47 1.39431e-05
125 *309:104 *891:A2 7.68555e-05
126 *309:104 *310:55 9.26005e-05
127 *309:104 *310:62 0.00015229
128 *309:104 *310:81 2.05503e-05
129 *309:117 *310:43 0.000250556
130 *309:117 *310:47 6.12551e-05
*RES
1 *1113:X *310:8 44.3386 
2 *310:8 *310:14 39.4843 
3 *310:14 *310:22 43.5679 
4 *310:22 *310:28 32.2579 
5 *310:28 *310:30 3.48 
6 *310:30 *855:A 23 
7 *310:30 *310:43 22.5993 
8 *310:43 *310:47 18.9564 
9 *310:47 *310:55 32.0479 
10 *310:55 *1060:A1 23 
11 *310:47 *310:62 2.25786 
12 *310:62 *891:A2 39.0979 
13 *310:62 *310:81 18.536 
14 *310:81 *890:C 41.5214 
15 *310:81 *310:100 4.785 
16 *310:100 *310:104 15.6214 
17 *310:104 *1006:A 23 
18 *310:104 *887:B 26.045 
19 *310:100 *915:A2 44.8771 
20 *310:43 *310:135 17.2579 
21 *310:135 *899:B 38.6214 
22 *310:135 *310:152 29.645 
23 *310:152 *924:B 23 
24 *310:28 *853:A 23 
*END

*D_NET *311 0.0166272
*CONN
*I *868:A I *D sky130_fd_sc_hd__nand2_1
*I *852:A I *D sky130_fd_sc_hd__buf_2
*I *897:B I *D sky130_fd_sc_hd__nand2_2
*I *902:A I *D sky130_fd_sc_hd__and3_1
*I *898:A1 I *D sky130_fd_sc_hd__a31o_1
*I *889:A I *D sky130_fd_sc_hd__nand2_1
*I *1114:X O *D sky130_fd_sc_hd__clkbuf_2
*CAP
1 *868:A 0
2 *852:A 0
3 *897:B 1.73397e-05
4 *902:A 0
5 *898:A1 2.52923e-05
6 *889:A 0
7 *1114:X 0.000483746
8 *311:80 0.000113805
9 *311:72 0.000632076
10 *311:62 0.00107621
11 *311:46 0.00107035
12 *311:38 0.00152853
13 *311:32 0.00137966
14 *311:22 0.000540968
15 *311:12 0.00210182
16 *311:8 0.00236551
17 *881:A *897:B 1.45185e-05
18 *881:A *311:46 3.22051e-05
19 *881:A *311:62 5.40337e-05
20 *889:B *311:72 9.58714e-05
21 *889:B *311:80 0.000184746
22 *898:A2 *311:72 2.02872e-05
23 *898:A3 *311:72 0.000178517
24 *898:B1 *311:80 7.70499e-06
25 *900:A *311:62 0.000213049
26 *900:A *311:72 2.50118e-05
27 *900:B *311:62 6.95121e-05
28 *923:B *311:46 1.24376e-05
29 *1009:A0 *311:62 5.45541e-05
30 *1009:S *311:62 0.000115619
31 *3:19 *311:32 0.000190521
32 *55:6 *311:62 2.86398e-05
33 *55:10 *311:62 5.35231e-05
34 *55:79 *311:46 6.9046e-05
35 *55:79 *311:62 3.07986e-05
36 *59:14 *311:62 2.6652e-05
37 *67:10 *311:38 0
38 *68:51 *311:46 1.47709e-05
39 *79:12 *311:38 0
40 *168:23 *311:38 0.000295096
41 *179:14 *311:62 0.000293269
42 *179:14 *311:72 0.000141352
43 *209:22 *311:12 0.000156134
44 *211:103 *311:32 0.000126114
45 *211:103 *311:38 0.000752298
46 *214:35 *311:22 8.63669e-05
47 *214:35 *311:32 0.000259527
48 *214:55 *311:32 1.34354e-05
49 *217:40 *311:38 0
50 *217:50 *311:72 0.000144813
51 *217:63 *311:72 0.000191803
52 *217:126 *311:32 4.93223e-05
53 *217:126 *311:38 4.06849e-05
54 *243:18 *311:22 0.000131021
55 *243:20 *311:12 5.56279e-05
56 *245:8 *311:46 1.50028e-05
57 *246:12 *311:72 3.7122e-06
58 *246:21 *311:72 2.2065e-05
59 *252:8 *311:72 0.000325197
60 *260:43 *311:38 5.0926e-05
61 *261:10 *311:80 4.77164e-06
62 *261:12 *311:80 2.77188e-05
63 *267:10 *311:80 0
64 *288:21 *311:8 0.000521421
65 *293:84 *311:80 6.78027e-05
66 *309:86 *311:72 2.43944e-05
*RES
1 *1114:X *311:8 49.7657 
2 *311:8 *311:12 39.9193 
3 *311:12 *311:22 33.9771 
4 *311:22 *311:32 38.1407 
5 *311:32 *311:38 36.7707 
6 *311:38 *311:46 22.3329 
7 *311:46 *311:62 43.7957 
8 *311:62 *311:72 40.2536 
9 *311:72 *311:80 32.9 
10 *311:80 *889:A 23 
11 *311:72 *898:A1 23.4971 
12 *311:62 *902:A 23 
13 *311:46 *897:B 23.4971 
14 *311:32 *852:A 23 
15 *311:22 *868:A 23 
*END

*D_NET *312 0.00675539
*CONN
*I *1071:RESET_B I *D sky130_fd_sc_hd__dfrtp_1
*I *1070:RESET_B I *D sky130_fd_sc_hd__dfrtp_1
*I *1073:RESET_B I *D sky130_fd_sc_hd__dfrtp_1
*I *1072:RESET_B I *D sky130_fd_sc_hd__dfrtp_1
*I *1080:A I *D sky130_fd_sc_hd__buf_4
*I *1115:X O *D sky130_fd_sc_hd__clkbuf_2
*CAP
1 *1071:RESET_B 0
2 *1070:RESET_B 0.000127199
3 *1073:RESET_B 0.0006155
4 *1072:RESET_B 0.000756362
5 *1080:A 0.000205724
6 *1115:X 0.000556588
7 *312:33 0.000965509
8 *312:31 0.000644251
9 *312:10 0.00109723
10 *1055:A *1073:RESET_B 0
11 *211:122 *1073:RESET_B 0
12 *211:128 *1073:RESET_B 0
13 *211:132 *312:31 0.000853816
14 *211:132 *312:33 0.000223805
15 *271:16 *1080:A 5.56279e-05
16 *279:21 *312:10 0.000177696
17 *286:10 *1073:RESET_B 0
18 *287:10 *1072:RESET_B 0.000276598
19 *287:10 *312:10 0.000167275
20 *292:8 *1080:A 3.22051e-05
*RES
1 *1115:X *312:10 48.4607 
2 *312:10 *1080:A 41.9357 
3 *312:10 *1072:RESET_B 22.2189 
4 *1072:RESET_B *312:31 26.4136 
5 *312:31 *312:33 5.075 
6 *312:33 *1073:RESET_B 26.2479 
7 *312:33 *1070:RESET_B 16.8746 
8 *312:31 *1071:RESET_B 15 
*END
