*SPEF "ieee 1481-1999"
*DESIGN "gear_quantizer"
*DATE "11:11:11 Fri 11 11, 1111"
*VENDOR "OpenRCX"
*PROGRAM "Parallel Extraction"
*VERSION "1.0"
*DESIGN_FLOW "NAME_SCOPE LOCAL" "PIN_CAP NONE"
*DIVIDER /
*DELIMITER :
*BUS_DELIMITER []
*T_UNIT 1 NS
*C_UNIT 1 PF
*R_UNIT 1 OHM
*L_UNIT 1 HENRY

*NAME_MAP
*3 clk
*4 data_in[0]
*5 data_in[1]
*6 data_in[2]
*7 data_in[3]
*8 data_in[4]
*9 data_in[5]
*10 data_in[6]
*11 data_in[7]
*12 int4_out[0]
*13 int4_out[1]
*14 int4_out[2]
*15 int4_out[3]
*16 is_outlier
*17 round_mode
*18 rst_n
*19 scale[0]
*20 scale[1]
*21 scale[2]
*22 scale[3]
*23 sideband_out[0]
*24 sideband_out[1]
*25 sideband_out[2]
*26 sideband_out[3]
*27 sideband_out[4]
*28 sideband_out[5]
*29 sideband_out[6]
*30 sideband_out[7]
*31 threshold[0]
*32 threshold[1]
*33 threshold[2]
*34 threshold[3]
*35 threshold[4]
*36 threshold[5]
*37 threshold[6]
*38 threshold[7]
*39 valid_in
*40 valid_out
*41 _000_
*42 _001_
*43 _002_
*44 _003_
*45 _004_
*46 _005_
*47 _006_
*48 _007_
*49 _008_
*50 _009_
*51 _010_
*52 _011_
*53 _012_
*54 _013_
*55 _014_
*56 _015_
*57 _016_
*58 _017_
*59 _018_
*60 _019_
*61 _020_
*62 _021_
*63 _022_
*64 _023_
*65 _024_
*66 _025_
*67 _026_
*68 _027_
*69 _028_
*70 _029_
*71 _030_
*72 _031_
*73 _032_
*74 _033_
*75 _034_
*76 _035_
*77 _036_
*78 _037_
*79 _038_
*80 _039_
*81 _040_
*82 _041_
*83 _042_
*84 _043_
*85 _044_
*86 _045_
*87 _046_
*88 _047_
*89 _048_
*90 _049_
*91 _050_
*92 _051_
*93 _052_
*94 _053_
*95 _054_
*96 _055_
*97 _056_
*98 _057_
*99 _058_
*100 _059_
*101 _060_
*102 _061_
*103 _062_
*104 _063_
*105 _064_
*106 _065_
*107 _066_
*108 _067_
*109 _068_
*110 _069_
*111 _070_
*112 _071_
*113 _072_
*114 _073_
*115 _074_
*116 _075_
*117 _076_
*118 _077_
*119 _078_
*120 _079_
*121 _080_
*122 _081_
*123 _082_
*124 _083_
*125 _084_
*126 _085_
*127 _086_
*128 _087_
*129 _088_
*130 _089_
*131 _090_
*132 _091_
*133 _092_
*134 _093_
*135 _094_
*136 _095_
*137 _096_
*138 _097_
*139 _098_
*140 _099_
*141 _100_
*142 _101_
*143 _102_
*144 _103_
*145 _104_
*146 _105_
*147 _106_
*148 _107_
*149 _108_
*150 _109_
*151 _110_
*152 _111_
*153 _112_
*154 _113_
*155 _114_
*156 _115_
*157 _116_
*158 _117_
*159 _118_
*160 _119_
*161 _120_
*162 _121_
*163 _122_
*164 _123_
*165 _124_
*166 _125_
*167 _126_
*168 _127_
*169 _128_
*170 _129_
*171 _130_
*172 _131_
*173 _132_
*174 _133_
*175 _134_
*176 _135_
*177 _136_
*178 _137_
*179 _138_
*180 _139_
*181 _140_
*182 _141_
*183 _142_
*184 _143_
*185 _144_
*186 _145_
*187 _146_
*188 _147_
*189 _148_
*190 _149_
*191 _150_
*192 _151_
*193 _152_
*194 _153_
*195 _154_
*196 _155_
*197 _156_
*198 _157_
*199 _158_
*200 _159_
*201 _160_
*202 _161_
*203 _162_
*204 _163_
*205 _164_
*206 _165_
*207 _166_
*208 _167_
*209 _168_
*210 _169_
*211 _170_
*212 _171_
*213 _172_
*214 _173_
*215 _174_
*216 _175_
*217 _176_
*218 _177_
*219 _178_
*220 _179_
*221 _180_
*222 _181_
*223 _182_
*224 _183_
*225 _184_
*226 _185_
*227 _186_
*228 _187_
*229 _188_
*230 _189_
*231 _190_
*232 _191_
*233 _192_
*234 _193_
*235 _194_
*236 _195_
*237 _196_
*238 _197_
*239 _198_
*240 _199_
*241 _200_
*242 _201_
*243 _202_
*244 _203_
*245 _204_
*246 _205_
*247 _206_
*248 _207_
*249 _208_
*250 _209_
*251 _210_
*252 _211_
*253 _212_
*254 _213_
*255 _214_
*256 _215_
*257 _216_
*258 _217_
*259 _218_
*260 _219_
*261 _220_
*262 _221_
*263 _222_
*264 _223_
*265 _224_
*266 _225_
*267 _226_
*268 _227_
*269 _228_
*270 _229_
*271 _230_
*272 _231_
*273 _232_
*274 _233_
*275 _234_
*276 _235_
*277 _236_
*278 _237_
*279 _238_
*280 clknet_0_clk
*281 clknet_1_0__leaf_clk
*282 clknet_1_1__leaf_clk
*283 net1
*284 net10
*285 net11
*286 net12
*287 net13
*288 net14
*289 net15
*290 net16
*291 net17
*292 net18
*293 net19
*294 net2
*295 net20
*296 net21
*297 net22
*298 net23
*299 net24
*300 net25
*301 net26
*302 net27
*303 net28
*304 net29
*305 net3
*306 net30
*307 net31
*308 net32
*309 net33
*310 net34
*311 net35
*312 net36
*313 net37
*314 net38
*315 net39
*316 net4
*317 net40
*318 net41
*319 net42
*320 net43
*321 net44
*322 net45
*323 net46
*324 net47
*325 net48
*326 net49
*327 net5
*328 net50
*329 net51
*330 net6
*331 net7
*332 net8
*333 net9
*334 FILLER_0_0_109
*335 FILLER_0_0_113
*336 FILLER_0_0_118
*337 FILLER_0_0_130
*338 FILLER_0_0_138
*339 FILLER_0_0_14
*340 FILLER_0_0_147
*341 FILLER_0_0_155
*342 FILLER_0_0_161
*343 FILLER_0_0_169
*344 FILLER_0_0_26
*345 FILLER_0_0_35
*346 FILLER_0_0_47
*347 FILLER_0_0_57
*348 FILLER_0_0_69
*349 FILLER_0_0_7
*350 FILLER_0_0_76
*351 FILLER_0_0_85
*352 FILLER_0_0_97
*353 FILLER_0_10_119
*354 FILLER_0_10_131
*355 FILLER_0_10_139
*356 FILLER_0_10_141
*357 FILLER_0_10_15
*358 FILLER_0_10_153
*359 FILLER_0_10_165
*360 FILLER_0_10_27
*361 FILLER_0_10_29
*362 FILLER_0_10_3
*363 FILLER_0_10_42
*364 FILLER_0_10_58
*365 FILLER_0_10_66
*366 FILLER_0_10_75
*367 FILLER_0_11_108
*368 FILLER_0_11_13
*369 FILLER_0_11_131
*370 FILLER_0_11_143
*371 FILLER_0_11_155
*372 FILLER_0_11_167
*373 FILLER_0_11_169
*374 FILLER_0_11_25
*375 FILLER_0_11_29
*376 FILLER_0_11_42
*377 FILLER_0_11_54
*378 FILLER_0_11_57
*379 FILLER_0_11_65
*380 FILLER_0_11_75
*381 FILLER_0_11_81
*382 FILLER_0_11_89
*383 FILLER_0_11_96
*384 FILLER_0_12_107
*385 FILLER_0_12_115
*386 FILLER_0_12_121
*387 FILLER_0_12_133
*388 FILLER_0_12_139
*389 FILLER_0_12_141
*390 FILLER_0_12_15
*391 FILLER_0_12_153
*392 FILLER_0_12_165
*393 FILLER_0_12_3
*394 FILLER_0_12_41
*395 FILLER_0_12_66
*396 FILLER_0_12_74
*397 FILLER_0_12_85
*398 FILLER_0_12_89
*399 FILLER_0_13_103
*400 FILLER_0_13_111
*401 FILLER_0_13_129
*402 FILLER_0_13_141
*403 FILLER_0_13_153
*404 FILLER_0_13_165
*405 FILLER_0_13_169
*406 FILLER_0_13_3
*407 FILLER_0_13_30
*408 FILLER_0_13_54
*409 FILLER_0_13_61
*410 FILLER_0_13_69
*411 FILLER_0_13_91
*412 FILLER_0_14_106
*413 FILLER_0_14_114
*414 FILLER_0_14_141
*415 FILLER_0_14_153
*416 FILLER_0_14_25
*417 FILLER_0_14_3
*418 FILLER_0_14_34
*419 FILLER_0_14_42
*420 FILLER_0_14_65
*421 FILLER_0_14_90
*422 FILLER_0_15_113
*423 FILLER_0_15_137
*424 FILLER_0_15_149
*425 FILLER_0_15_161
*426 FILLER_0_15_167
*427 FILLER_0_15_169
*428 FILLER_0_15_17
*429 FILLER_0_15_25
*430 FILLER_0_15_38
*431 FILLER_0_15_44
*432 FILLER_0_15_50
*433 FILLER_0_15_57
*434 FILLER_0_15_73
*435 FILLER_0_15_84
*436 FILLER_0_15_9
*437 FILLER_0_16_110
*438 FILLER_0_16_130
*439 FILLER_0_16_138
*440 FILLER_0_16_141
*441 FILLER_0_16_15
*442 FILLER_0_16_153
*443 FILLER_0_16_165
*444 FILLER_0_16_29
*445 FILLER_0_16_3
*446 FILLER_0_16_67
*447 FILLER_0_16_74
*448 FILLER_0_16_82
*449 FILLER_0_16_88
*450 FILLER_0_16_96
*451 FILLER_0_17_104
*452 FILLER_0_17_125
*453 FILLER_0_17_137
*454 FILLER_0_17_149
*455 FILLER_0_17_15
*456 FILLER_0_17_161
*457 FILLER_0_17_169
*458 FILLER_0_17_3
*459 FILLER_0_17_35
*460 FILLER_0_17_43
*461 FILLER_0_17_57
*462 FILLER_0_17_68
*463 FILLER_0_17_76
*464 FILLER_0_17_86
*465 FILLER_0_17_94
*466 FILLER_0_18_105
*467 FILLER_0_18_124
*468 FILLER_0_18_136
*469 FILLER_0_18_141
*470 FILLER_0_18_15
*471 FILLER_0_18_153
*472 FILLER_0_18_165
*473 FILLER_0_18_27
*474 FILLER_0_18_3
*475 FILLER_0_18_42
*476 FILLER_0_18_48
*477 FILLER_0_18_59
*478 FILLER_0_18_64
*479 FILLER_0_18_68
*480 FILLER_0_18_81
*481 FILLER_0_18_85
*482 FILLER_0_18_89
*483 FILLER_0_19_104
*484 FILLER_0_19_113
*485 FILLER_0_19_127
*486 FILLER_0_19_139
*487 FILLER_0_19_151
*488 FILLER_0_19_163
*489 FILLER_0_19_167
*490 FILLER_0_19_169
*491 FILLER_0_19_48
*492 FILLER_0_19_62
*493 FILLER_0_19_76
*494 FILLER_0_19_9
*495 FILLER_0_19_91
*496 FILLER_0_1_105
*497 FILLER_0_1_111
*498 FILLER_0_1_113
*499 FILLER_0_1_125
*500 FILLER_0_1_137
*501 FILLER_0_1_149
*502 FILLER_0_1_161
*503 FILLER_0_1_167
*504 FILLER_0_1_169
*505 FILLER_0_1_19
*506 FILLER_0_1_31
*507 FILLER_0_1_43
*508 FILLER_0_1_55
*509 FILLER_0_1_57
*510 FILLER_0_1_69
*511 FILLER_0_1_7
*512 FILLER_0_1_81
*513 FILLER_0_1_93
*514 FILLER_0_20_101
*515 FILLER_0_20_141
*516 FILLER_0_20_153
*517 FILLER_0_20_165
*518 FILLER_0_20_27
*519 FILLER_0_20_3
*520 FILLER_0_20_34
*521 FILLER_0_20_43
*522 FILLER_0_20_64
*523 FILLER_0_20_76
*524 FILLER_0_20_90
*525 FILLER_0_21_103
*526 FILLER_0_21_111
*527 FILLER_0_21_113
*528 FILLER_0_21_128
*529 FILLER_0_21_13
*530 FILLER_0_21_132
*531 FILLER_0_21_147
*532 FILLER_0_21_159
*533 FILLER_0_21_169
*534 FILLER_0_21_25
*535 FILLER_0_21_29
*536 FILLER_0_21_48
*537 FILLER_0_21_57
*538 FILLER_0_21_65
*539 FILLER_0_21_74
*540 FILLER_0_21_86
*541 FILLER_0_21_93
*542 FILLER_0_22_107
*543 FILLER_0_22_127
*544 FILLER_0_22_139
*545 FILLER_0_22_141
*546 FILLER_0_22_153
*547 FILLER_0_22_165
*548 FILLER_0_22_29
*549 FILLER_0_22_3
*550 FILLER_0_22_41
*551 FILLER_0_22_53
*552 FILLER_0_22_63
*553 FILLER_0_22_81
*554 FILLER_0_22_99
*555 FILLER_0_23_134
*556 FILLER_0_23_146
*557 FILLER_0_23_158
*558 FILLER_0_23_166
*559 FILLER_0_23_169
*560 FILLER_0_23_18
*561 FILLER_0_23_3
*562 FILLER_0_23_54
*563 FILLER_0_23_60
*564 FILLER_0_23_68
*565 FILLER_0_23_81
*566 FILLER_0_23_9
*567 FILLER_0_24_11
*568 FILLER_0_24_128
*569 FILLER_0_24_141
*570 FILLER_0_24_153
*571 FILLER_0_24_165
*572 FILLER_0_24_20
*573 FILLER_0_24_29
*574 FILLER_0_24_3
*575 FILLER_0_24_37
*576 FILLER_0_24_54
*577 FILLER_0_24_67
*578 FILLER_0_24_85
*579 FILLER_0_24_91
*580 FILLER_0_25_110
*581 FILLER_0_25_120
*582 FILLER_0_25_132
*583 FILLER_0_25_144
*584 FILLER_0_25_15
*585 FILLER_0_25_156
*586 FILLER_0_25_169
*587 FILLER_0_25_27
*588 FILLER_0_25_3
*589 FILLER_0_25_39
*590 FILLER_0_25_47
*591 FILLER_0_25_57
*592 FILLER_0_25_63
*593 FILLER_0_25_75
*594 FILLER_0_25_87
*595 FILLER_0_25_93
*596 FILLER_0_25_98
*597 FILLER_0_26_100
*598 FILLER_0_26_114
*599 FILLER_0_26_126
*600 FILLER_0_26_138
*601 FILLER_0_26_141
*602 FILLER_0_26_153
*603 FILLER_0_26_165
*604 FILLER_0_26_21
*605 FILLER_0_26_27
*606 FILLER_0_26_29
*607 FILLER_0_26_41
*608 FILLER_0_26_51
*609 FILLER_0_26_59
*610 FILLER_0_26_78
*611 FILLER_0_26_9
*612 FILLER_0_27_120
*613 FILLER_0_27_132
*614 FILLER_0_27_144
*615 FILLER_0_27_15
*616 FILLER_0_27_156
*617 FILLER_0_27_164
*618 FILLER_0_27_169
*619 FILLER_0_27_27
*620 FILLER_0_27_3
*621 FILLER_0_27_39
*622 FILLER_0_27_51
*623 FILLER_0_27_55
*624 FILLER_0_27_57
*625 FILLER_0_27_73
*626 FILLER_0_28_107
*627 FILLER_0_28_111
*628 FILLER_0_28_113
*629 FILLER_0_28_121
*630 FILLER_0_28_125
*631 FILLER_0_28_137
*632 FILLER_0_28_141
*633 FILLER_0_28_147
*634 FILLER_0_28_169
*635 FILLER_0_28_20
*636 FILLER_0_28_29
*637 FILLER_0_28_37
*638 FILLER_0_28_44
*639 FILLER_0_28_57
*640 FILLER_0_28_62
*641 FILLER_0_28_72
*642 FILLER_0_28_76
*643 FILLER_0_28_83
*644 FILLER_0_28_85
*645 FILLER_0_28_9
*646 FILLER_0_28_93
*647 FILLER_0_2_109
*648 FILLER_0_2_121
*649 FILLER_0_2_133
*650 FILLER_0_2_139
*651 FILLER_0_2_141
*652 FILLER_0_2_15
*653 FILLER_0_2_153
*654 FILLER_0_2_165
*655 FILLER_0_2_27
*656 FILLER_0_2_29
*657 FILLER_0_2_3
*658 FILLER_0_2_41
*659 FILLER_0_2_53
*660 FILLER_0_2_65
*661 FILLER_0_2_77
*662 FILLER_0_2_83
*663 FILLER_0_2_85
*664 FILLER_0_2_97
*665 FILLER_0_3_111
*666 FILLER_0_3_113
*667 FILLER_0_3_121
*668 FILLER_0_3_129
*669 FILLER_0_3_138
*670 FILLER_0_3_15
*671 FILLER_0_3_150
*672 FILLER_0_3_162
*673 FILLER_0_3_169
*674 FILLER_0_3_3
*675 FILLER_0_3_43
*676 FILLER_0_3_54
*677 FILLER_0_3_63
*678 FILLER_0_3_75
*679 FILLER_0_3_87
*680 FILLER_0_3_99
*681 FILLER_0_4_109
*682 FILLER_0_4_113
*683 FILLER_0_4_134
*684 FILLER_0_4_141
*685 FILLER_0_4_153
*686 FILLER_0_4_165
*687 FILLER_0_4_74
*688 FILLER_0_4_82
*689 FILLER_0_4_85
*690 FILLER_0_4_9
*691 FILLER_0_4_97
*692 FILLER_0_5_113
*693 FILLER_0_5_131
*694 FILLER_0_5_143
*695 FILLER_0_5_155
*696 FILLER_0_5_167
*697 FILLER_0_5_169
*698 FILLER_0_5_26
*699 FILLER_0_5_3
*700 FILLER_0_5_50
*701 FILLER_0_5_57
*702 FILLER_0_5_70
*703 FILLER_0_5_80
*704 FILLER_0_5_93
*705 FILLER_0_6_112
*706 FILLER_0_6_135
*707 FILLER_0_6_139
*708 FILLER_0_6_141
*709 FILLER_0_6_153
*710 FILLER_0_6_165
*711 FILLER_0_6_3
*712 FILLER_0_6_36
*713 FILLER_0_6_65
*714 FILLER_0_6_97
*715 FILLER_0_7_104
*716 FILLER_0_7_118
*717 FILLER_0_7_124
*718 FILLER_0_7_130
*719 FILLER_0_7_139
*720 FILLER_0_7_151
*721 FILLER_0_7_163
*722 FILLER_0_7_167
*723 FILLER_0_7_169
*724 FILLER_0_7_39
*725 FILLER_0_7_47
*726 FILLER_0_7_55
*727 FILLER_0_7_6
*728 FILLER_0_7_60
*729 FILLER_0_7_82
*730 FILLER_0_7_90
*731 FILLER_0_7_98
*732 FILLER_0_8_109
*733 FILLER_0_8_117
*734 FILLER_0_8_130
*735 FILLER_0_8_138
*736 FILLER_0_8_141
*737 FILLER_0_8_15
*738 FILLER_0_8_153
*739 FILLER_0_8_165
*740 FILLER_0_8_27
*741 FILLER_0_8_3
*742 FILLER_0_8_37
*743 FILLER_0_8_49
*744 FILLER_0_8_61
*745 FILLER_0_8_68
*746 FILLER_0_8_80
*747 FILLER_0_8_85
*748 FILLER_0_8_93
*749 FILLER_0_9_107
*750 FILLER_0_9_111
*751 FILLER_0_9_113
*752 FILLER_0_9_145
*753 FILLER_0_9_15
*754 FILLER_0_9_157
*755 FILLER_0_9_165
*756 FILLER_0_9_169
*757 FILLER_0_9_27
*758 FILLER_0_9_3
*759 FILLER_0_9_39
*760 FILLER_0_9_45
*761 FILLER_0_9_53
*762 FILLER_0_9_57
*763 FILLER_0_9_67
*764 FILLER_0_9_78
*765 FILLER_0_9_95
*766 PHY_0
*767 PHY_1
*768 PHY_10
*769 PHY_11
*770 PHY_12
*771 PHY_13
*772 PHY_14
*773 PHY_15
*774 PHY_16
*775 PHY_17
*776 PHY_18
*777 PHY_19
*778 PHY_2
*779 PHY_20
*780 PHY_21
*781 PHY_22
*782 PHY_23
*783 PHY_24
*784 PHY_25
*785 PHY_26
*786 PHY_27
*787 PHY_28
*788 PHY_29
*789 PHY_3
*790 PHY_30
*791 PHY_31
*792 PHY_32
*793 PHY_33
*794 PHY_34
*795 PHY_35
*796 PHY_36
*797 PHY_37
*798 PHY_38
*799 PHY_39
*800 PHY_4
*801 PHY_40
*802 PHY_41
*803 PHY_42
*804 PHY_43
*805 PHY_44
*806 PHY_45
*807 PHY_46
*808 PHY_47
*809 PHY_48
*810 PHY_49
*811 PHY_5
*812 PHY_50
*813 PHY_51
*814 PHY_52
*815 PHY_53
*816 PHY_54
*817 PHY_55
*818 PHY_56
*819 PHY_57
*820 PHY_6
*821 PHY_7
*822 PHY_8
*823 PHY_9
*824 TAP_100
*825 TAP_101
*826 TAP_102
*827 TAP_103
*828 TAP_104
*829 TAP_105
*830 TAP_106
*831 TAP_107
*832 TAP_108
*833 TAP_109
*834 TAP_110
*835 TAP_111
*836 TAP_112
*837 TAP_113
*838 TAP_114
*839 TAP_115
*840 TAP_116
*841 TAP_117
*842 TAP_118
*843 TAP_119
*844 TAP_120
*845 TAP_121
*846 TAP_122
*847 TAP_123
*848 TAP_124
*849 TAP_125
*850 TAP_126
*851 TAP_127
*852 TAP_128
*853 TAP_129
*854 TAP_130
*855 TAP_131
*856 TAP_132
*857 TAP_133
*858 TAP_134
*859 TAP_135
*860 TAP_136
*861 TAP_137
*862 TAP_138
*863 TAP_139
*864 TAP_140
*865 TAP_141
*866 TAP_142
*867 TAP_143
*868 TAP_144
*869 TAP_145
*870 TAP_146
*871 TAP_147
*872 TAP_148
*873 TAP_149
*874 TAP_150
*875 TAP_58
*876 TAP_59
*877 TAP_60
*878 TAP_61
*879 TAP_62
*880 TAP_63
*881 TAP_64
*882 TAP_65
*883 TAP_66
*884 TAP_67
*885 TAP_68
*886 TAP_69
*887 TAP_70
*888 TAP_71
*889 TAP_72
*890 TAP_73
*891 TAP_74
*892 TAP_75
*893 TAP_76
*894 TAP_77
*895 TAP_78
*896 TAP_79
*897 TAP_80
*898 TAP_81
*899 TAP_82
*900 TAP_83
*901 TAP_84
*902 TAP_85
*903 TAP_86
*904 TAP_87
*905 TAP_88
*906 TAP_89
*907 TAP_90
*908 TAP_91
*909 TAP_92
*910 TAP_93
*911 TAP_94
*912 TAP_95
*913 TAP_96
*914 TAP_97
*915 TAP_98
*916 TAP_99
*917 _239_
*918 _240_
*919 _241_
*920 _242_
*921 _243_
*922 _244_
*923 _245_
*924 _246_
*925 _247_
*926 _248_
*927 _249_
*928 _250_
*929 _251_
*930 _252_
*931 _253_
*932 _254_
*933 _255_
*934 _256_
*935 _257_
*936 _258_
*937 _259_
*938 _260_
*939 _261_
*940 _262_
*941 _263_
*942 _264_
*943 _265_
*944 _266_
*945 _267_
*946 _268_
*947 _269_
*948 _270_
*949 _271_
*950 _272_
*951 _273_
*952 _274_
*953 _275_
*954 _276_
*955 _277_
*956 _278_
*957 _279_
*958 _280_
*959 _281_
*960 _282_
*961 _283_
*962 _284_
*963 _285_
*964 _286_
*965 _287_
*966 _288_
*967 _289_
*968 _290_
*969 _291_
*970 _292_
*971 _293_
*972 _294_
*973 _295_
*974 _296_
*975 _297_
*976 _298_
*977 _299_
*978 _300_
*979 _301_
*980 _302_
*981 _303_
*982 _304_
*983 _305_
*984 _306_
*985 _307_
*986 _308_
*987 _309_
*988 _310_
*989 _311_
*990 _312_
*991 _313_
*992 _314_
*993 _315_
*994 _316_
*995 _317_
*996 _318_
*997 _319_
*998 _320_
*999 _321_
*1000 _322_
*1001 _323_
*1002 _324_
*1003 _325_
*1004 _326_
*1005 _327_
*1006 _328_
*1007 _329_
*1008 _330_
*1009 _331_
*1010 _332_
*1011 _333_
*1012 _334_
*1013 _335_
*1014 _336_
*1015 _337_
*1016 _338_
*1017 _339_
*1018 _340_
*1019 _341_
*1020 _342_
*1021 _343_
*1022 _344_
*1023 _345_
*1024 _346_
*1025 _347_
*1026 _348_
*1027 _349_
*1028 _350_
*1029 _351_
*1030 _352_
*1031 _353_
*1032 _354_
*1033 _355_
*1034 _356_
*1035 _357_
*1036 _358_
*1037 _359_
*1038 _360_
*1039 _361_
*1040 _362_
*1041 _363_
*1042 _364_
*1043 _365_
*1044 _366_
*1045 _367_
*1046 _368_
*1047 _369_
*1048 _370_
*1049 _371_
*1050 _372_
*1051 _373_
*1052 _374_
*1053 _375_
*1054 _376_
*1055 _377_
*1056 _378_
*1057 _379_
*1058 _380_
*1059 _381_
*1060 _382_
*1061 _383_
*1062 _384_
*1063 _385_
*1064 _386_
*1065 _387_
*1066 _388_
*1067 _389_
*1068 _390_
*1069 _391_
*1070 _392_
*1071 _393_
*1072 _394_
*1073 _395_
*1074 _396_
*1075 _397_
*1076 _398_
*1077 _399_
*1078 _400_
*1079 _401_
*1080 _402_
*1081 _403_
*1082 _404_
*1083 _405_
*1084 _406_
*1085 _407_
*1086 _408_
*1087 _409_
*1088 _410_
*1089 _411_
*1090 _412_
*1091 _413_
*1092 _414_
*1093 _415_
*1094 _416_
*1095 _417_
*1096 _418_
*1097 _419_
*1098 _420_
*1099 _421_
*1100 _422_
*1101 _423_
*1102 _424_
*1103 _425_
*1104 _426_
*1105 _427_
*1106 _428_
*1107 _429_
*1108 _430_
*1109 _431_
*1110 _432_
*1111 _433_
*1112 _434_
*1113 _435_
*1114 _436_
*1115 _437_
*1116 _438_
*1117 _439_
*1118 _440_
*1119 _441_
*1120 _442_
*1121 _443_
*1122 _444_
*1123 _445_
*1124 _446_
*1125 _447_
*1126 _448_
*1127 _449_
*1128 _450_
*1129 _451_
*1130 _452_
*1131 _453_
*1132 _454_
*1133 _455_
*1134 _456_
*1135 _457_
*1136 _458_
*1137 _459_
*1138 _460_
*1139 _461_
*1140 _462_
*1141 _463_
*1142 _464_
*1143 _465_
*1144 _466_
*1145 _467_
*1146 _468_
*1147 _469_
*1148 _470_
*1149 _471_
*1150 _472_
*1151 _473_
*1152 _474_
*1153 _475_
*1154 _476_
*1155 _477_
*1156 _478_
*1157 _479_
*1158 _480_
*1159 _481_
*1160 _482_
*1161 _483_
*1162 _484_
*1163 _485_
*1164 _486_
*1165 _487_
*1166 _488_
*1167 _489_
*1168 _490_
*1169 _491_
*1170 clkbuf_0_clk
*1171 clkbuf_1_0__f_clk
*1172 clkbuf_1_1__f_clk
*1173 fanout39
*1174 hold1
*1175 hold10
*1176 hold11
*1177 hold12
*1178 hold2
*1179 hold3
*1180 hold4
*1181 hold5
*1182 hold6
*1183 hold7
*1184 hold8
*1185 hold9
*1186 input1
*1187 input10
*1188 input11
*1189 input12
*1190 input13
*1191 input14
*1192 input15
*1193 input16
*1194 input17
*1195 input18
*1196 input19
*1197 input2
*1198 input20
*1199 input21
*1200 input22
*1201 input23
*1202 input3
*1203 input4
*1204 input5
*1205 input6
*1206 input7
*1207 input8
*1208 input9
*1209 max_cap38
*1210 output24
*1211 output25
*1212 output26
*1213 output27
*1214 output28
*1215 output29
*1216 output30
*1217 output31
*1218 output32
*1219 output33
*1220 output34
*1221 output35
*1222 output36
*1223 output37

*PORTS
clk I
data_in[0] I
data_in[1] I
data_in[2] I
data_in[3] I
data_in[4] I
data_in[5] I
data_in[6] I
data_in[7] I
int4_out[0] O
int4_out[1] O
int4_out[2] O
int4_out[3] O
is_outlier O
round_mode I
rst_n I
scale[0] I
scale[1] I
scale[2] I
scale[3] I
sideband_out[0] O
sideband_out[1] O
sideband_out[2] O
sideband_out[3] O
sideband_out[4] O
sideband_out[5] O
sideband_out[6] O
sideband_out[7] O
threshold[0] I
threshold[1] I
threshold[2] I
threshold[3] I
threshold[4] I
threshold[5] I
threshold[6] I
threshold[7] I
valid_in I
valid_out O

*D_NET *3 0.00568741
*CONN
*P clk I
*I *1170:A I *D sky130_fd_sc_hd__clkbuf_16
*CAP
1 clk 0.00198701
2 *1170:A 0
3 *3:13 0.00198701
4 *3:13 *941:A1 0
5 *3:13 *942:B 6.42242e-05
6 *3:13 *945:A 0
7 *3:13 *1062:B 0
8 *3:13 *1063:B_N 0
9 *3:13 *1071:A2 0.00014261
10 *3:13 *1073:B 2.71964e-05
11 *3:13 *1075:A 6.18105e-05
12 *3:13 *57:87 0
13 *3:13 *71:68 0
14 *3:13 *148:19 0
15 *3:13 *149:12 3.2666e-05
16 *3:13 *156:12 1.73789e-05
17 *3:13 *236:104 0
18 *3:13 *237:85 0
19 *3:13 *238:92 4.09646e-05
20 *3:13 *238:112 2.82564e-05
21 *3:13 *241:91 0.00027025
22 *3:13 *241:104 0.000164547
23 *3:13 *290:12 0
24 *3:13 *305:41 9.90367e-05
25 *3:13 *316:32 0.000389583
26 *3:13 *332:10 0.000314075
27 *3:13 *332:27 5.79561e-05
28 *3:13 *332:54 2.8266e-06
*RES
1 clk *3:13 45.4821 
2 *3:13 *1170:A 9.3 
*END

*D_NET *4 0.000502009
*CONN
*P data_in[0] I
*I *1186:A I *D sky130_fd_sc_hd__buf_1
*CAP
1 data_in[0] 0.000251004
2 *1186:A 0.000251004
*RES
1 data_in[0] *1186:A 20.2447 
*END

*D_NET *5 0.000668657
*CONN
*P data_in[1] I
*I *1197:A I *D sky130_fd_sc_hd__dlymetal6s2s_1
*CAP
1 data_in[1] 0.000334329
2 *1197:A 0.000334329
3 *1197:A *287:12 0
*RES
1 data_in[1] *1197:A 21.7625 
*END

*D_NET *6 0.00109226
*CONN
*P data_in[2] I
*I *1202:A I *D sky130_fd_sc_hd__clkbuf_2
*CAP
1 data_in[2] 0.000546131
2 *1202:A 0.000546131
*RES
1 data_in[2] *1202:A 24.175 
*END

*D_NET *7 0.00108542
*CONN
*P data_in[3] I
*I *1203:A I *D sky130_fd_sc_hd__clkbuf_4
*CAP
1 data_in[3] 0.00049223
2 *1203:A 0.00049223
3 *1203:A *1134:A2 0
4 *1203:A *1135:B 0.00010096
*RES
1 data_in[3] *1203:A 23.7643 
*END

*D_NET *8 0.00109715
*CONN
*P data_in[4] I
*I *1204:A I *D sky130_fd_sc_hd__buf_1
*CAP
1 data_in[4] 0.000520428
2 *1204:A 0.000520428
3 *1204:A *327:20 5.62995e-05
*RES
1 data_in[4] *1204:A 24.175 
*END

*D_NET *9 0.000986698
*CONN
*P data_in[5] I
*I *1205:A I *D sky130_fd_sc_hd__clkbuf_1
*CAP
1 data_in[5] 0.000493349
2 *1205:A 0.000493349
3 *1205:A *1201:A 0
*RES
1 data_in[5] *1205:A 23.3536 
*END

*D_NET *10 0.00161095
*CONN
*P data_in[6] I
*I *1206:A I *D sky130_fd_sc_hd__buf_1
*CAP
1 data_in[6] 0.000499483
2 *1206:A 0.000499483
3 *1206:A *1208:A 0.000611987
*RES
1 data_in[6] *1206:A 25.7821 
*END

*D_NET *11 0.000833388
*CONN
*P data_in[7] I
*I *1207:A I *D sky130_fd_sc_hd__buf_2
*CAP
1 data_in[7] 0.000416694
2 *1207:A 0.000416694
*RES
1 data_in[7] *1207:A 21.8357 
*END

*D_NET *12 0.00068534
*CONN
*P int4_out[0] O
*I *1210:X O *D sky130_fd_sc_hd__clkbuf_4
*CAP
1 int4_out[0] 0.000285616
2 *1210:X 0.000285616
3 int4_out[0] *287:12 0.000114109
*RES
1 *1210:X int4_out[0] 19.4092 
*END

*D_NET *13 0.00066765
*CONN
*P int4_out[1] O
*I *1211:X O *D sky130_fd_sc_hd__clkbuf_4
*CAP
1 int4_out[1] 0.000322723
2 *1211:X 0.000322723
3 int4_out[1] *291:8 2.22043e-05
*RES
1 *1211:X int4_out[1] 18.4111 
*END

*D_NET *14 0.000993093
*CONN
*P int4_out[2] O
*I *1212:X O *D sky130_fd_sc_hd__clkbuf_4
*CAP
1 int4_out[2] 0.000496547
2 *1212:X 0.000496547
*RES
1 *1212:X int4_out[2] 22.8536 
*END

*D_NET *15 0.000765736
*CONN
*P int4_out[3] O
*I *1213:X O *D sky130_fd_sc_hd__clkbuf_4
*CAP
1 int4_out[3] 0.000359448
2 *1213:X 0.000359448
3 int4_out[3] *287:12 4.68405e-05
*RES
1 *1213:X int4_out[3] 18.652 
*END

*D_NET *16 0.000679275
*CONN
*P is_outlier O
*I *1214:X O *D sky130_fd_sc_hd__clkbuf_4
*CAP
1 is_outlier 0.000339637
2 *1214:X 0.000339637
3 is_outlier *1214:A 0
*RES
1 *1214:X is_outlier 20.9589 
*END

*D_NET *17 0.00173375
*CONN
*P round_mode I
*I *1208:A I *D sky130_fd_sc_hd__buf_1
*CAP
1 round_mode 0.000560882
2 *1208:A 0.000560882
3 *1206:A *1208:A 0.000611987
*RES
1 round_mode *1208:A 26.1031 
*END

*D_NET *18 0.000705568
*CONN
*P rst_n I
*I *1187:A I *D sky130_fd_sc_hd__clkbuf_2
*CAP
1 rst_n 0.000352784
2 *1187:A 0.000352784
*RES
1 rst_n *1187:A 21.2102 
*END

*D_NET *19 0.000748901
*CONN
*P scale[0] I
*I *1188:A I *D sky130_fd_sc_hd__dlymetal6s2s_1
*CAP
1 scale[0] 0.00037445
2 *1188:A 0.00037445
*RES
1 scale[0] *1188:A 21.7102 
*END

*D_NET *20 0.00148987
*CONN
*P scale[1] I
*I *1189:A I *D sky130_fd_sc_hd__clkbuf_2
*CAP
1 scale[1] 0.000744937
2 *1189:A 0.000744937
*RES
1 scale[1] *1189:A 27.6929 
*END

*D_NET *21 0.00131365
*CONN
*P scale[2] I
*I *1190:A I *D sky130_fd_sc_hd__buf_1
*CAP
1 scale[2] 0.000656827
2 *1190:A 0.000656827
*RES
1 scale[2] *1190:A 26.3536 
*END

*D_NET *22 0.000947855
*CONN
*P scale[3] I
*I *1191:A I *D sky130_fd_sc_hd__buf_2
*CAP
1 scale[3] 0.000473927
2 *1191:A 0.000473927
3 *1191:A sideband_out[5] 0
4 *1191:A *1220:A 0
*RES
1 scale[3] *1191:A 22.0693 
*END

*D_NET *23 0.000700258
*CONN
*P sideband_out[0] O
*I *1215:X O *D sky130_fd_sc_hd__clkbuf_4
*CAP
1 sideband_out[0] 0.000350129
2 *1215:X 0.000350129
*RES
1 *1215:X sideband_out[0] 20.6929 
*END

*D_NET *24 0.000573055
*CONN
*P sideband_out[1] O
*I *1216:X O *D sky130_fd_sc_hd__buf_2
*CAP
1 sideband_out[1] 0.000270327
2 *1216:X 0.000270327
3 sideband_out[1] *1216:A 3.24007e-05
*RES
1 *1216:X sideband_out[1] 18.8021 
*END

*D_NET *25 0.00129567
*CONN
*P sideband_out[2] O
*I *1217:X O *D sky130_fd_sc_hd__clkbuf_4
*CAP
1 sideband_out[2] 0.000601047
2 *1217:X 0.000601047
3 sideband_out[2] *332:8 9.35729e-05
*RES
1 *1217:X sideband_out[2] 24.3536 
*END

*D_NET *26 0.000928789
*CONN
*P sideband_out[3] O
*I *1218:X O *D sky130_fd_sc_hd__clkbuf_4
*CAP
1 sideband_out[3] 0.000453024
2 *1218:X 0.000453024
3 sideband_out[3] *1195:A 2.27416e-05
*RES
1 *1218:X sideband_out[3] 22.4429 
*END

*D_NET *27 0.000718819
*CONN
*P sideband_out[4] O
*I *1219:X O *D sky130_fd_sc_hd__buf_2
*CAP
1 sideband_out[4] 0.00035941
2 *1219:X 0.00035941
*RES
1 *1219:X sideband_out[4] 21.0489 
*END

*D_NET *28 0.000704703
*CONN
*P sideband_out[5] O
*I *1220:X O *D sky130_fd_sc_hd__clkbuf_4
*CAP
1 sideband_out[5] 0.000352352
2 *1220:X 0.000352352
3 *1191:A sideband_out[5] 0
*RES
1 *1220:X sideband_out[5] 20.6929 
*END

*D_NET *29 0.000871513
*CONN
*P sideband_out[6] O
*I *1221:X O *D sky130_fd_sc_hd__clkbuf_4
*CAP
1 sideband_out[6] 0.000435756
2 *1221:X 0.000435756
*RES
1 *1221:X sideband_out[6] 21.8893 
*END

*D_NET *30 0.000649551
*CONN
*P sideband_out[7] O
*I *1222:X O *D sky130_fd_sc_hd__clkbuf_4
*CAP
1 sideband_out[7] 0.000324775
2 *1222:X 0.000324775
*RES
1 *1222:X sideband_out[7] 21.4589 
*END

*D_NET *31 0.000935996
*CONN
*P threshold[0] I
*I *1192:A I *D sky130_fd_sc_hd__buf_1
*CAP
1 threshold[0] 0.000434569
2 *1192:A 0.000434569
3 *1192:A *947:B1 6.10509e-05
4 *1192:A *291:8 5.80706e-06
5 *1192:A *333:10 0
*RES
1 threshold[0] *1192:A 20.3033 
*END

*D_NET *32 0.00103337
*CONN
*P threshold[1] I
*I *1193:A I *D sky130_fd_sc_hd__buf_1
*CAP
1 threshold[1] 0.000516685
2 *1193:A 0.000516685
*RES
1 threshold[1] *1193:A 25.1929 
*END

*D_NET *33 0.00098763
*CONN
*P threshold[2] I
*I *1194:A I *D sky130_fd_sc_hd__buf_1
*CAP
1 threshold[2] 0.000493815
2 *1194:A 0.000493815
3 *1194:A *308:31 0
*RES
1 threshold[2] *1194:A 22.9245 
*END

*D_NET *34 0.00203026
*CONN
*P threshold[3] I
*I *1195:A I *D sky130_fd_sc_hd__buf_1
*CAP
1 threshold[3] 0.00100376
2 *1195:A 0.00100376
3 sideband_out[3] *1195:A 2.27416e-05
*RES
1 threshold[3] *1195:A 32.6393 
*END

*D_NET *35 0.000998378
*CONN
*P threshold[4] I
*I *1196:A I *D sky130_fd_sc_hd__buf_1
*CAP
1 threshold[4] 0.000484733
2 *1196:A 0.000484733
3 *1196:A *293:16 2.89114e-05
*RES
1 threshold[4] *1196:A 23.3536 
*END

*D_NET *36 0.00114516
*CONN
*P threshold[5] I
*I *1198:A I *D sky130_fd_sc_hd__buf_1
*CAP
1 threshold[5] 0.000525289
2 *1198:A 0.000525289
3 *1198:A *1120:C1 7.17235e-05
4 *1198:A *171:12 2.286e-05
*RES
1 threshold[5] *1198:A 24.425 
*END

*D_NET *37 0.00112315
*CONN
*P threshold[6] I
*I *1199:A I *D sky130_fd_sc_hd__buf_1
*CAP
1 threshold[6] 0.000522479
2 *1199:A 0.000522479
3 *1199:A *332:8 7.8195e-05
*RES
1 threshold[6] *1199:A 23.8536 
*END

*D_NET *38 0.000529102
*CONN
*P threshold[7] I
*I *1200:A I *D sky130_fd_sc_hd__dlymetal6s2s_1
*CAP
1 threshold[7] 0.000253031
2 *1200:A 0.000253031
3 *1200:A *297:10 2.30389e-05
*RES
1 threshold[7] *1200:A 18.73 
*END

*D_NET *39 0.00113303
*CONN
*P valid_in I
*I *1201:A I *D sky130_fd_sc_hd__buf_1
*CAP
1 valid_in 0.000566515
2 *1201:A 0.000566515
3 *1205:A *1201:A 0
*RES
1 valid_in *1201:A 20.2705 
*END

*D_NET *40 0.000719914
*CONN
*P valid_out O
*I *1223:X O *D sky130_fd_sc_hd__clkbuf_4
*CAP
1 valid_out 0.000328584
2 *1223:X 0.000328584
3 valid_out *291:8 6.27457e-05
*RES
1 *1223:X valid_out 19.5533 
*END

*D_NET *41 0.000537125
*CONN
*I *1156:D I *D sky130_fd_sc_hd__dfrtp_1
*I *957:X O *D sky130_fd_sc_hd__o21ba_1
*CAP
1 *1156:D 0.000146511
2 *957:X 0.000146511
3 *1156:D *956:A 5.33005e-05
4 *1156:D *957:A2 1.13883e-05
5 *1156:D *957:B1_N 2.2351e-05
6 *1156:D *232:47 0.00010137
7 *1156:D *294:12 5.56943e-05
*RES
1 *957:X *1156:D 30.2964 
*END

*D_NET *42 0.000667586
*CONN
*I *1158:D I *D sky130_fd_sc_hd__dfrtp_1
*I *1130:X O *D sky130_fd_sc_hd__a22o_1
*CAP
1 *1158:D 0.000183943
2 *1130:X 0.000183943
3 *1158:D *232:47 0.000141734
4 *1158:D *232:66 0.000157965
5 *1158:D *294:12 0
*RES
1 *1130:X *1158:D 30.7071 
*END

*D_NET *43 0.00055189
*CONN
*I *1159:D I *D sky130_fd_sc_hd__dfrtp_1
*I *1133:X O *D sky130_fd_sc_hd__a22o_1
*CAP
1 *1159:D 0.000141506
2 *1133:X 0.000141506
3 *1159:D *1132:A3 7.32173e-05
4 *1159:D *315:134 0.000128161
5 *1159:D *327:20 6.75007e-05
*RES
1 *1133:X *1159:D 31.0107 
*END

*D_NET *44 0.000860795
*CONN
*I *1160:D I *D sky130_fd_sc_hd__dfrtp_1
*I *1137:X O *D sky130_fd_sc_hd__a22o_1
*CAP
1 *1160:D 0.000257058
2 *1137:X 0.000257058
3 *1160:D *1138:A 0.000143375
4 *1160:D *1139:B1 6.8445e-06
5 *1160:D *1139:B2 0.000179025
6 *1160:D *1161:CLK 1.74352e-05
7 *1160:D *1161:D 0
*RES
1 *1137:X *1160:D 31.8321 
*END

*D_NET *45 0.000781525
*CONN
*I *1161:D I *D sky130_fd_sc_hd__dfrtp_1
*I *1139:X O *D sky130_fd_sc_hd__a22o_1
*CAP
1 *1161:D 0.000218015
2 *1139:X 0.000218015
3 *1161:D *1139:B1 0.000345495
4 *1161:D *1139:B2 0
5 *1161:D *1160:CLK 0
6 *1160:D *1161:D 0
*RES
1 *1139:X *1161:D 32.8679 
*END

*D_NET *46 0.000425948
*CONN
*I *1162:D I *D sky130_fd_sc_hd__dfrtp_1
*I *1141:X O *D sky130_fd_sc_hd__a31o_1
*CAP
1 *1162:D 0.000107859
2 *1141:X 0.000107859
3 *1162:D *1152:B 7.74135e-05
4 *1162:D *1162:CLK 2.85321e-05
5 *1162:D *1162:RESET_B 5.66971e-05
6 *1162:D *1184:A 4.75888e-05
*RES
1 *1141:X *1162:D 30.3857 
*END

*D_NET *47 0.000528718
*CONN
*I *1163:D I *D sky130_fd_sc_hd__dfrtp_1
*I *1143:X O *D sky130_fd_sc_hd__a31o_1
*CAP
1 *1163:D 0.000110325
2 *1143:X 0.000110325
3 *1163:D *1143:A1 5.17614e-05
4 *1163:D *1145:A1 0.000128154
5 *1163:D *1147:A3 0.000128154
*RES
1 *1143:X *1163:D 30.1893 
*END

*D_NET *48 0.000318277
*CONN
*I *1164:D I *D sky130_fd_sc_hd__dfrtp_1
*I *1145:X O *D sky130_fd_sc_hd__a31o_1
*CAP
1 *1164:D 0.000108909
2 *1145:X 0.000108909
3 *1164:D *1166:CLK 0
4 *1164:D *268:101 0.000100458
*RES
1 *1145:X *1164:D 29.475 
*END

*D_NET *49 0.000473108
*CONN
*I *1165:D I *D sky130_fd_sc_hd__dfrtp_1
*I *1147:X O *D sky130_fd_sc_hd__a31o_1
*CAP
1 *1165:D 0.000126247
2 *1147:X 0.000126247
3 *1165:D *1147:A2 1.58163e-05
4 *1165:D *1147:A3 0.000101545
5 *1165:D *1159:CLK 0.000103253
*RES
1 *1147:X *1165:D 30.0107 
*END

*D_NET *50 0.000583861
*CONN
*I *1166:D I *D sky130_fd_sc_hd__dfrtp_1
*I *1149:X O *D sky130_fd_sc_hd__a31o_1
*CAP
1 *1166:D 0.000208852
2 *1149:X 0.000208852
3 *1166:D *230:75 0.00010254
4 *1166:D *230:79 2.29112e-05
5 *1166:D *232:118 4.07062e-05
*RES
1 *1149:X *1166:D 32.2429 
*END

*D_NET *51 0.000381861
*CONN
*I *1167:D I *D sky130_fd_sc_hd__dfrtp_1
*I *1151:X O *D sky130_fd_sc_hd__a31o_1
*CAP
1 *1167:D 0.000128368
2 *1151:X 0.000128368
3 *1167:D *956:B 5.01562e-05
4 *1167:D *1151:A2 1.00332e-05
5 *1167:D *1155:A1 4.66218e-05
6 *1167:D *283:14 1.83136e-05
*RES
1 *1151:X *1167:D 30.3857 
*END

*D_NET *52 0.000927839
*CONN
*I *1168:D I *D sky130_fd_sc_hd__dfrtp_1
*I *1153:X O *D sky130_fd_sc_hd__a31o_1
*CAP
1 *1168:D 0.000236344
2 *1153:X 0.000236344
3 *1168:D *1155:A2 0.000166093
4 *1168:D *1168:CLK 0.000261115
5 *1168:D *281:33 2.79421e-05
*RES
1 *1153:X *1168:D 32.3143 
*END

*D_NET *53 0.00065126
*CONN
*I *1169:D I *D sky130_fd_sc_hd__dfrtp_1
*I *1155:X O *D sky130_fd_sc_hd__a31o_1
*CAP
1 *1169:D 0.000254363
2 *1155:X 0.000254363
3 *1169:D *1155:A3 5.66472e-05
4 *1169:D *1162:RESET_B 8.47289e-06
5 *1169:D *1168:CLK 7.74135e-05
*RES
1 *1155:X *1169:D 31.6714 
*END

*D_NET *54 0.000347625
*CONN
*I *970:C I *D sky130_fd_sc_hd__or4b_1
*I *968:X O *D sky130_fd_sc_hd__o21a_1
*CAP
1 *970:C 9.19382e-05
2 *968:X 9.19382e-05
3 *970:C *970:A 5.52238e-05
4 *970:C *271:126 5.52238e-05
5 *970:C *332:81 5.33005e-05
*RES
1 *968:X *970:C 20.3679 
*END

*D_NET *55 0.000663579
*CONN
*I *970:D_N I *D sky130_fd_sc_hd__or4b_1
*I *969:X O *D sky130_fd_sc_hd__or3_1
*CAP
1 *970:D_N 0.000127201
2 *969:X 0.000127201
3 *970:D_N *967:A1 4.53834e-05
4 *970:D_N *970:A 0.000177821
5 *970:D_N *164:8 0.000103267
6 *970:D_N *241:138 2.94055e-05
7 *970:D_N *272:107 5.33005e-05
*RES
1 *969:X *970:D_N 30.7071 
*END

*D_NET *56 0.00247391
*CONN
*I *1003:A2 I *D sky130_fd_sc_hd__o211a_1
*I *995:B1_N I *D sky130_fd_sc_hd__a21bo_1
*I *970:X O *D sky130_fd_sc_hd__or4b_1
*CAP
1 *1003:A2 0.000345475
2 *995:B1_N 0
3 *970:X 0.000258479
4 *56:12 0.000603955
5 *1003:A2 *995:A2 5.75774e-05
6 *1003:A2 *1002:B 5.65955e-05
7 *1003:A2 *1003:A1 0.000248646
8 *1003:A2 *1003:B1 4.10796e-05
9 *1003:A2 *270:16 0.000183477
10 *1003:A2 *285:34 0.000112068
11 *1003:A2 *316:22 7.49346e-05
12 *56:12 *968:A2 4.6025e-06
13 *56:12 *968:B1 0
14 *56:12 *995:A2 4.97967e-05
15 *56:12 *1001:B 6.49087e-05
16 *56:12 *241:138 0.000287337
17 *56:12 *279:23 5.74629e-05
18 *56:12 *316:22 2.75153e-05
*RES
1 *970:X *56:12 24.2286 
2 *56:12 *995:B1_N 9.3 
3 *56:12 *1003:A2 26.2643 
*END

*D_NET *57 0.0152182
*CONN
*I *1002:A I *D sky130_fd_sc_hd__nand3_1
*I *995:A1 I *D sky130_fd_sc_hd__a21bo_1
*I *973:A1 I *D sky130_fd_sc_hd__a22o_1
*I *972:B I *D sky130_fd_sc_hd__nand2_1
*I *1073:A I *D sky130_fd_sc_hd__and4_1
*I *1069:A1 I *D sky130_fd_sc_hd__a22o_1
*I *1056:A I *D sky130_fd_sc_hd__nand4_1
*I *1009:A1 I *D sky130_fd_sc_hd__a22o_1
*I *977:A I *D sky130_fd_sc_hd__nand4_2
*I *1042:A I *D sky130_fd_sc_hd__and4_1
*I *971:X O *D sky130_fd_sc_hd__buf_2
*CAP
1 *1002:A 0.000142088
2 *995:A1 0
3 *973:A1 0.000316199
4 *972:B 0.00037489
5 *1073:A 0
6 *1069:A1 9.66184e-05
7 *1056:A 0
8 *1009:A1 0.000250773
9 *977:A 0
10 *1042:A 1.43511e-05
11 *971:X 0
12 *57:142 0.000271567
13 *57:121 0.000617108
14 *57:100 0.000882965
15 *57:87 0.000836495
16 *57:68 0.000800073
17 *57:33 0.000987772
18 *57:20 0.0009477
19 *57:8 0.000233132
20 *57:4 0.000240387
21 *972:B *967:A2 8.9131e-05
22 *972:B *241:123 7.83659e-05
23 *972:B *282:54 1.74352e-05
24 *972:B *305:41 0.000278806
25 *973:A1 *969:A 4.45341e-05
26 *973:A1 *969:C 5.52238e-05
27 *973:A1 *973:B1 5.33005e-05
28 *973:A1 *278:31 3.50166e-05
29 *973:A1 *316:26 7.12595e-05
30 *1002:A *995:A2 0.000308008
31 *1002:A *1001:B 0.000125096
32 *1002:A *1002:B 5.1408e-05
33 *1002:A *241:138 4.17702e-05
34 *1009:A1 *978:A 6.50185e-05
35 *1009:A1 *978:B 0
36 *1009:A1 *1009:A2 5.49995e-05
37 *1009:A1 *1009:B2 1.12837e-05
38 *1009:A1 *63:8 0.000147784
39 *1009:A1 *63:25 4.51092e-05
40 *1009:A1 *71:10 3.46801e-05
41 *1009:A1 *233:69 5.46383e-06
42 *1009:A1 *233:73 9.80705e-05
43 *1009:A1 *316:62 9.58689e-05
44 *1042:A *237:59 5.33005e-05
45 *1042:A *238:59 5.50052e-05
46 *1069:A1 *238:92 4.21517e-05
47 *1069:A1 *295:16 0.000170345
48 *1069:A1 *332:35 6.79404e-05
49 *57:8 *142:8 8.14145e-05
50 *57:8 *272:24 0.000142361
51 *57:20 *971:A 0.000148995
52 *57:20 *1057:A 0
53 *57:20 *237:59 0.000137639
54 *57:20 *238:59 0.000126102
55 *57:20 *286:18 6.73181e-05
56 *57:20 *293:24 0.000250965
57 *57:33 *974:A 0.000161852
58 *57:33 *1065:A_N 0.000150773
59 *57:33 *63:8 1.00887e-05
60 *57:33 *137:14 0.000196269
61 *57:33 *233:44 0
62 *57:33 *235:115 0.000144732
63 *57:33 *293:24 0.00066588
64 *57:33 *305:41 7.76152e-05
65 *57:68 *1059:A 0.000119356
66 *57:68 *1059:C 3.1501e-05
67 *57:68 *142:8 7.11463e-05
68 *57:68 *145:6 0.00014183
69 *57:68 *272:24 1.48556e-05
70 *57:68 *272:45 0.000449823
71 *57:87 *1062:C 5.33005e-05
72 *57:87 *1063:A 0.000125057
73 *57:87 *145:6 2.60984e-05
74 *57:87 *145:21 2.42778e-05
75 *57:87 *148:8 5.52238e-05
76 *57:87 *149:12 0.000199086
77 *57:87 *236:104 6.17449e-05
78 *57:100 *1071:B1 0.000235821
79 *57:100 *1072:A 5.82486e-05
80 *57:100 *1078:B1 6.97392e-05
81 *57:100 *149:12 0.000362236
82 *57:100 *164:8 3.17148e-05
83 *57:100 *236:104 1.25275e-05
84 *57:100 *316:32 0.000111285
85 *57:121 *164:8 0.000473153
86 *57:121 *272:107 0.000308592
87 *57:121 *316:32 7.89037e-05
88 *57:142 *995:A2 5.66971e-05
89 *57:142 *996:B 3.69047e-06
90 *57:142 *164:8 0.000218354
91 *57:142 *241:138 0.000139337
92 *57:142 *316:32 4.00025e-05
93 *57:142 *316:62 7.41402e-05
94 *3:13 *57:87 0
*RES
1 *971:X *57:4 9.3 
2 *57:4 *57:8 1.78571 
3 *57:8 *57:20 14.4821 
4 *57:20 *1042:A 9.83571 
5 *57:20 *57:33 27.9464 
6 *57:33 *977:A 9.3 
7 *57:33 *1009:A1 24.8536 
8 *57:8 *1056:A 9.3 
9 *57:4 *57:68 6.71429 
10 *57:68 *1069:A1 20.55 
11 *57:68 *57:87 13.9821 
12 *57:87 *1073:A 13.8 
13 *57:87 *57:100 9.28571 
14 *57:100 *972:B 28.5143 
15 *57:100 *57:121 6.19643 
16 *57:121 *973:A1 19.0143 
17 *57:121 *57:142 8.71429 
18 *57:142 *995:A1 9.3 
19 *57:142 *1002:A 13.55 
*END

*D_NET *58 0.000879938
*CONN
*I *973:B1 I *D sky130_fd_sc_hd__a22o_1
*I *972:Y O *D sky130_fd_sc_hd__nand2_1
*CAP
1 *973:B1 0.000159169
2 *972:Y 0.000159169
3 *973:B1 *958:A 0
4 *973:B1 *967:A2 8.52233e-05
5 *973:B1 *968:A2 0.000124313
6 *973:B1 *968:B1 0.000140521
7 *973:B1 *969:A 2.59355e-05
8 *973:B1 *190:30 0
9 *973:B1 *278:14 3.57844e-05
10 *973:B1 *279:23 9.65217e-05
11 *973:A1 *973:B1 5.33005e-05
*RES
1 *972:Y *973:B1 31.9036 
*END

*D_NET *59 0.000897474
*CONN
*I *1001:A I *D sky130_fd_sc_hd__xnor2_1
*I *973:X O *D sky130_fd_sc_hd__a22o_1
*CAP
1 *1001:A 0.000268519
2 *973:X 0.000268519
3 *1001:A *1147:A1 0.000268923
4 *1001:A *1159:CLK 4.43184e-05
5 *1001:A *190:30 4.71938e-05
*RES
1 *973:X *1001:A 32.1357 
*END

*D_NET *60 0.00153671
*CONN
*I *978:A I *D sky130_fd_sc_hd__and2_1
*I *1009:B1 I *D sky130_fd_sc_hd__a22o_1
*I *977:C I *D sky130_fd_sc_hd__nand4_2
*I *974:Y O *D sky130_fd_sc_hd__nand4_2
*CAP
1 *978:A 0.000123074
2 *1009:B1 0
3 *977:C 0
4 *974:Y 0.000102065
5 *60:23 0.000250828
6 *60:8 0.000229818
7 *978:A *978:B 7.97727e-06
8 *978:A *1009:A2 5.49995e-05
9 *978:A *1012:A2 9.75679e-05
10 *978:A *95:27 8.52379e-05
11 *60:8 *71:10 0.00015018
12 *60:8 *167:14 9.77824e-05
13 *60:8 *233:73 5.54817e-06
14 *60:23 *1021:B 6.93626e-06
15 *60:23 *167:14 0.000154057
16 *60:23 *233:73 0.000105618
17 *1009:A1 *978:A 6.50185e-05
*RES
1 *974:Y *60:8 16.3536 
2 *60:8 *977:C 13.8 
3 *60:8 *60:23 8.32143 
4 *60:23 *1009:B1 9.3 
5 *60:23 *978:A 12.3179 
*END

*D_NET *61 0.00899341
*CONN
*I *1006:A1 I *D sky130_fd_sc_hd__a22o_1
*I *976:A1 I *D sky130_fd_sc_hd__a22o_1
*I *1007:B I *D sky130_fd_sc_hd__nand4_1
*I *1026:B I *D sky130_fd_sc_hd__nand4_1
*I *980:A1 I *D sky130_fd_sc_hd__a22o_1
*I *979:B I *D sky130_fd_sc_hd__nand4_2
*I *1040:B I *D sky130_fd_sc_hd__nand4_1
*I *1034:A1 I *D sky130_fd_sc_hd__a22o_1
*I *1041:A1 I *D sky130_fd_sc_hd__a22o_1
*I *1035:B I *D sky130_fd_sc_hd__nand4_1
*I *975:X O *D sky130_fd_sc_hd__buf_2
*CAP
1 *1006:A1 0.000117973
2 *976:A1 0.000142496
3 *1007:B 0.000200221
4 *1026:B 0.000250466
5 *980:A1 0
6 *979:B 0.000127901
7 *1040:B 4.81103e-05
8 *1034:A1 0.000257695
9 *1041:A1 5.67619e-05
10 *1035:B 0.000145184
11 *975:X 4.36033e-05
12 *61:97 0.000342717
13 *61:95 0.000197352
14 *61:64 0.000127901
15 *61:29 0.000314457
16 *61:16 0.000295843
17 *61:14 0.000320596
18 *61:12 0.000175204
19 *61:10 0.000808306
20 *61:8 0.000627445
21 *976:A1 *1007:C 0.000139734
22 *976:A1 *234:6 1.0484e-05
23 *979:B *979:A 9.67754e-05
24 *979:B *979:C 5.48668e-06
25 *979:B *979:D 2.32314e-05
26 *979:B *980:B1 0.000129571
27 *979:B *66:10 0.000180207
28 *979:B *121:27 6.96994e-05
29 *1006:A1 *91:29 1.15172e-05
30 *1006:A1 *269:36 3.48235e-05
31 *1006:A1 *327:36 2.286e-05
32 *1007:B *1007:C 0.000221978
33 *1007:B *1007:D 1.98839e-05
34 *1026:B *1026:A 7.02941e-05
35 *1026:B *1026:D 0.000222506
36 *1026:B *305:45 8.46829e-05
37 *1034:A1 *926:A 0.000170762
38 *1034:A1 *1041:A2 0.000291082
39 *1034:A1 *294:20 8.46197e-05
40 *1035:B *1040:D 1.6815e-05
41 *1035:B *234:39 6.13903e-05
42 *1035:B *237:10 7.74068e-05
43 *1035:B *237:40 9.90367e-05
44 *1035:B *283:18 4.41329e-06
45 *1040:B *1034:A2 3.54697e-06
46 *1040:B *126:12 2.51343e-06
47 *1040:B *286:18 2.57552e-06
48 *1041:A1 *1041:A2 3.87621e-05
49 *1041:A1 *237:10 5.49995e-05
50 *61:8 *234:6 5.33005e-05
51 *61:10 *975:A 0.000171355
52 *61:10 *1025:B1 0.000373803
53 *61:10 *1034:A2 2.26327e-05
54 *61:10 *234:35 0.000113151
55 *61:10 *235:20 5.20919e-05
56 *61:10 *272:14 0.000147921
57 *61:10 *272:18 0
58 *61:12 *1034:A2 7.83892e-05
59 *61:12 *234:35 3.57844e-05
60 *61:12 *234:37 2.49484e-05
61 *61:12 *331:26 1.02504e-05
62 *61:14 *1034:A2 0.000323941
63 *61:14 *331:26 0.00032879
64 *61:16 *1034:A2 5.74242e-05
65 *61:16 *1040:D 9.61299e-05
66 *61:16 *234:39 0.00013171
67 *61:16 *331:26 9.15842e-06
68 *61:95 *975:A 6.67257e-05
69 *61:95 *167:14 0
70 *61:95 *235:20 1.17516e-05
71 *61:95 *235:48 1.11596e-05
72 *61:95 *269:36 2.11063e-05
*RES
1 *975:X *61:8 14.3357 
2 *61:8 *61:10 12.2679 
3 *61:10 *61:12 1.64286 
4 *61:12 *61:14 4.375 
5 *61:14 *61:16 3.46429 
6 *61:16 *1035:B 16.3893 
7 *61:16 *61:29 4.5 
8 *61:29 *1041:A1 10.675 
9 *61:29 *1034:A1 24.2821 
10 *61:14 *1040:B 14.3357 
11 *61:12 *61:64 4.5 
12 *61:64 *979:B 13.1571 
13 *61:64 *980:A1 9.3 
14 *61:10 *1026:B 18.4786 
15 *61:8 *61:95 1.64286 
16 *61:95 *61:97 4.5 
17 *61:97 *1007:B 11.8893 
18 *61:97 *976:A1 11.4964 
19 *61:95 *1006:A1 15.8 
*END

*D_NET *62 0.000727537
*CONN
*I *1009:B2 I *D sky130_fd_sc_hd__a22o_1
*I *977:D I *D sky130_fd_sc_hd__nand4_2
*I *976:X O *D sky130_fd_sc_hd__a22o_1
*CAP
1 *1009:B2 5.01259e-05
2 *977:D 5.01862e-05
3 *976:X 8.18012e-05
4 *62:6 0.000182113
5 *977:D *167:14 0.000148514
6 *977:D *234:19 0.000148514
7 *1009:B2 *976:A2 0
8 *62:6 *234:19 5.49995e-05
9 *1009:A1 *1009:B2 1.12837e-05
*RES
1 *976:X *62:6 10.2464 
2 *62:6 *977:D 20.2464 
3 *62:6 *1009:B2 10.3357 
*END

*D_NET *63 0.00261011
*CONN
*I *1012:A1 I *D sky130_fd_sc_hd__a21o_1
*I *1010:A I *D sky130_fd_sc_hd__nand3_1
*I *1011:A I *D sky130_fd_sc_hd__and3_1
*I *978:B I *D sky130_fd_sc_hd__and2_1
*I *977:Y O *D sky130_fd_sc_hd__nand4_2
*CAP
1 *1012:A1 0.000192966
2 *1010:A 7.17656e-05
3 *1011:A 0
4 *978:B 0.000138719
5 *977:Y 6.86511e-05
6 *63:27 7.17656e-05
7 *63:25 0.000434469
8 *63:8 0.000448873
9 *978:B *95:27 7.4057e-06
10 *1010:A *1010:B 0.00014183
11 *1010:A *1011:C 0.000126591
12 *1010:A *94:16 3.14193e-05
13 *1010:A *327:36 6.16649e-05
14 *1012:A1 *1012:A2 2.59355e-05
15 *1012:A1 *1021:B 0.000281743
16 *1012:A1 *1031:A2 4.02462e-05
17 *1012:A1 *293:16 3.40729e-05
18 *63:8 *293:16 3.56053e-05
19 *63:8 *293:24 1.88083e-05
20 *63:25 *1021:B 7.26251e-05
21 *63:25 *233:73 5.70868e-06
22 *63:25 *293:16 8.82836e-05
23 *978:A *978:B 7.97727e-06
24 *1009:A1 *978:B 0
25 *1009:A1 *63:8 0.000147784
26 *1009:A1 *63:25 4.51092e-05
27 *57:33 *63:8 1.00887e-05
*RES
1 *977:Y *63:8 15.7464 
2 *63:8 *978:B 15.7821 
3 *63:8 *63:25 3.92857 
4 *63:25 *63:27 4.5 
5 *63:27 *1011:A 9.3 
6 *63:27 *1010:A 11.9071 
7 *63:25 *1012:A1 18.1036 
*END

*D_NET *64 0.000690794
*CONN
*I *984:A_N I *D sky130_fd_sc_hd__and2b_1
*I *986:B I *D sky130_fd_sc_hd__xnor2_1
*I *978:X O *D sky130_fd_sc_hd__and2_1
*CAP
1 *984:A_N 8.79633e-05
2 *986:B 0
3 *978:X 0.000130382
4 *64:6 0.000218346
5 *984:A_N *984:B 4.25176e-05
6 *984:A_N *986:A 0.000136676
7 *64:6 *986:A 5.65955e-05
8 *64:6 *95:27 1.83136e-05
*RES
1 *978:X *64:6 11.4786 
2 *64:6 *986:B 9.3 
3 *64:6 *984:A_N 11.0679 
*END

*D_NET *65 0.00381918
*CONN
*I *982:A1 I *D sky130_fd_sc_hd__a21o_1
*I *989:A1 I *D sky130_fd_sc_hd__a211oi_1
*I *990:B1 I *D sky130_fd_sc_hd__o211a_1
*I *981:B I *D sky130_fd_sc_hd__nand3_1
*I *979:Y O *D sky130_fd_sc_hd__nand4_2
*CAP
1 *982:A1 6.15656e-05
2 *989:A1 0.000143698
3 *990:B1 2.1336e-05
4 *981:B 1.95385e-05
5 *979:Y 0.000470574
6 *65:29 0.000455844
7 *65:20 0.000323662
8 *65:18 0.000545453
9 *981:B *67:8 5.30637e-06
10 *989:A1 *961:D 7.20393e-07
11 *989:A1 *989:A2 5.56943e-05
12 *989:A1 *989:C1 5.64954e-05
13 *989:A1 *990:A2 1.97695e-05
14 *989:A1 *69:12 0
15 *989:A1 *74:8 4.46186e-06
16 *990:B1 *961:D 3.05398e-05
17 *990:B1 *990:A2 1.97695e-05
18 *990:B1 *67:17 1.04232e-05
19 *65:18 *959:A 1.52353e-05
20 *65:18 *979:C 5.28539e-05
21 *65:18 *979:D 3.06948e-05
22 *65:18 *981:C 0.000237483
23 *65:18 *1051:A 0.000112418
24 *65:18 *66:10 0.000209159
25 *65:18 *137:14 0.000268409
26 *65:18 *233:44 1.33049e-05
27 *65:18 *233:69 0.000209255
28 *65:29 *961:D 1.21289e-05
29 *65:29 *983:B 0.000141279
30 *65:29 *67:8 0.000114519
31 *65:29 *67:17 0.000102362
32 *65:29 *69:12 5.52302e-05
*RES
1 *979:Y *65:18 30.0321 
2 *65:18 *65:20 0.428571 
3 *65:20 *981:B 9.83571 
4 *65:20 *65:29 6.69643 
5 *65:29 *990:B1 10.242 
6 *65:29 *989:A1 20.9071 
7 *65:18 *982:A1 10.2464 
*END

*D_NET *66 0.00349828
*CONN
*I *981:C I *D sky130_fd_sc_hd__nand3_1
*I *982:A2 I *D sky130_fd_sc_hd__a21o_1
*I *980:X O *D sky130_fd_sc_hd__a22o_1
*CAP
1 *981:C 0.000143045
2 *982:A2 0.000176371
3 *980:X 0.000260681
4 *66:10 0.000580097
5 *981:C *974:A 0.000173797
6 *981:C *1051:A 9.25014e-06
7 *982:A2 *981:A 1.02504e-05
8 *982:A2 *982:B1 3.4846e-06
9 *982:A2 *282:54 0.00035281
10 *982:A2 *293:24 8.66228e-05
11 *982:A2 *298:22 0.000351162
12 *66:10 *959:A 8.08547e-05
13 *66:10 *974:A 0.000264614
14 *66:10 *979:D 2.43098e-05
15 *66:10 *271:10 0.000354086
16 *979:B *66:10 0.000180207
17 *65:18 *981:C 0.000237483
18 *65:18 *66:10 0.000209159
*RES
1 *980:X *66:10 21.9071 
2 *66:10 *982:A2 28.4607 
3 *66:10 *981:C 17.8179 
*END

*D_NET *67 0.00144276
*CONN
*I *990:C1 I *D sky130_fd_sc_hd__o211a_1
*I *989:A2 I *D sky130_fd_sc_hd__a211oi_1
*I *983:A I *D sky130_fd_sc_hd__and2_1
*I *981:Y O *D sky130_fd_sc_hd__nand3_1
*CAP
1 *990:C1 0
2 *989:A2 0.000129025
3 *983:A 0
4 *981:Y 0.000281809
5 *67:17 0.000186817
6 *67:8 0.0003396
7 *989:A2 *69:12 0
8 *989:A2 *74:8 0
9 *67:8 *983:B 7.51937e-05
10 *67:17 *961:D 0.000142011
11 *981:B *67:8 5.30637e-06
12 *989:A1 *989:A2 5.56943e-05
13 *990:B1 *67:17 1.04232e-05
14 *65:29 *67:8 0.000114519
15 *65:29 *67:17 0.000102362
*RES
1 *981:Y *67:8 14.3714 
2 *67:8 *983:A 9.3 
3 *67:8 *67:17 2.19643 
4 *67:17 *989:A2 20.2464 
5 *67:17 *990:C1 9.3 
*END

*D_NET *68 0.000277587
*CONN
*I *983:B I *D sky130_fd_sc_hd__and2_1
*I *982:X O *D sky130_fd_sc_hd__a21o_1
*CAP
1 *983:B 3.05569e-05
2 *982:X 3.05569e-05
3 *65:29 *983:B 0.000141279
4 *67:8 *983:B 7.51937e-05
*RES
1 *982:X *983:B 19.9571 
*END

*D_NET *69 0.00245583
*CONN
*I *984:B I *D sky130_fd_sc_hd__and2b_1
*I *986:A I *D sky130_fd_sc_hd__xnor2_1
*I *983:X O *D sky130_fd_sc_hd__and2_1
*CAP
1 *984:B 0.000141724
2 *986:A 7.88973e-05
3 *983:X 0.000435914
4 *69:12 0.000656535
5 *984:B *72:8 6.05161e-06
6 *986:A *72:8 2.59355e-05
7 *69:12 *962:B 0.000246469
8 *69:12 *987:C 0.00024252
9 *69:12 *131:14 0.000101545
10 *69:12 *139:14 0.000151375
11 *69:12 *139:39 7.78449e-05
12 *69:12 *270:28 0
13 *69:12 *293:24 0
14 *984:A_N *984:B 4.25176e-05
15 *984:A_N *986:A 0.000136676
16 *989:A1 *69:12 0
17 *989:A2 *69:12 0
18 *64:6 *986:A 5.65955e-05
19 *65:29 *69:12 5.52302e-05
*RES
1 *983:X *69:12 28.0679 
2 *69:12 *986:A 11.0679 
3 *69:12 *984:B 11.925 
*END

*D_NET *70 0.00083605
*CONN
*I *993:A1 I *D sky130_fd_sc_hd__o21ai_2
*I *1016:B I *D sky130_fd_sc_hd__or3_1
*I *984:X O *D sky130_fd_sc_hd__and2b_1
*CAP
1 *993:A1 0.000107946
2 *1016:B 2.08163e-05
3 *984:X 0.000120173
4 *70:6 0.000248935
5 *993:A1 *993:A2 0.00017397
6 *993:A1 *73:14 1.24368e-05
7 *993:A1 *235:16 9.84729e-05
8 *70:6 *73:14 5.33005e-05
*RES
1 *984:X *70:6 11.0679 
2 *70:6 *1016:B 9.72857 
3 *70:6 *993:A1 11.9071 
*END

*D_NET *71 0.0133388
*CONN
*I *994:A2 I *D sky130_fd_sc_hd__a31o_1
*I *1064:A I *D sky130_fd_sc_hd__nand2_1
*I *1045:A1 I *D sky130_fd_sc_hd__a31o_1
*I *1073:B I *D sky130_fd_sc_hd__and4_1
*I *1070:C I *D sky130_fd_sc_hd__and4b_1
*I *1060:A I *D sky130_fd_sc_hd__nand2_1
*I *987:B I *D sky130_fd_sc_hd__and3_1
*I *1081:A1 I *D sky130_fd_sc_hd__a31o_1
*I *1052:A1 I *D sky130_fd_sc_hd__a22o_1
*I *1051:A I *D sky130_fd_sc_hd__nand4_1
*I *985:X O *D sky130_fd_sc_hd__buf_2
*CAP
1 *994:A2 3.11121e-05
2 *1064:A 3.64069e-05
3 *1045:A1 0.000718149
4 *1073:B 0.000255318
5 *1070:C 1.78939e-05
6 *1060:A 1.97574e-05
7 *987:B 0.000351415
8 *1081:A1 0.000242776
9 *1052:A1 0
10 *1051:A 0.000186111
11 *985:X 0
12 *71:123 0.000795515
13 *71:89 0.000434298
14 *71:76 0.000356153
15 *71:68 0.000842949
16 *71:64 0.00138724
17 *71:12 0.000220341
18 *71:10 0.000702674
19 *71:4 0.00150653
20 *987:B *1021:A 7.95353e-05
21 *987:B *293:24 2.37944e-05
22 *987:B *316:62 0.000394502
23 *994:A2 *994:A3 5.50052e-05
24 *994:A2 *241:138 9.67754e-05
25 *1045:A1 *964:A 7.77721e-06
26 *1045:A1 *964:B 2.0876e-05
27 *1045:A1 *964:D 2.84026e-05
28 *1045:A1 *1066:A 0.000228493
29 *1045:A1 *129:10 7.89623e-06
30 *1045:A1 *131:14 1.20716e-05
31 *1045:A1 *152:8 7.24028e-05
32 *1051:A *974:A 8.47011e-05
33 *1051:A *137:14 4.43256e-05
34 *1051:A *233:69 0
35 *1070:C *1062:B 1.78393e-05
36 *1070:C *1075:A 5.51649e-05
37 *1070:C *236:36 5.54817e-06
38 *1073:B *1071:A2 5.33005e-05
39 *1073:B *1071:B1 9.41642e-05
40 *1073:B *1075:A 5.36422e-05
41 *1073:B *236:18 0.000356093
42 *1073:B *236:36 5.33005e-05
43 *1073:B *238:92 8.02118e-05
44 *1081:A1 *1052:A2 0.000225609
45 *1081:A1 *1081:A2 5.51706e-05
46 *1081:A1 *1081:B1 3.57366e-05
47 *1081:A1 *136:6 9.33978e-07
48 *1081:A1 *136:23 3.81416e-06
49 *1081:A1 *167:14 5.52302e-05
50 *71:10 *974:A 9.40051e-05
51 *71:10 *985:A 2.85321e-05
52 *71:10 *167:14 4.01647e-05
53 *71:10 *233:69 5.50052e-05
54 *71:10 *285:34 2.12647e-05
55 *71:10 *316:62 3.71754e-05
56 *71:12 *974:A 2.84398e-05
57 *71:64 *987:A 0.000137639
58 *71:64 *987:C 6.35757e-05
59 *71:64 *992:B 3.75868e-05
60 *71:64 *77:10 3.64012e-05
61 *71:64 *80:14 7.74068e-05
62 *71:64 *285:34 0.000601571
63 *71:68 *962:A 0
64 *71:68 *965:B 3.7596e-05
65 *71:68 *989:B1 8.91726e-05
66 *71:68 *991:B 0.000125724
67 *71:68 *77:10 5.78912e-05
68 *71:68 *235:99 0.000195856
69 *71:68 *271:109 3.57163e-05
70 *71:68 *276:14 0.000261201
71 *71:68 *277:12 0
72 *71:68 *295:16 0.00011082
73 *71:68 *316:62 0
74 *71:68 *332:54 0
75 *71:68 *332:103 0
76 *71:76 *147:6 1.58163e-05
77 *71:76 *154:8 3.46801e-05
78 *71:76 *295:16 7.74068e-05
79 *71:89 *1060:B 5.49995e-05
80 *71:89 *1062:B 1.92303e-05
81 *71:89 *1068:B1 1.23044e-05
82 *71:89 *1075:A 0.000169095
83 *71:89 *154:8 2.60673e-05
84 *71:123 *152:8 1.58163e-05
85 *981:C *1051:A 9.25014e-06
86 *1009:A1 *71:10 3.46801e-05
87 *3:13 *1073:B 2.71964e-05
88 *3:13 *71:68 0
89 *60:8 *71:10 0.00015018
90 *65:18 *1051:A 0.000112418
*RES
1 *985:X *71:4 9.3 
2 *71:4 *71:10 12.0893 
3 *71:10 *71:12 0.732143 
4 *71:12 *1051:A 17.8179 
5 *71:12 *1052:A1 13.8 
6 *71:10 *1081:A1 18.4964 
7 *71:4 *987:B 23.7643 
8 *71:4 *71:64 15.6071 
9 *71:64 *71:68 13.8214 
10 *71:68 *71:76 7.73214 
11 *71:76 *1060:A 9.72857 
12 *71:76 *71:89 8.10714 
13 *71:89 *1070:C 14.5321 
14 *71:89 *1073:B 28.4429 
15 *71:68 *71:123 5.03571 
16 *71:123 *1045:A1 18.3714 
17 *71:123 *1064:A 10.0321 
18 *71:64 *994:A2 14.7464 
*END

*D_NET *72 0.00202573
*CONN
*I *1014:B I *D sky130_fd_sc_hd__xnor2_1
*I *987:C I *D sky130_fd_sc_hd__and3_1
*I *986:Y O *D sky130_fd_sc_hd__xnor2_1
*CAP
1 *1014:B 0.000176018
2 *987:C 0.000185039
3 *986:Y 4.81763e-05
4 *72:8 0.000409234
5 *987:C *139:39 0.000232911
6 *987:C *270:28 0
7 *987:C *285:34 0.000158364
8 *987:C *316:62 9.41642e-05
9 *1014:B *1021:A 0
10 *1014:B *97:14 7.29646e-05
11 *1014:B *139:39 0.000310775
12 *1014:B *270:28 0
13 *984:B *72:8 6.05161e-06
14 *986:A *72:8 2.59355e-05
15 *69:12 *987:C 0.00024252
16 *71:64 *987:C 6.35757e-05
*RES
1 *986:Y *72:8 14.3357 
2 *72:8 *987:C 28.2464 
3 *72:8 *1014:B 17.8714 
*END

*D_NET *73 0.00161673
*CONN
*I *993:A2 I *D sky130_fd_sc_hd__o21ai_2
*I *1016:C I *D sky130_fd_sc_hd__or3_1
*I *987:X O *D sky130_fd_sc_hd__and3_1
*CAP
1 *993:A2 0.000104461
2 *1016:C 1.49719e-05
3 *987:X 0.000250654
4 *73:14 0.000370087
5 *993:A2 *993:B1 0.000217214
6 *993:A2 *235:16 3.24049e-05
7 *1016:C *993:B1 5.46383e-06
8 *73:14 *141:16 0.000120344
9 *73:14 *270:28 3.35781e-05
10 *73:14 *316:62 0.000227843
11 *993:A1 *993:A2 0.00017397
12 *993:A1 *73:14 1.24368e-05
13 *70:6 *73:14 5.33005e-05
*RES
1 *987:X *73:14 22.6571 
2 *73:14 *1016:C 9.72857 
3 *73:14 *993:A2 12.8536 
*END

*D_NET *74 0.00098221
*CONN
*I *989:C1 I *D sky130_fd_sc_hd__a211oi_1
*I *990:A2 I *D sky130_fd_sc_hd__o211a_1
*I *988:Y O *D sky130_fd_sc_hd__a21oi_1
*CAP
1 *989:C1 5.41313e-05
2 *990:A2 7.0999e-05
3 *988:Y 0.000111122
4 *74:8 0.000236252
5 *989:C1 *295:16 0.000123295
6 *990:A2 *961:D 1.15172e-05
7 *990:A2 *990:A1 6.05161e-06
8 *74:8 *271:86 7.55747e-05
9 *74:8 *295:16 0.000192771
10 *989:A1 *989:C1 5.64954e-05
11 *989:A1 *990:A2 1.97695e-05
12 *989:A1 *74:8 4.46186e-06
13 *989:A2 *74:8 0
14 *990:B1 *990:A2 1.97695e-05
*RES
1 *988:Y *74:8 16.3536 
2 *74:8 *990:A2 15.0679 
3 *74:8 *989:C1 15.4429 
*END

*D_NET *75 0.000864323
*CONN
*I *994:B1 I *D sky130_fd_sc_hd__a31o_1
*I *991:A I *D sky130_fd_sc_hd__nor2_1
*I *989:Y O *D sky130_fd_sc_hd__a211oi_1
*CAP
1 *994:B1 8.10181e-05
2 *991:A 0.000185336
3 *989:Y 0
4 *75:4 0.000266355
5 *991:A *989:B1 5.62425e-05
6 *991:A *77:10 7.61932e-05
7 *991:A *274:42 7.47337e-05
8 *994:B1 *295:16 0.000124445
*RES
1 *989:Y *75:4 9.3 
2 *75:4 *991:A 13.4607 
3 *75:4 *994:B1 19.9429 
*END

*D_NET *76 0.000472218
*CONN
*I *991:B I *D sky130_fd_sc_hd__nor2_1
*I *990:X O *D sky130_fd_sc_hd__o211a_1
*CAP
1 *991:B 0.000147366
2 *990:X 0.000147366
3 *991:B *962:A 0
4 *991:B *277:27 5.17614e-05
5 *71:68 *991:B 0.000125724
*RES
1 *990:X *991:B 30.1893 
*END

*D_NET *77 0.00175358
*CONN
*I *992:B I *D sky130_fd_sc_hd__xnor2_1
*I *994:A3 I *D sky130_fd_sc_hd__a31o_1
*I *991:Y O *D sky130_fd_sc_hd__nor2_1
*CAP
1 *992:B 0.000142985
2 *994:A3 6.14869e-05
3 *991:Y 0.000212351
4 *77:10 0.000416823
5 *992:B *78:12 5.50052e-05
6 *992:B *270:18 0.00022367
7 *992:B *295:10 6.321e-05
8 *992:B *316:62 0.000133564
9 *77:10 *295:10 2.02112e-05
10 *77:10 *295:16 0.000161196
11 *991:A *77:10 7.61932e-05
12 *994:A2 *994:A3 5.50052e-05
13 *71:64 *992:B 3.75868e-05
14 *71:64 *77:10 3.64012e-05
15 *71:68 *77:10 5.78912e-05
*RES
1 *991:Y *77:10 17.7107 
2 *77:10 *994:A3 15.0679 
3 *77:10 *992:B 17.925 
*END

*D_NET *78 0.00135336
*CONN
*I *993:B1 I *D sky130_fd_sc_hd__o21ai_2
*I *1016:A I *D sky130_fd_sc_hd__or3_1
*I *992:Y O *D sky130_fd_sc_hd__xnor2_1
*CAP
1 *993:B1 0.000143656
2 *1016:A 0
3 *992:Y 0.000125628
4 *78:12 0.000269283
5 *993:B1 *1017:B 0.0001871
6 *993:B1 *79:6 5.66971e-05
7 *993:B1 *235:16 3.14161e-05
8 *78:12 *235:16 4.25489e-05
9 *78:12 *295:10 0.000166052
10 *78:12 *316:62 5.33005e-05
11 *992:B *78:12 5.50052e-05
12 *993:A2 *993:B1 0.000217214
13 *1016:C *993:B1 5.46383e-06
*RES
1 *992:Y *78:12 21.0857 
2 *78:12 *1016:A 9.3 
3 *78:12 *993:B1 13.55 
*END

*D_NET *79 0.0020707
*CONN
*I *1000:A1 I *D sky130_fd_sc_hd__o21a_1
*I *1109:A I *D sky130_fd_sc_hd__nand2_1
*I *1108:A I *D sky130_fd_sc_hd__or2_1
*I *1017:A I *D sky130_fd_sc_hd__and2_1
*I *993:Y O *D sky130_fd_sc_hd__o21ai_2
*CAP
1 *1000:A1 4.0932e-05
2 *1109:A 2.24438e-05
3 *1108:A 0
4 *1017:A 3.17002e-05
5 *993:Y 6.34923e-05
6 *79:25 0.000211942
7 *79:10 0.000359047
8 *79:6 0.000242273
9 *1000:A1 *235:16 3.24049e-05
10 *1017:A *1105:A 4.18895e-05
11 *1017:A *141:16 0.000144773
12 *1017:A *327:36 0.000102197
13 *1109:A *1108:B 5.71472e-05
14 *1109:A *1112:A2 4.59075e-05
15 *1109:A *315:36 0.000130419
16 *79:6 *235:16 6.9741e-05
17 *79:10 *1017:B 0
18 *79:10 *164:8 0
19 *79:25 *1112:A2 2.89016e-05
20 *79:25 *1112:B1 6.05161e-06
21 *79:25 *141:24 0.000197991
22 *79:25 *164:23 0
23 *79:25 *315:36 0.000184745
24 *993:B1 *79:6 5.66971e-05
*RES
1 *993:Y *79:6 11.0679 
2 *79:6 *79:10 6.75 
3 *79:10 *1017:A 15.5679 
4 *79:10 *79:25 9.125 
5 *79:25 *1108:A 9.3 
6 *79:25 *1109:A 10.6571 
7 *79:6 *1000:A1 10.2464 
*END

*D_NET *80 0.00205869
*CONN
*I *998:A I *D sky130_fd_sc_hd__or2_1
*I *997:A I *D sky130_fd_sc_hd__nand2_1
*I *994:X O *D sky130_fd_sc_hd__a31o_1
*CAP
1 *998:A 0
2 *997:A 0.000138567
3 *994:X 0.000470173
4 *80:14 0.000608741
5 *997:A *997:B 6.01916e-05
6 *997:A *285:34 7.12015e-05
7 *80:14 *285:34 0.000632408
8 *71:64 *80:14 7.74068e-05
*RES
1 *994:X *80:14 25.6393 
2 *80:14 *997:A 20.2107 
3 *80:14 *998:A 9.3 
*END

*D_NET *81 0.000608026
*CONN
*I *996:B I *D sky130_fd_sc_hd__xor2_1
*I *995:X O *D sky130_fd_sc_hd__a21bo_1
*CAP
1 *996:B 0.000213767
2 *995:X 0.000213767
3 *996:B *241:138 3.04037e-05
4 *996:B *316:62 0.000146398
5 *57:142 *996:B 3.69047e-06
*RES
1 *995:X *996:B 30.9036 
*END

*D_NET *82 0.000835026
*CONN
*I *997:B I *D sky130_fd_sc_hd__nand2_1
*I *998:B I *D sky130_fd_sc_hd__or2_1
*I *996:X O *D sky130_fd_sc_hd__xor2_1
*CAP
1 *997:B 7.5365e-05
2 *998:B 1.53311e-05
3 *996:X 1.42517e-05
4 *82:6 0.000104948
5 *997:B *270:16 0.000314114
6 *997:B *285:34 0.000157072
7 *998:B *285:34 1.02301e-05
8 *82:6 *270:16 5.49995e-05
9 *82:6 *285:34 2.85234e-05
10 *997:A *997:B 6.01916e-05
*RES
1 *996:X *82:6 9.83571 
2 *82:6 *998:B 9.72857 
3 *82:6 *997:B 12.7286 
*END

*D_NET *83 0.000765961
*CONN
*I *1000:B1 I *D sky130_fd_sc_hd__o21a_1
*I *999:A I *D sky130_fd_sc_hd__nand2_1
*I *997:Y O *D sky130_fd_sc_hd__nand2_1
*CAP
1 *1000:B1 0.000153952
2 *999:A 0
3 *997:Y 6.31962e-05
4 *83:10 0.000217148
5 *1000:B1 *1000:A2 3.24049e-05
6 *1000:B1 *1001:B 6.82912e-05
7 *83:10 *999:B 4.36989e-05
8 *83:10 *1001:B 0.000124012
9 *83:10 *85:17 5.51716e-05
10 *83:10 *316:22 8.08608e-06
*RES
1 *997:Y *83:10 20.2464 
2 *83:10 *999:A 9.3 
3 *83:10 *1000:B1 12.3357 
*END

*D_NET *84 0.000285922
*CONN
*I *999:B I *D sky130_fd_sc_hd__nand2_1
*I *998:X O *D sky130_fd_sc_hd__or2_1
*CAP
1 *999:B 9.35256e-05
2 *998:X 9.35256e-05
3 *999:B *85:17 5.51716e-05
4 *83:10 *999:B 4.36989e-05
*RES
1 *998:X *999:B 29.5464 
*END

*D_NET *85 0.00160097
*CONN
*I *1108:B I *D sky130_fd_sc_hd__or2_1
*I *1109:B I *D sky130_fd_sc_hd__nand2_1
*I *1000:A2 I *D sky130_fd_sc_hd__o21a_1
*I *999:Y O *D sky130_fd_sc_hd__nand2_1
*CAP
1 *1108:B 6.83061e-05
2 *1109:B 0
3 *1000:A2 7.13796e-05
4 *999:Y 0
5 *85:17 0.000390072
6 *85:4 0.000393146
7 *1000:A2 *1001:B 9.58632e-05
8 *1000:A2 *235:16 0.000268842
9 *1108:B *1112:A2 5.71472e-05
10 *1108:B *269:90 1.04232e-05
11 *1108:B *315:36 4.58976e-05
12 *85:17 *164:8 0
13 *85:17 *164:23 0
14 *85:17 *316:22 0
15 *999:B *85:17 5.51716e-05
16 *1000:B1 *1000:A2 3.24049e-05
17 *1109:A *1108:B 5.71472e-05
18 *83:10 *85:17 5.51716e-05
*RES
1 *999:Y *85:4 9.3 
2 *85:4 *1000:A2 11.8893 
3 *85:4 *85:17 14.5893 
4 *85:17 *1109:B 9.3 
5 *85:17 *1108:B 11.0857 
*END

*D_NET *86 0.00238485
*CONN
*I *1001:B I *D sky130_fd_sc_hd__xnor2_1
*I *1000:X O *D sky130_fd_sc_hd__o21a_1
*CAP
1 *1001:B 0.000671084
2 *1000:X 0.000671084
3 *1001:B *958:A 0.000139287
4 *1001:B *1002:B 1.43612e-05
5 *1001:B *1003:C1 1.59373e-05
6 *1001:B *235:16 4.11486e-05
7 *1001:B *270:6 7.46133e-05
8 *1001:B *316:22 0.000279164
9 *1000:A2 *1001:B 9.58632e-05
10 *1000:B1 *1001:B 6.82912e-05
11 *1002:A *1001:B 0.000125096
12 *56:12 *1001:B 6.49087e-05
13 *83:10 *1001:B 0.000124012
*RES
1 *1000:X *1001:B 41.1179 
*END

*D_NET *87 0.00063872
*CONN
*I *1003:B1 I *D sky130_fd_sc_hd__o211a_1
*I *1001:Y O *D sky130_fd_sc_hd__xnor2_1
*CAP
1 *1003:B1 0.000124951
2 *1001:Y 0.000124951
3 *1003:B1 *1003:A1 1.59373e-05
4 *1003:B1 *1129:B2 4.79773e-05
5 *1003:B1 *1159:CLK 9.96487e-05
6 *1003:B1 *90:24 2.51343e-06
7 *1003:B1 *285:34 0.000181662
8 *1003:A2 *1003:B1 4.10796e-05
*RES
1 *1001:Y *1003:B1 31.1357 
*END

*D_NET *88 0.000599481
*CONN
*I *1003:C1 I *D sky130_fd_sc_hd__o211a_1
*I *1002:Y O *D sky130_fd_sc_hd__nand3_1
*CAP
1 *1003:C1 0.000181759
2 *1002:Y 0.000181759
3 *1003:C1 *190:30 0.000124157
4 *1003:C1 *270:6 9.58689e-05
5 *1001:B *1003:C1 1.59373e-05
*RES
1 *1002:Y *1003:C1 30.6 
*END

*D_NET *89 0.000127763
*CONN
*I *1004:A I *D sky130_fd_sc_hd__inv_2
*I *1003:X O *D sky130_fd_sc_hd__o211a_1
*CAP
1 *1004:A 3.86735e-05
2 *1003:X 3.86735e-05
3 *1004:A *1003:A1 3.41517e-06
4 *1004:A *90:24 1.84776e-05
5 *1004:A *285:34 2.85234e-05
*RES
1 *1003:X *1004:A 19.5643 
*END

*D_NET *90 0.00486929
*CONN
*I *1124:A1 I *D sky130_fd_sc_hd__o211ai_2
*I *1114:A I *D sky130_fd_sc_hd__nand2_2
*I *1126:C1 I *D sky130_fd_sc_hd__o311ai_4
*I *1004:Y O *D sky130_fd_sc_hd__inv_2
*CAP
1 *1124:A1 0
2 *1114:A 4.5575e-05
3 *1126:C1 0.000149825
4 *1004:Y 0.000597587
5 *90:34 0.000459697
6 *90:24 0.000861883
7 *1114:A *1126:A3 0.000166983
8 *1114:A *1126:B1 1.31516e-05
9 *1114:A *200:10 0.000153047
10 *1126:C1 *1113:C 0
11 *1126:C1 *200:75 5.52238e-05
12 *1126:C1 *212:10 0.000116049
13 *90:24 *1106:A 3.23506e-05
14 *90:24 *1129:B2 4.58402e-05
15 *90:24 *1131:A 0.000267731
16 *90:24 *1132:B1 0.000247057
17 *90:24 *1136:A2 4.27935e-05
18 *90:24 *1159:CLK 9.96487e-05
19 *90:24 *190:30 6.89449e-05
20 *90:24 *192:18 0.000440861
21 *90:24 *210:10 7.08862e-05
22 *90:24 *210:16 0
23 *90:24 *220:30 0.000181662
24 *90:24 *235:16 0.000186817
25 *90:24 *235:70 9.58126e-05
26 *90:24 *285:34 5.64704e-06
27 *90:34 *1126:A3 1.02504e-05
28 *90:34 *1136:B2 0.000162572
29 *90:34 *200:10 4.46689e-05
30 *90:34 *200:16 0
31 *90:34 *210:16 1.52978e-05
32 *90:34 *212:10 0.000174805
33 *90:34 *212:16 3.5628e-05
34 *1003:B1 *90:24 2.51343e-06
35 *1004:A *90:24 1.84776e-05
*RES
1 *1004:Y *90:24 42.7107 
2 *90:24 *90:34 10.0893 
3 *90:34 *1126:C1 17.2464 
4 *90:34 *1114:A 16.05 
5 *90:24 *1124:A1 9.3 
*END

*D_NET *91 0.0025708
*CONN
*I *1023:B1 I *D sky130_fd_sc_hd__a21o_1
*I *1008:A1 I *D sky130_fd_sc_hd__a21bo_1
*I *1022:B I *D sky130_fd_sc_hd__nand3_1
*I *1005:X O *D sky130_fd_sc_hd__and2_1
*CAP
1 *1023:B1 0.000152351
2 *1008:A1 4.19797e-05
3 *1022:B 0.000352689
4 *1005:X 0
5 *91:29 0.000533924
6 *91:4 0.000692282
7 *1008:A1 *1022:A 0
8 *1008:A1 *1022:C 5.06354e-05
9 *1008:A1 *1023:A1 5.8393e-05
10 *1008:A1 *1023:A2 6.01807e-05
11 *1008:A1 *92:14 1.51018e-05
12 *1022:B *1005:A 1.15615e-06
13 *1022:B *1022:C 4.41185e-05
14 *1022:B *282:30 4.88847e-05
15 *1022:B *330:10 7.55152e-05
16 *1023:B1 *94:8 0.00010096
17 *1023:B1 *215:16 5.62995e-05
18 *91:29 *1006:B1 4.16984e-05
19 *91:29 *1006:B2 2.59355e-05
20 *91:29 *92:12 0.000179233
21 *91:29 *269:36 2.26424e-05
22 *91:29 *327:36 5.30637e-06
23 *1006:A1 *91:29 1.15172e-05
*RES
1 *1005:X *91:4 9.3 
2 *91:4 *1022:B 23.8 
3 *91:4 *91:29 10.1786 
4 *91:29 *1008:A1 15.175 
5 *91:29 *1023:B1 16.1036 
*END

*D_NET *92 0.00183628
*CONN
*I *1023:A2 I *D sky130_fd_sc_hd__a21o_1
*I *1008:A2 I *D sky130_fd_sc_hd__a21bo_1
*I *1022:C I *D sky130_fd_sc_hd__nand3_1
*I *1006:X O *D sky130_fd_sc_hd__a22o_1
*CAP
1 *1023:A2 5.35689e-05
2 *1008:A2 0
3 *1022:C 0.000196817
4 *1006:X 0.000147854
5 *92:14 0.000199817
6 *92:12 0.000204423
7 *1022:C *1022:A 2.43823e-05
8 *1022:C *1023:A1 5.72899e-05
9 *1022:C *215:16 0.000290832
10 *1023:A2 *1023:A1 1.02936e-05
11 *1023:A2 *94:8 5.71472e-05
12 *1023:A2 *215:16 9.34943e-05
13 *92:12 *269:36 0.000123288
14 *92:12 *327:36 2.65105e-05
15 *92:14 *215:16 1.29677e-06
16 *1008:A1 *1022:C 5.06354e-05
17 *1008:A1 *1023:A2 6.01807e-05
18 *1008:A1 *92:14 1.51018e-05
19 *1022:B *1022:C 4.41185e-05
20 *91:29 *92:12 0.000179233
*RES
1 *1006:X *92:12 21.3 
2 *92:12 *92:14 0.151786 
3 *92:14 *1022:C 14.3804 
4 *92:14 *1008:A2 9.3 
5 *92:12 *1023:A2 11.2107 
*END

*D_NET *93 0.00185911
*CONN
*I *1023:A1 I *D sky130_fd_sc_hd__a21o_1
*I *1022:A I *D sky130_fd_sc_hd__nand3_1
*I *1008:B1_N I *D sky130_fd_sc_hd__a21bo_1
*I *1007:Y O *D sky130_fd_sc_hd__nand4_1
*CAP
1 *1023:A1 0.000254981
2 *1022:A 3.28958e-05
3 *1008:B1_N 0
4 *1007:Y 0.000183965
5 *93:21 0.000320962
6 *93:10 0.000217051
7 *1022:A *108:14 2.97806e-05
8 *1023:A1 *94:8 0.00010096
9 *1023:A1 *108:14 5.52302e-05
10 *93:10 *1006:B1 0.000104974
11 *93:10 *1006:B2 1.41029e-05
12 *93:10 *1130:B2 0.000270229
13 *93:10 *113:16 5.71389e-05
14 *93:10 *330:10 2.30245e-05
15 *93:21 *113:16 2.84398e-05
16 *93:21 *330:10 1.50179e-05
17 *1008:A1 *1022:A 0
18 *1008:A1 *1023:A1 5.8393e-05
19 *1022:C *1022:A 2.43823e-05
20 *1022:C *1023:A1 5.72899e-05
21 *1023:A2 *1023:A1 1.02936e-05
*RES
1 *1007:Y *93:10 18.4071 
2 *93:10 *1008:B1_N 13.8 
3 *93:10 *93:21 5.23214 
4 *93:21 *1022:A 10.425 
5 *93:21 *1023:A1 13.675 
*END

*D_NET *94 0.00216659
*CONN
*I *1012:B1 I *D sky130_fd_sc_hd__a21o_1
*I *1011:B I *D sky130_fd_sc_hd__and3_1
*I *1010:B I *D sky130_fd_sc_hd__nand3_1
*I *1008:X O *D sky130_fd_sc_hd__a21bo_1
*CAP
1 *1012:B1 0
2 *1011:B 0
3 *1010:B 0.000111836
4 *1008:X 0.000182378
5 *94:16 0.000359252
6 *94:8 0.000429795
7 *1010:B *1011:C 2.14658e-05
8 *1010:B *97:14 9.71197e-05
9 *94:8 *98:6 5.03772e-05
10 *94:8 *109:10 0.0001399
11 *94:8 *215:16 9.21519e-05
12 *94:16 *1012:A2 0.000148196
13 *94:16 *167:14 7.73758e-05
14 *94:16 *327:36 2.44239e-05
15 *1010:A *1010:B 0.00014183
16 *1010:A *94:16 3.14193e-05
17 *1023:A1 *94:8 0.00010096
18 *1023:A2 *94:8 5.71472e-05
19 *1023:B1 *94:8 0.00010096
*RES
1 *1008:X *94:8 14.3714 
2 *94:8 *94:16 13.125 
3 *94:16 *1010:B 12.2286 
4 *94:16 *1011:B 9.3 
5 *94:8 *1012:B1 9.3 
*END

*D_NET *95 0.00264856
*CONN
*I *1010:C I *D sky130_fd_sc_hd__nand3_1
*I *1011:C I *D sky130_fd_sc_hd__and3_1
*I *1012:A2 I *D sky130_fd_sc_hd__a21o_1
*I *1009:X O *D sky130_fd_sc_hd__a22o_1
*CAP
1 *1010:C 1.43826e-05
2 *1011:C 5.31774e-05
3 *1012:A2 0.000232508
4 *1009:X 0
5 *95:27 0.000385711
6 *95:4 0.000550659
7 *1010:C *97:14 1.83136e-05
8 *1010:C *327:36 4.25176e-05
9 *1011:C *97:14 1.21258e-05
10 *1011:C *327:36 0.000208453
11 *1012:A2 *1021:B 0.000335922
12 *1012:A2 *98:6 9.41642e-05
13 *1012:A2 *167:14 7.08001e-05
14 *95:27 *1021:A 9.91086e-05
15 *978:A *1012:A2 9.75679e-05
16 *978:A *95:27 8.52379e-05
17 *978:B *95:27 7.4057e-06
18 *1010:A *1011:C 0.000126591
19 *1010:B *1011:C 2.14658e-05
20 *1012:A1 *1012:A2 2.59355e-05
21 *64:6 *95:27 1.83136e-05
22 *94:16 *1012:A2 0.000148196
*RES
1 *1009:X *95:4 9.3 
2 *95:4 *1012:A2 24.5679 
3 *95:4 *95:27 13.3393 
4 *95:27 *1011:C 11.3357 
5 *95:27 *1010:C 9.83571 
*END

*D_NET *96 0.00151961
*CONN
*I *1015:A1 I *D sky130_fd_sc_hd__a21boi_2
*I *1031:A1 I *D sky130_fd_sc_hd__a21bo_1
*I *1010:Y O *D sky130_fd_sc_hd__nand3_1
*CAP
1 *1015:A1 8.47183e-05
2 *1031:A1 2.63024e-05
3 *1010:Y 0.000119564
4 *96:10 0.000230585
5 *1015:A1 *1019:C_N 5.49544e-05
6 *1015:A1 *1138:A 0.000132844
7 *1015:A1 *220:30 0.000240643
8 *1031:A1 *1138:A 5.03772e-05
9 *1031:A1 *220:30 9.71197e-05
10 *96:10 *1021:A 0.000312574
11 *96:10 *293:16 0.000169927
*RES
1 *1010:Y *96:10 22.3714 
2 *96:10 *1031:A1 10.2464 
3 *96:10 *1015:A1 12.8536 
*END

*D_NET *97 0.0028498
*CONN
*I *1019:B I *D sky130_fd_sc_hd__or3b_1
*I *1013:B I *D sky130_fd_sc_hd__or3b_2
*I *1011:X O *D sky130_fd_sc_hd__and3_1
*CAP
1 *1019:B 0.00045793
2 *1013:B 0.000101903
3 *1011:X 0.000275893
4 *97:14 0.000835726
5 *1013:B *215:16 0.000140714
6 *1019:B *100:12 9.67846e-05
7 *1019:B *139:39 0
8 *1019:B *215:16 0.000392848
9 *1019:B *270:28 7.7591e-05
10 *1019:B *295:10 0
11 *1019:B *315:36 0.000216448
12 *97:14 *1021:A 0
13 *97:14 *139:39 1.24368e-05
14 *97:14 *327:36 4.10026e-05
15 *1010:B *97:14 9.71197e-05
16 *1010:C *97:14 1.83136e-05
17 *1011:C *97:14 1.21258e-05
18 *1014:B *97:14 7.29646e-05
*RES
1 *1011:X *97:14 23.175 
2 *97:14 *1013:B 10.6571 
3 *97:14 *1019:B 26.1929 
*END

*D_NET *98 0.00119317
*CONN
*I *1013:C_N I *D sky130_fd_sc_hd__or3b_2
*I *1031:A2 I *D sky130_fd_sc_hd__a21bo_1
*I *1012:X O *D sky130_fd_sc_hd__a21o_1
*CAP
1 *1013:C_N 2.58391e-05
2 *1031:A2 8.19991e-05
3 *1012:X 0.000105487
4 *98:6 0.000213326
5 *1013:C_N *215:16 4.18895e-05
6 *1031:A2 *1021:B 3.59033e-05
7 *1031:A2 *293:16 0.000197624
8 *98:6 *215:16 0.000306317
9 *1012:A1 *1031:A2 4.02462e-05
10 *1012:A2 *98:6 9.41642e-05
11 *94:8 *98:6 5.03772e-05
*RES
1 *1012:X *98:6 12.3 
2 *98:6 *1031:A2 20.8536 
3 *98:6 *1013:C_N 9.83571 
*END

*D_NET *99 0.00320808
*CONN
*I *1032:A I *D sky130_fd_sc_hd__and3_2
*I *1087:A1 I *D sky130_fd_sc_hd__a21oi_1
*I *1019:C_N I *D sky130_fd_sc_hd__or3b_1
*I *1015:A2 I *D sky130_fd_sc_hd__a21boi_2
*I *1013:X O *D sky130_fd_sc_hd__or3b_2
*CAP
1 *1032:A 8.57417e-05
2 *1087:A1 0
3 *1019:C_N 0.000188066
4 *1015:A2 0
5 *1013:X 0.000328204
6 *99:34 0.00039394
7 *99:12 0.000188066
8 *99:10 0.000636403
9 *1019:C_N *1015:B1_N 5.20669e-05
10 *1019:C_N *1019:A 2.59355e-05
11 *1019:C_N *1020:B_N 2.41649e-05
12 *1019:C_N *1138:A 9.60939e-05
13 *1019:C_N *101:17 0.000438739
14 *1019:C_N *101:19 0
15 *1019:C_N *220:30 0.000107279
16 *1019:C_N *269:90 5.03772e-05
17 *1032:A *1087:A2 5.49544e-05
18 *1032:A *1087:B1 5.65955e-05
19 *1032:A *118:27 9.76435e-06
20 *99:10 *1013:A 2.84026e-05
21 *99:10 *1021:A 0
22 *99:10 *1031:B1_N 1.74081e-05
23 *99:10 *139:39 3.15993e-05
24 *99:10 *215:16 1.76164e-05
25 *99:10 *270:30 7.57394e-05
26 *99:34 *1020:B_N 3.5539e-05
27 *99:34 *1021:A 0
28 *99:34 *1087:A2 2.71489e-05
29 *99:34 *118:27 9.35114e-06
30 *99:34 *139:39 7.6997e-05
31 *99:34 *200:75 9.69349e-05
32 *99:34 *293:16 0
33 *1015:A1 *1019:C_N 5.49544e-05
*RES
1 *1013:X *99:10 18.3357 
2 *99:10 *99:12 4.5 
3 *99:12 *1015:A2 9.3 
4 *99:12 *1019:C_N 15.6036 
5 *99:10 *99:34 10.0536 
6 *99:34 *1087:A1 9.3 
7 *99:34 *1032:A 11.0857 
*END

*D_NET *100 0.000773288
*CONN
*I *1019:A I *D sky130_fd_sc_hd__or3b_1
*I *1015:B1_N I *D sky130_fd_sc_hd__a21boi_2
*I *1014:Y O *D sky130_fd_sc_hd__xnor2_1
*CAP
1 *1019:A 4.22502e-05
2 *1015:B1_N 2.22511e-05
3 *1014:Y 0.00013938
4 *100:12 0.000203881
5 *1015:B1_N *220:30 9.78079e-05
6 *1019:A *220:30 4.08637e-05
7 *100:12 *139:39 0
8 *100:12 *270:28 5.20669e-05
9 *1019:B *100:12 9.67846e-05
10 *1019:C_N *1015:B1_N 5.20669e-05
11 *1019:C_N *1019:A 2.59355e-05
*RES
1 *1014:Y *100:12 20.5857 
2 *100:12 *1015:B1_N 10.2464 
3 *100:12 *1019:A 10.2643 
*END

*D_NET *101 0.00294258
*CONN
*I *1111:A1 I *D sky130_fd_sc_hd__o211a_1
*I *1018:A I *D sky130_fd_sc_hd__xor2_1
*I *1110:A1 I *D sky130_fd_sc_hd__o21a_1
*I *1020:A I *D sky130_fd_sc_hd__or2b_1
*I *1015:Y O *D sky130_fd_sc_hd__a21boi_2
*CAP
1 *1111:A1 0.000174413
2 *1018:A 0
3 *1110:A1 8.16719e-05
4 *1020:A 4.1066e-05
5 *1015:Y 0
6 *101:19 0.000113831
7 *101:17 0.000523161
8 *101:4 0.000357656
9 *1020:A *1020:B_N 7.83659e-05
10 *1020:A *139:39 9.9129e-05
11 *1020:A *200:75 1.18064e-05
12 *1110:A1 *1110:A2 0.00019484
13 *1110:A1 *103:8 1.76039e-05
14 *1110:A1 *103:19 8.59056e-05
15 *1111:A1 *1094:B1 5.41794e-05
16 *1111:A1 *1095:A 0.000125724
17 *1111:A1 *1110:A2 0.000101545
18 *1111:A1 *1111:A2 1.04232e-05
19 *1111:A1 *141:24 7.80714e-06
20 *1111:A1 *200:75 5.33005e-05
21 *1111:A1 *269:90 2.77258e-05
22 *101:17 *1018:B 5.52302e-05
23 *101:17 *1020:B_N 0.000182598
24 *101:17 *269:90 9.21604e-05
25 *101:19 *1095:A 1.3701e-05
26 *101:19 *1112:C1 0
27 *1019:C_N *101:17 0.000438739
28 *1019:C_N *101:19 0
*RES
1 *1015:Y *101:4 9.3 
2 *101:4 *1020:A 19.6393 
3 *101:4 *101:17 7.10714 
4 *101:17 *101:19 0.732143 
5 *101:19 *1110:A1 20.8536 
6 *101:19 *1018:A 9.3 
7 *101:17 *1111:A1 22.1571 
*END

*D_NET *102 0.000625524
*CONN
*I *1017:B I *D sky130_fd_sc_hd__and2_1
*I *1016:X O *D sky130_fd_sc_hd__or3_1
*CAP
1 *1017:B 0.000219212
2 *1016:X 0.000219212
3 *1017:B *295:10 0
4 *993:B1 *1017:B 0.0001871
5 *79:10 *1017:B 0
*RES
1 *1016:X *1017:B 31.0107 
*END

*D_NET *103 0.00168339
*CONN
*I *1111:A2 I *D sky130_fd_sc_hd__o211a_1
*I *1018:B I *D sky130_fd_sc_hd__xor2_1
*I *1110:B1 I *D sky130_fd_sc_hd__o21a_1
*I *1017:X O *D sky130_fd_sc_hd__and2_1
*CAP
1 *1111:A2 0.000207684
2 *1018:B 1.40355e-05
3 *1110:B1 4.57225e-05
4 *1017:X 0.000110433
5 *103:19 0.000347271
6 *103:8 0.000281706
7 *1018:B *269:90 2.89114e-05
8 *1110:B1 *215:16 0.000126639
9 *1110:B1 *315:36 0.00022459
10 *1111:A2 *1094:B1 2.18827e-05
11 *1111:A2 *1110:A2 4.03318e-05
12 *1111:A2 *1111:B1 1.02504e-05
13 *1111:A2 *1111:C1 1.02504e-05
14 *1111:A2 *200:75 3.67257e-05
15 *1111:A2 *295:10 0
16 *103:8 *141:24 0
17 *103:8 *295:10 0
18 *103:19 *1110:A2 7.79781e-06
19 *103:19 *295:10 0
20 *1110:A1 *103:8 1.76039e-05
21 *1110:A1 *103:19 8.59056e-05
22 *1111:A1 *1111:A2 1.04232e-05
23 *101:17 *1018:B 5.52302e-05
*RES
1 *1017:X *103:8 15.7464 
2 *103:8 *1110:B1 15.9786 
3 *103:8 *103:19 2.55357 
4 *103:19 *1018:B 14.3357 
5 *103:19 *1111:A2 18.1571 
*END

*D_NET *104 0.000905324
*CONN
*I *1095:A I *D sky130_fd_sc_hd__xnor2_2
*I *1018:X O *D sky130_fd_sc_hd__xor2_1
*CAP
1 *1095:A 0.000198744
2 *1018:X 0.000198744
3 *1095:A *1094:B1 1.31516e-05
4 *1095:A *1112:C1 0.000143155
5 *1095:A *141:24 5.81363e-05
6 *1095:A *200:75 0.000122101
7 *1095:A *269:90 3.18676e-05
8 *1111:A1 *1095:A 0.000125724
9 *101:19 *1095:A 1.3701e-05
*RES
1 *1018:X *1095:A 32.9929 
*END

*D_NET *105 0.000888336
*CONN
*I *1020:B_N I *D sky130_fd_sc_hd__or2b_1
*I *1019:X O *D sky130_fd_sc_hd__or3b_1
*CAP
1 *1020:B_N 0.000225902
2 *1019:X 0.000225902
3 *1020:B_N *139:39 3.57844e-05
4 *1020:B_N *200:75 8.00806e-05
5 *1019:C_N *1020:B_N 2.41649e-05
6 *1020:A *1020:B_N 7.83659e-05
7 *99:34 *1020:B_N 3.5539e-05
8 *101:17 *1020:B_N 0.000182598
*RES
1 *1019:X *1020:B_N 31.725 
*END

*D_NET *106 0.00039597
*CONN
*I *1093:A_N I *D sky130_fd_sc_hd__and2b_1
*I *1033:A I *D sky130_fd_sc_hd__xnor2_2
*I *1020:X O *D sky130_fd_sc_hd__or2b_1
*CAP
1 *1093:A_N 0
2 *1033:A 0.000107859
3 *1020:X 5.11997e-05
4 *106:8 0.000159059
5 *1033:A *1093:B 4.69852e-05
6 *1033:A *139:39 0
7 *106:8 *315:36 3.08664e-05
*RES
1 *1020:X *106:8 10.2643 
2 *106:8 *1033:A 20.2464 
3 *106:8 *1093:A_N 9.3 
*END

*D_NET *107 0.00216276
*CONN
*I *1079:B I *D sky130_fd_sc_hd__or3_1
*I *1082:B1 I *D sky130_fd_sc_hd__o21ai_1
*I *1030:A1 I *D sky130_fd_sc_hd__o21bai_1
*I *1021:Y O *D sky130_fd_sc_hd__nand2_1
*CAP
1 *1079:B 0
2 *1082:B1 0
3 *1030:A1 3.06346e-05
4 *1021:Y 0.000329291
5 *107:16 0.000333884
6 *107:12 0.000632541
7 *1030:A1 *1030:A2 3.99614e-06
8 *1030:A1 *114:16 6.09963e-05
9 *107:12 *1021:B 0.000151847
10 *107:12 *1029:B 1.33343e-05
11 *107:12 *1029:C 6.7833e-05
12 *107:12 *115:12 6.19181e-05
13 *107:12 *117:12 0
14 *107:12 *165:16 4.27842e-06
15 *107:12 *167:14 0.000101456
16 *107:12 *293:16 0
17 *107:12 *315:36 7.69324e-05
18 *107:16 *114:16 2.24763e-05
19 *107:16 *116:6 0.000271345
*RES
1 *1021:Y *107:12 24.7643 
2 *107:12 *107:16 4.55357 
3 *107:16 *1030:A1 10.2643 
4 *107:16 *1082:B1 9.3 
5 *107:12 *1079:B 9.3 
*END

*D_NET *108 0.00255962
*CONN
*I *1029:A I *D sky130_fd_sc_hd__and3_1
*I *1028:A1 I *D sky130_fd_sc_hd__a21oi_1
*I *1022:Y O *D sky130_fd_sc_hd__nand3_1
*CAP
1 *1029:A 0.000110932
2 *1028:A1 9.1338e-05
3 *1022:Y 0.000283046
4 *108:14 0.000485316
5 *1028:A1 *1029:B 7.17932e-05
6 *1028:A1 *1137:A2 2.16719e-05
7 *1028:A1 *114:12 0.00012401
8 *1028:A1 *167:14 0
9 *1029:A *1029:B 0.000432237
10 *1029:A *1181:A 0.000232399
11 *1029:A *315:36 2.83919e-05
12 *1029:A *315:38 9.02232e-05
13 *108:14 *1029:B 0.000184708
14 *108:14 *1139:A1 0.000105582
15 *108:14 *1160:RESET_B 2.81497e-05
16 *108:14 *113:16 0.000100831
17 *108:14 *232:66 2.84494e-05
18 *108:14 *315:38 2.14658e-05
19 *108:14 *315:56 3.40725e-05
20 *1022:A *108:14 2.97806e-05
21 *1023:A1 *108:14 5.52302e-05
*RES
1 *1022:Y *108:14 25.0857 
2 *108:14 *1028:A1 20.8536 
3 *108:14 *1029:A 14.2643 
*END

*D_NET *109 0.00215281
*CONN
*I *1029:C I *D sky130_fd_sc_hd__and3_1
*I *1028:A2 I *D sky130_fd_sc_hd__a21oi_1
*I *1023:X O *D sky130_fd_sc_hd__a21o_1
*CAP
1 *1029:C 0.000139816
2 *1028:A2 7.54024e-05
3 *1023:X 0.000183534
4 *109:10 0.000398752
5 *1028:A2 *1137:A2 5.71472e-05
6 *1028:A2 *1138:A 0.000212373
7 *1028:A2 *220:30 0.00044659
8 *1029:C *1021:B 0
9 *1029:C *1029:B 1.39841e-05
10 *1029:C *167:14 0.000235663
11 *1029:C *315:36 6.04072e-05
12 *109:10 *1021:B 0
13 *109:10 *167:14 0.000121411
14 *94:8 *109:10 0.0001399
15 *107:12 *1029:C 6.7833e-05
*RES
1 *1023:X *109:10 16.8 
2 *109:10 *1028:A2 18.0321 
3 *109:10 *1029:C 17.5679 
*END

*D_NET *110 0.0020666
*CONN
*I *1027:A1 I *D sky130_fd_sc_hd__a21bo_1
*I *1048:B1 I *D sky130_fd_sc_hd__a21o_1
*I *1046:B I *D sky130_fd_sc_hd__nand3_1
*I *1024:X O *D sky130_fd_sc_hd__and2_1
*CAP
1 *1027:A1 5.16198e-05
2 *1048:B1 0.000149326
3 *1046:B 0.000174206
4 *1024:X 0
5 *110:23 0.000335678
6 *110:4 0.000308938
7 *1027:A1 *1024:B 9.06059e-05
8 *1027:A1 *111:22 0.000123359
9 *1046:B *1024:A 0.000122993
10 *1046:B *132:12 0.000261806
11 *1046:B *294:12 3.40128e-05
12 *1048:B1 *1024:B 7.7591e-05
13 *1048:B1 *111:22 0.000242669
14 *1048:B1 *112:10 5.37741e-06
15 *110:23 *132:12 8.84129e-05
*RES
1 *1024:X *110:4 9.3 
2 *110:4 *1046:B 22.05 
3 *110:4 *110:23 6.26786 
4 *110:23 *1048:B1 16.9607 
5 *110:23 *1027:A1 15.4429 
*END

*D_NET *111 0.00302849
*CONN
*I *1027:A2 I *D sky130_fd_sc_hd__a21bo_1
*I *1048:A2 I *D sky130_fd_sc_hd__a21o_1
*I *1046:C I *D sky130_fd_sc_hd__nand3_1
*I *1025:X O *D sky130_fd_sc_hd__a22o_1
*CAP
1 *1027:A2 4.67505e-05
2 *1048:A2 0
3 *1046:C 0.000336506
4 *1025:X 0.000156357
5 *111:22 0.000684744
6 *111:10 0.000551345
7 *1027:A2 *962:B 3.36276e-05
8 *1027:A2 *1024:B 2.59355e-05
9 *1046:C *1024:A 3.47956e-06
10 *1046:C *1046:A 5.8945e-05
11 *1046:C *112:23 0.000141131
12 *1046:C *132:12 3.18747e-05
13 *1046:C *230:10 2.9842e-05
14 *1046:C *269:21 0.000124083
15 *1046:C *294:12 0
16 *111:10 *287:14 9.77072e-05
17 *111:22 *1080:B 2.72545e-05
18 *111:22 *112:10 6.56312e-06
19 *111:22 *112:23 3.14136e-05
20 *111:22 *133:8 3.34366e-05
21 *111:22 *133:23 2.77941e-05
22 *111:22 *134:19 0.000150625
23 *111:22 *288:81 4.97159e-05
24 *111:22 *316:123 1.33343e-05
25 *1027:A1 *111:22 0.000123359
26 *1048:B1 *111:22 0.000242669
*RES
1 *1025:X *111:10 16.0857 
2 *111:10 *111:22 12.9464 
3 *111:22 *1046:C 24.3179 
4 *111:22 *1048:A2 9.3 
5 *111:10 *1027:A2 14.7643 
*END

*D_NET *112 0.00224879
*CONN
*I *1027:B1_N I *D sky130_fd_sc_hd__a21bo_1
*I *1046:A I *D sky130_fd_sc_hd__nand3_1
*I *1048:A1 I *D sky130_fd_sc_hd__a21o_1
*I *1026:Y O *D sky130_fd_sc_hd__nand4_1
*CAP
1 *1027:B1_N 0.000139628
2 *1046:A 0.00010358
3 *1048:A1 0
4 *1026:Y 0.000162328
5 *112:23 0.000387657
6 *112:10 0.000306776
7 *1027:B1_N *962:B 2.67489e-05
8 *1027:B1_N *269:21 0.000236144
9 *1027:B1_N *282:21 0.000242291
10 *1027:B1_N *286:84 6.05161e-06
11 *1046:A *1024:B 1.24368e-05
12 *1046:A *132:12 6.58992e-05
13 *112:10 *230:10 0
14 *112:10 *282:21 5.09156e-05
15 *112:10 *316:123 5.38268e-05
16 *112:10 *316:135 2.83284e-06
17 *112:23 *269:21 0.000104974
18 *112:23 *282:21 0.000103267
19 *1046:C *1046:A 5.8945e-05
20 *1046:C *112:23 0.000141131
21 *1048:B1 *112:10 5.37741e-06
22 *111:22 *112:10 6.56312e-06
23 *111:22 *112:23 3.14136e-05
*RES
1 *1026:Y *112:10 21.7643 
2 *112:10 *1048:A1 9.3 
3 *112:10 *112:23 8.03571 
4 *112:23 *1046:A 16.0143 
5 *112:23 *1027:B1_N 17.9071 
*END

*D_NET *113 0.00404573
*CONN
*I *1029:B I *D sky130_fd_sc_hd__and3_1
*I *1028:B1 I *D sky130_fd_sc_hd__a21oi_1
*I *1027:X O *D sky130_fd_sc_hd__a21bo_1
*CAP
1 *1029:B 0.000428799
2 *1028:B1 0
3 *1027:X 0.000594402
4 *113:16 0.0010232
5 *1029:B *269:90 2.21972e-05
6 *1029:B *315:36 5.74499e-06
7 *113:16 *962:B 0.000138432
8 *113:16 *975:A 6.40912e-05
9 *113:16 *1006:B2 0.000190809
10 *113:16 *1025:B1 0.000120368
11 *113:16 *269:36 0.000304746
12 *113:16 *269:90 7.34455e-06
13 *113:16 *288:103 7.61619e-05
14 *113:16 *316:123 0.000166973
15 *1028:A1 *1029:B 7.17932e-05
16 *1029:A *1029:B 0.000432237
17 *1029:C *1029:B 1.39841e-05
18 *93:10 *113:16 5.71389e-05
19 *93:21 *113:16 2.84398e-05
20 *107:12 *1029:B 1.33343e-05
21 *108:14 *1029:B 0.000184708
22 *108:14 *113:16 0.000100831
*RES
1 *1027:X *113:16 27.4071 
2 *113:16 *1028:B1 13.8 
3 *113:16 *1029:B 22.7821 
*END

*D_NET *114 0.00189404
*CONN
*I *1082:A2 I *D sky130_fd_sc_hd__o21ai_1
*I *1079:C I *D sky130_fd_sc_hd__or3_1
*I *1030:A2 I *D sky130_fd_sc_hd__o21bai_1
*I *1028:Y O *D sky130_fd_sc_hd__a21oi_1
*CAP
1 *1082:A2 0
2 *1079:C 3.74375e-05
3 *1030:A2 1.2683e-05
4 *1028:Y 0.000294526
5 *114:16 0.000123705
6 *114:12 0.00036811
7 *1079:C *1030:B1_N 2.89016e-05
8 *1079:C *1082:A1 0.000193097
9 *1079:C *116:6 5.23057e-05
10 *114:12 *1137:A2 7.83659e-05
11 *114:12 *1138:A 0.000139913
12 *114:12 *1139:A1 0
13 *114:12 *1181:A 2.84398e-05
14 *114:12 *1212:A 5.64954e-05
15 *114:12 *167:14 0
16 *114:16 *1082:A1 0.000263276
17 *114:16 *116:6 5.30637e-06
18 *1028:A1 *114:12 0.00012401
19 *1030:A1 *1030:A2 3.99614e-06
20 *1030:A1 *114:16 6.09963e-05
21 *107:16 *114:16 2.24763e-05
*RES
1 *1028:Y *114:12 23.7286 
2 *114:12 *114:16 2.60714 
3 *114:16 *1030:A2 9.72857 
4 *114:16 *1079:C 11.4964 
5 *114:12 *1082:A2 9.3 
*END

*D_NET *115 0.00193808
*CONN
*I *1079:A I *D sky130_fd_sc_hd__or3_1
*I *1030:B1_N I *D sky130_fd_sc_hd__o21bai_1
*I *1082:A1 I *D sky130_fd_sc_hd__o21ai_1
*I *1029:X O *D sky130_fd_sc_hd__and3_1
*CAP
1 *1079:A 0
2 *1030:B1_N 4.67988e-05
3 *1082:A1 0.000423645
4 *1029:X 0.000112088
5 *115:12 0.000582532
6 *1030:B1_N *1087:B1 0
7 *1030:B1_N *116:6 0.000139907
8 *1082:A1 *1087:B1 0
9 *115:12 *116:6 4.43256e-05
10 *115:12 *117:12 4.15914e-05
11 *115:12 *293:16 0
12 *1079:C *1030:B1_N 2.89016e-05
13 *1079:C *1082:A1 0.000193097
14 *107:12 *115:12 6.19181e-05
15 *114:16 *1082:A1 0.000263276
*RES
1 *1029:X *115:12 20.8893 
2 *115:12 *1082:A1 15.8179 
3 *115:12 *1030:B1_N 11.0857 
4 *115:12 *1079:A 9.3 
*END

*D_NET *116 0.00199966
*CONN
*I *1032:B I *D sky130_fd_sc_hd__and3_2
*I *1087:B1 I *D sky130_fd_sc_hd__a21oi_1
*I *1030:Y O *D sky130_fd_sc_hd__o21bai_1
*CAP
1 *1032:B 0.000109022
2 *1087:B1 0.000119679
3 *1030:Y 0.000174061
4 *116:6 0.000402762
5 *1032:B *118:8 9.60875e-05
6 *1032:B *118:27 6.09963e-05
7 *1087:B1 *1087:A2 3.18676e-05
8 *1087:B1 *117:12 0.000146328
9 *1087:B1 *118:8 0.00012424
10 *1087:B1 *118:27 0.000154827
11 *116:6 *117:12 1.00073e-05
12 *1030:B1_N *1087:B1 0
13 *1030:B1_N *116:6 0.000139907
14 *1032:A *1087:B1 5.65955e-05
15 *1079:C *116:6 5.23057e-05
16 *1082:A1 *1087:B1 0
17 *107:16 *116:6 0.000271345
18 *114:16 *116:6 5.30637e-06
19 *115:12 *116:6 4.43256e-05
*RES
1 *1030:Y *116:6 13.9429 
2 *116:6 *1087:B1 13.8893 
3 *116:6 *1032:B 11.4964 
*END

*D_NET *117 0.00161699
*CONN
*I *1087:A2 I *D sky130_fd_sc_hd__a21oi_1
*I *1032:C I *D sky130_fd_sc_hd__and3_2
*I *1031:X O *D sky130_fd_sc_hd__a21bo_1
*CAP
1 *1087:A2 0.000221878
2 *1032:C 0
3 *1031:X 0.000284265
4 *117:12 0.000506143
5 *1087:A2 *118:27 5.20751e-05
6 *117:12 *1021:B 0.000150618
7 *117:12 *293:16 9.01143e-05
8 *1032:A *1087:A2 5.49544e-05
9 *1087:B1 *1087:A2 3.18676e-05
10 *1087:B1 *117:12 0.000146328
11 *99:34 *1087:A2 2.71489e-05
12 *107:12 *117:12 0
13 *115:12 *117:12 4.15914e-05
14 *116:6 *117:12 1.00073e-05
*RES
1 *1031:X *117:12 23.9429 
2 *117:12 *1032:C 9.3 
3 *117:12 *1087:A2 21.8714 
*END

*D_NET *118 0.00248818
*CONN
*I *1033:B I *D sky130_fd_sc_hd__xnor2_2
*I *1093:B I *D sky130_fd_sc_hd__and2b_1
*I *1088:A I *D sky130_fd_sc_hd__nor2_2
*I *1032:X O *D sky130_fd_sc_hd__and3_2
*CAP
1 *1033:B 0
2 *1093:B 9.13559e-05
3 *1088:A 9.52596e-05
4 *1032:X 3.53247e-05
5 *118:27 0.000617674
6 *118:8 0.000656903
7 *1088:A *1088:B 2.48421e-05
8 *1088:A *139:39 0
9 *1088:A *293:16 0.000197975
10 *1093:B *295:10 0.000126209
11 *1093:B *315:36 3.17148e-05
12 *118:27 *1088:B 5.65955e-05
13 *118:27 *1111:C1 0
14 *1032:A *118:27 9.76435e-06
15 *1032:B *118:8 9.60875e-05
16 *1032:B *118:27 6.09963e-05
17 *1033:A *1093:B 4.69852e-05
18 *1087:A2 *118:27 5.20751e-05
19 *1087:B1 *118:8 0.00012424
20 *1087:B1 *118:27 0.000154827
21 *99:34 *118:27 9.35114e-06
*RES
1 *1032:X *118:8 10.675 
2 *118:8 *1088:A 20.8536 
3 *118:8 *118:27 9.21429 
4 *118:27 *1093:B 21.1571 
5 *118:27 *1033:B 9.3 
*END

*D_NET *119 0.00221664
*CONN
*I *1098:A I *D sky130_fd_sc_hd__xnor2_1
*I *1094:A1 I *D sky130_fd_sc_hd__a21oi_1
*I *1111:B1 I *D sky130_fd_sc_hd__o211a_1
*I *1033:Y O *D sky130_fd_sc_hd__xnor2_2
*CAP
1 *1098:A 0.000369408
2 *1094:A1 0
3 *1111:B1 6.34379e-05
4 *1033:Y 0.000112513
5 *119:21 0.000484594
6 *119:6 0.000291137
7 *1098:A *1092:A1 0.000187533
8 *1098:A *1095:B 6.19295e-05
9 *1098:A *1096:A 5.68674e-05
10 *1098:A *1098:B 5.50052e-05
11 *1098:A *1111:C1 5.71472e-05
12 *1098:A *141:24 0.000198416
13 *1098:A *164:23 0
14 *1111:B1 *1094:B1 6.42242e-05
15 *1111:B1 *1111:C1 6.16744e-05
16 *119:6 *1111:C1 5.03772e-05
17 *119:21 *1094:B1 5.52238e-05
18 *119:21 *1111:C1 3.68997e-05
19 *1111:A2 *1111:B1 1.02504e-05
*RES
1 *1033:Y *119:6 10.6571 
2 *119:6 *1111:B1 19.9429 
3 *119:6 *119:21 1.78571 
4 *119:21 *1094:A1 9.3 
5 *119:21 *1098:A 26.675 
*END

*D_NET *120 0.00123062
*CONN
*I *1047:A1 I *D sky130_fd_sc_hd__a21bo_1
*I *1037:A I *D sky130_fd_sc_hd__nand3_1
*I *1038:A1 I *D sky130_fd_sc_hd__a21o_1
*I *1034:X O *D sky130_fd_sc_hd__a22o_1
*CAP
1 *1047:A1 0
2 *1037:A 0
3 *1038:A1 6.70477e-05
4 *1034:X 5.64059e-05
5 *120:12 0.000107448
6 *120:10 9.68057e-05
7 *1038:A1 *1037:B 0.000222334
8 *1038:A1 *133:8 0.000152718
9 *1038:A1 *288:32 2.20111e-05
10 *120:10 *1034:A2 3.79254e-05
11 *120:10 *288:32 0.000124012
12 *120:12 *959:A 8.43535e-06
13 *120:12 *1047:A2 4.17702e-05
14 *120:12 *122:15 9.84729e-05
15 *120:12 *123:10 0.000182799
16 *120:12 *124:14 1.24368e-05
*RES
1 *1034:X *120:10 19.9429 
2 *120:10 *120:12 1.76786 
3 *120:12 *1038:A1 21.1571 
4 *120:12 *1037:A 9.3 
5 *120:10 *1047:A1 9.3 
*END

*D_NET *121 0.00376167
*CONN
*I *1038:A2 I *D sky130_fd_sc_hd__a21o_1
*I *1037:B I *D sky130_fd_sc_hd__nand3_1
*I *1047:B1_N I *D sky130_fd_sc_hd__a21bo_1
*I *1035:Y O *D sky130_fd_sc_hd__nand4_1
*CAP
1 *1038:A2 0
2 *1037:B 9.10808e-05
3 *1047:B1_N 0.000110462
4 *1035:Y 0.000148723
5 *121:27 0.000554063
6 *121:8 0.000722167
7 *1037:B *316:135 6.69975e-05
8 *1047:B1_N *123:10 0.000135028
9 *121:8 *234:39 0.000447157
10 *121:8 *272:18 0.000347501
11 *121:8 *272:24 0.000101178
12 *121:27 *956:A 0
13 *121:27 *979:C 0
14 *121:27 *979:D 5.52302e-05
15 *121:27 *980:B1 1.21258e-05
16 *121:27 *980:B2 9.90431e-05
17 *121:27 *234:37 5.55219e-05
18 *121:27 *234:39 0.000206542
19 *121:27 *272:18 0.000259943
20 *121:27 *316:135 5.68722e-05
21 *979:B *121:27 6.96994e-05
22 *1038:A1 *1037:B 0.000222334
*RES
1 *1035:Y *121:8 19.6929 
2 *121:8 *1047:B1_N 15.1571 
3 *121:8 *121:27 13.875 
4 *121:27 *1037:B 21.1571 
5 *121:27 *1038:A2 9.3 
*END

*D_NET *122 0.00111115
*CONN
*I *1047:A2 I *D sky130_fd_sc_hd__a21bo_1
*I *1038:B1 I *D sky130_fd_sc_hd__a21o_1
*I *1037:C I *D sky130_fd_sc_hd__nand3_1
*I *1036:X O *D sky130_fd_sc_hd__and2_1
*CAP
1 *1047:A2 2.20035e-05
2 *1038:B1 7.13205e-05
3 *1037:C 1.84213e-05
4 *1036:X 4.58359e-05
5 *122:15 0.000202179
6 *122:6 0.000173112
7 *1037:C *926:A 1.02132e-05
8 *1038:B1 *124:14 1.87331e-05
9 *1038:B1 *133:8 0.000152718
10 *1038:B1 *288:32 1.00887e-05
11 *1038:B1 *288:55 0.000142629
12 *1047:A2 *959:A 6.05161e-06
13 *122:6 *926:A 1.47972e-05
14 *122:6 *1036:B 5.49489e-05
15 *122:15 *926:A 2.78579e-05
16 *120:12 *1047:A2 4.17702e-05
17 *120:12 *122:15 9.84729e-05
*RES
1 *1036:X *122:6 10.2464 
2 *122:6 *1037:C 9.72857 
3 *122:6 *122:15 2.17857 
4 *122:15 *1038:B1 20.9786 
5 *122:15 *1047:A2 9.83571 
*END

*D_NET *123 0.00229462
*CONN
*I *1043:A1 I *D sky130_fd_sc_hd__a211o_1
*I *1044:B1 I *D sky130_fd_sc_hd__o211a_1
*I *1037:Y O *D sky130_fd_sc_hd__nand3_1
*CAP
1 *1043:A1 0
2 *1044:B1 0.000369242
3 *1037:Y 0.000358915
4 *123:10 0.000728157
5 *1044:B1 *959:A 3.11088e-05
6 *1044:B1 *1044:A2 6.21609e-05
7 *1044:B1 *1044:C1 3.62243e-05
8 *1044:B1 *233:44 2.38901e-05
9 *1044:B1 *233:106 3.20696e-05
10 *1044:B1 *271:12 4.4044e-05
11 *123:10 *926:A 0
12 *123:10 *1043:A2 1.02301e-05
13 *123:10 *1043:B1 3.50746e-05
14 *123:10 *1044:C1 2.24804e-05
15 *123:10 *124:14 0.00021076
16 *123:10 *125:14 1.24368e-05
17 *1047:B1_N *123:10 0.000135028
18 *120:12 *123:10 0.000182799
*RES
1 *1037:Y *123:10 16.4429 
2 *123:10 *1044:B1 27.3488 
3 *123:10 *1043:A1 9.3 
*END

*D_NET *124 0.00166643
*CONN
*I *1044:C1 I *D sky130_fd_sc_hd__o211a_1
*I *1043:A2 I *D sky130_fd_sc_hd__a211o_1
*I *1038:X O *D sky130_fd_sc_hd__a21o_1
*CAP
1 *1044:C1 7.47865e-05
2 *1043:A2 1.53136e-05
3 *1038:X 0.00020995
4 *124:14 0.00030005
5 *1043:A2 *1043:B1 3.90274e-07
6 *1044:C1 *959:A 0.00022651
7 *1044:C1 *1043:B1 6.22362e-05
8 *1044:C1 *1044:A1 2.77926e-05
9 *1044:C1 *125:14 9.86486e-06
10 *124:14 *959:A 0.000287347
11 *124:14 *1034:A2 3.09892e-05
12 *124:14 *288:32 3.2923e-05
13 *124:14 *288:55 7.74135e-05
14 *1038:B1 *124:14 1.87331e-05
15 *1044:B1 *1044:C1 3.62243e-05
16 *120:12 *124:14 1.24368e-05
17 *123:10 *1043:A2 1.02301e-05
18 *123:10 *1044:C1 2.24804e-05
19 *123:10 *124:14 0.00021076
*RES
1 *1038:X *124:14 24.3 
2 *124:14 *1043:A2 9.72857 
3 *124:14 *1044:C1 12.2107 
*END

*D_NET *125 0.00190274
*CONN
*I *1044:A1 I *D sky130_fd_sc_hd__o211a_1
*I *1043:B1 I *D sky130_fd_sc_hd__a211o_1
*I *1039:X O *D sky130_fd_sc_hd__and4_1
*CAP
1 *1044:A1 0.000245278
2 *1043:B1 3.49629e-05
3 *1039:X 0.000262005
4 *125:14 0.000542245
5 *1044:A1 *959:A 6.39845e-06
6 *1044:A1 *1044:A2 0.000135239
7 *1044:A1 *129:10 4.3304e-06
8 *125:14 *1039:D 3.2033e-05
9 *125:14 *233:44 2.01883e-05
10 *125:14 *237:59 8.25843e-06
11 *125:14 *271:12 0.000124019
12 *125:14 *271:14 0.000146254
13 *125:14 *331:26 0.000193734
14 *1043:A2 *1043:B1 3.90274e-07
15 *1044:C1 *1043:B1 6.22362e-05
16 *1044:C1 *1044:A1 2.77926e-05
17 *1044:C1 *125:14 9.86486e-06
18 *123:10 *1043:B1 3.50746e-05
19 *123:10 *125:14 1.24368e-05
*RES
1 *1039:X *125:14 23.6571 
2 *125:14 *1043:B1 10.7107 
3 *125:14 *1044:A1 13.0321 
*END

*D_NET *126 0.00264599
*CONN
*I *1042:C I *D sky130_fd_sc_hd__and4_1
*I *1058:B1 I *D sky130_fd_sc_hd__a22o_1
*I *1056:C I *D sky130_fd_sc_hd__nand4_1
*I *1040:Y O *D sky130_fd_sc_hd__nand4_1
*CAP
1 *1042:C 0
2 *1058:B1 8.68426e-05
3 *1056:C 2.96231e-05
4 *1040:Y 0.000335253
5 *126:16 0.000297952
6 *126:12 0.000516739
7 *1056:C *1056:D 7.74068e-05
8 *1056:C *293:24 7.74068e-05
9 *1058:B1 *236:42 8.34144e-05
10 *126:12 *1040:A 0.000112036
11 *126:12 *128:8 2.53773e-05
12 *126:12 *235:115 5.26937e-05
13 *126:12 *236:48 1.00887e-05
14 *126:12 *237:59 2.47319e-05
15 *126:12 *238:59 5.51649e-05
16 *126:12 *286:18 0.000597577
17 *126:12 *331:26 1.65169e-05
18 *126:16 *127:8 3.3452e-05
19 *126:16 *127:17 3.27019e-05
20 *126:16 *236:42 0.000178503
21 *1040:B *126:12 2.51343e-06
*RES
1 *1040:Y *126:12 26.7286 
2 *126:12 *126:16 2.60714 
3 *126:16 *1056:C 19.3357 
4 *126:16 *1058:B1 10.675 
5 *126:12 *1042:C 9.3 
*END

*D_NET *127 0.00235421
*CONN
*I *1058:B2 I *D sky130_fd_sc_hd__a22o_1
*I *1056:D I *D sky130_fd_sc_hd__nand4_1
*I *1042:D I *D sky130_fd_sc_hd__and4_1
*I *1041:X O *D sky130_fd_sc_hd__a22o_1
*CAP
1 *1058:B2 9.77132e-06
2 *1056:D 8.16165e-05
3 *1042:D 0
4 *1041:X 0.000439246
5 *127:17 0.000161793
6 *127:8 0.000509651
7 *1056:D *1056:B 5.3218e-05
8 *1056:D *235:115 0.000121891
9 *1056:D *293:24 2.07809e-05
10 *1058:B2 *236:42 4.25684e-05
11 *1058:B2 *238:59 5.50052e-05
12 *127:8 *1039:B 9.67754e-05
13 *127:8 *237:59 0.000233877
14 *127:17 *236:42 0.000137639
15 *127:17 *237:59 2.48445e-05
16 *127:17 *238:59 0.00022197
17 *1056:C *1056:D 7.74068e-05
18 *126:16 *127:8 3.3452e-05
19 *126:16 *127:17 3.27019e-05
*RES
1 *1041:X *127:8 14.7821 
2 *127:8 *1042:D 9.3 
3 *127:8 *127:17 2.60714 
4 *127:17 *1056:D 20.675 
5 *127:17 *1058:B2 9.83571 
*END

*D_NET *128 0.00111022
*CONN
*I *1044:A2 I *D sky130_fd_sc_hd__o211a_1
*I *1043:C1 I *D sky130_fd_sc_hd__a211o_1
*I *1042:X O *D sky130_fd_sc_hd__and4_1
*CAP
1 *1044:A2 6.6639e-05
2 *1043:C1 7.0333e-05
3 *1042:X 0.000149001
4 *128:8 0.000285973
5 *1043:C1 *233:44 1.84999e-05
6 *1044:A2 *129:10 1.16543e-05
7 *128:8 *233:44 0.000275255
8 *128:8 *237:59 1.00887e-05
9 *1044:A1 *1044:A2 0.000135239
10 *1044:B1 *1044:A2 6.21609e-05
11 *126:12 *128:8 2.53773e-05
*RES
1 *1042:X *128:8 17.5679 
2 *128:8 *1043:C1 14.7643 
3 *128:8 *1044:A2 15.7107 
*END

*D_NET *129 0.00233849
*CONN
*I *1045:A3 I *D sky130_fd_sc_hd__a31o_1
*I *1065:B I *D sky130_fd_sc_hd__and2b_1
*I *1043:X O *D sky130_fd_sc_hd__a211o_1
*CAP
1 *1045:A3 0
2 *1065:B 0.000116711
3 *1043:X 0.000676328
4 *129:10 0.00079304
5 *1065:B *235:115 0.000196458
6 *1065:B *293:24 8.07792e-06
7 *129:10 *959:A 0.000390648
8 *129:10 *1045:B1 2.59355e-05
9 *129:10 *1171:A 0
10 *129:10 *130:6 2.59355e-05
11 *129:10 *235:99 5.71124e-05
12 *129:10 *235:115 2.43663e-05
13 *1044:A1 *129:10 4.3304e-06
14 *1044:A2 *129:10 1.16543e-05
15 *1045:A1 *129:10 7.89623e-06
*RES
1 *1043:X *129:10 22.7643 
2 *129:10 *1065:B 16.6571 
3 *129:10 *1045:A3 13.8 
*END

*D_NET *130 0.000641408
*CONN
*I *1045:B1 I *D sky130_fd_sc_hd__a31o_1
*I *1065:A_N I *D sky130_fd_sc_hd__and2b_1
*I *1044:X O *D sky130_fd_sc_hd__o211a_1
*CAP
1 *1045:B1 2.78831e-05
2 *1065:A_N 8.33851e-05
3 *1044:X 3.27275e-05
4 *130:6 0.000143996
5 *1065:A_N *293:24 0.000150773
6 *57:33 *1065:A_N 0.000150773
7 *129:10 *1045:B1 2.59355e-05
8 *129:10 *130:6 2.59355e-05
*RES
1 *1044:X *130:6 9.83571 
2 *130:6 *1065:A_N 20.9786 
3 *130:6 *1045:B1 9.83571 
*END

*D_NET *131 0.00259623
*CONN
*I *1054:B1 I *D sky130_fd_sc_hd__a21oi_1
*I *1053:A I *D sky130_fd_sc_hd__and3_2
*I *1045:X O *D sky130_fd_sc_hd__a31o_1
*CAP
1 *1054:B1 0
2 *1053:A 0.000256991
3 *1045:X 0.000634472
4 *131:14 0.000891463
5 *1053:A *1053:C 2.08464e-05
6 *1053:A *1054:A1 2.36643e-05
7 *1053:A *1054:A2 0.000157571
8 *1053:A *138:8 7.61603e-05
9 *1053:A *139:14 9.76435e-06
10 *1053:A *274:10 2.84109e-05
11 *131:14 *961:D 0
12 *131:14 *964:D 0
13 *131:14 *982:B1 1.77011e-05
14 *131:14 *1171:A 0.000183737
15 *131:14 *1172:A 9.97164e-05
16 *131:14 *233:125 0
17 *131:14 *274:10 8.21191e-05
18 *131:14 *293:24 0
19 *1045:A1 *131:14 1.20716e-05
20 *69:12 *131:14 0.000101545
*RES
1 *1045:X *131:14 29.2286 
2 *131:14 *1053:A 14.2286 
3 *131:14 *1054:B1 9.3 
*END

*D_NET *132 0.00214653
*CONN
*I *1080:A I *D sky130_fd_sc_hd__and3_1
*I *1049:A I *D sky130_fd_sc_hd__nand3_1
*I *1050:A1 I *D sky130_fd_sc_hd__a21o_1
*I *1046:Y O *D sky130_fd_sc_hd__nand3_1
*CAP
1 *1080:A 4.29145e-05
2 *1049:A 0.0001022
3 *1050:A1 0
4 *1046:Y 0.000250265
5 *132:19 0.000229286
6 *132:12 0.000334437
7 *1049:A *1049:B 1.33343e-05
8 *1049:A *1049:C 1.3701e-05
9 *1049:A *135:10 6.05161e-06
10 *1049:A *288:81 0.00010326
11 *1049:A *316:123 0.00010326
12 *1080:A *1080:C 4.58194e-05
13 *1080:A *136:6 5.33005e-05
14 *132:12 *1024:A 2.2351e-05
15 *132:12 *1024:B 0.000224341
16 *132:12 *1050:A2 6.09521e-05
17 *132:19 *1050:A2 6.05161e-06
18 *132:19 *1050:B1 5.33005e-05
19 *132:19 *1080:C 3.37161e-05
20 *1046:A *132:12 6.58992e-05
21 *1046:B *132:12 0.000261806
22 *1046:C *132:12 3.18747e-05
23 *110:23 *132:12 8.84129e-05
*RES
1 *1046:Y *132:12 16.05 
2 *132:12 *1050:A1 9.3 
3 *132:12 *132:19 1.35714 
4 *132:19 *1049:A 21.0321 
5 *132:19 *1080:A 10.2464 
*END

*D_NET *133 0.00289558
*CONN
*I *1080:B I *D sky130_fd_sc_hd__and3_1
*I *1050:B1 I *D sky130_fd_sc_hd__a21o_1
*I *1049:B I *D sky130_fd_sc_hd__nand3_1
*I *1047:X O *D sky130_fd_sc_hd__a21bo_1
*CAP
1 *1080:B 0.000236895
2 *1050:B1 1.69531e-05
3 *1049:B 5.69483e-05
4 *1047:X 0.000223808
5 *133:23 0.000359121
6 *133:8 0.00038603
7 *1049:B *1049:C 5.52302e-05
8 *1049:B *316:123 7.02611e-05
9 *1050:B1 *1080:C 5.33005e-05
10 *1080:B *1080:C 0.000123001
11 *1080:B *134:19 2.31791e-05
12 *1080:B *288:81 7.90803e-05
13 *133:8 *288:66 9.42015e-05
14 *133:8 *288:81 9.32406e-05
15 *133:8 *316:123 0.000192404
16 *133:8 *316:135 7.83659e-05
17 *133:23 *134:19 0.000127446
18 *133:23 *288:81 0.000165561
19 *1038:A1 *133:8 0.000152718
20 *1038:B1 *133:8 0.000152718
21 *1049:A *1049:B 1.33343e-05
22 *111:22 *1080:B 2.72545e-05
23 *111:22 *133:8 3.34366e-05
24 *111:22 *133:23 2.77941e-05
25 *132:19 *1050:B1 5.33005e-05
*RES
1 *1047:X *133:8 20.6036 
2 *133:8 *1049:B 15.1571 
3 *133:8 *133:23 2.91071 
4 *133:23 *1050:B1 14.3357 
5 *133:23 *1080:B 17.425 
*END

*D_NET *134 0.00136796
*CONN
*I *1080:C I *D sky130_fd_sc_hd__and3_1
*I *1050:A2 I *D sky130_fd_sc_hd__a21o_1
*I *1049:C I *D sky130_fd_sc_hd__nand3_1
*I *1048:X O *D sky130_fd_sc_hd__a21o_1
*CAP
1 *1080:C 0.000153552
2 *1050:A2 5.13553e-05
3 *1049:C 4.47863e-05
4 *1048:X 0
5 *134:19 0.000256372
6 *134:4 9.62511e-05
7 *1080:C *1081:B1 0
8 *1080:C *136:6 7.26242e-05
9 *1049:A *1049:C 1.3701e-05
10 *1049:B *1049:C 5.52302e-05
11 *1050:B1 *1080:C 5.33005e-05
12 *1080:A *1080:C 4.58194e-05
13 *1080:B *1080:C 0.000123001
14 *1080:B *134:19 2.31791e-05
15 *111:22 *134:19 0.000150625
16 *132:12 *1050:A2 6.09521e-05
17 *132:19 *1050:A2 6.05161e-06
18 *132:19 *1080:C 3.37161e-05
19 *133:23 *134:19 0.000127446
*RES
1 *1048:X *134:4 9.3 
2 *134:4 *1049:C 10.2643 
3 *134:4 *134:19 10.9464 
4 *134:19 *1050:A2 10.2643 
5 *134:19 *1080:C 13.2286 
*END

*D_NET *135 0.00157808
*CONN
*I *1052:B1 I *D sky130_fd_sc_hd__a22o_1
*I *1051:C I *D sky130_fd_sc_hd__nand4_1
*I *1049:Y O *D sky130_fd_sc_hd__nand3_1
*CAP
1 *1052:B1 0.000193211
2 *1051:C 0
3 *1049:Y 0.000256408
4 *135:10 0.000449619
5 *1052:B1 *1052:A2 4.88637e-05
6 *1052:B1 *1052:B2 9.60939e-05
7 *1052:B1 *233:69 0.00015134
8 *1052:B1 *234:25 0.000102545
9 *1052:B1 *234:35 7.97962e-05
10 *135:10 *1051:D 1.04232e-05
11 *135:10 *234:35 0.000183726
12 *135:10 *316:123 0
13 *1049:A *135:10 6.05161e-06
*RES
1 *1049:Y *135:10 13.9786 
2 *135:10 *1051:C 9.3 
3 *135:10 *1052:B1 22.9607 
*END

*D_NET *136 0.001551
*CONN
*I *1052:B2 I *D sky130_fd_sc_hd__a22o_1
*I *1081:A3 I *D sky130_fd_sc_hd__a31o_1
*I *1051:D I *D sky130_fd_sc_hd__nand4_1
*I *1050:X O *D sky130_fd_sc_hd__a21o_1
*CAP
1 *1052:B2 4.01035e-05
2 *1081:A3 0
3 *1051:D 7.5255e-05
4 *1050:X 0.00028185
5 *136:23 0.00014959
6 *136:6 0.000466592
7 *1051:D *234:25 3.34687e-05
8 *1051:D *234:35 5.80706e-06
9 *1051:D *272:18 7.83587e-05
10 *1052:B2 *1052:A2 8.46829e-05
11 *1052:B2 *1081:A2 5.52302e-05
12 *136:6 *1081:B1 2.72859e-05
13 *136:23 *1052:A2 0
14 *136:23 *1081:A2 1.55885e-05
15 *1052:B1 *1052:B2 9.60939e-05
16 *1080:A *136:6 5.33005e-05
17 *1080:C *136:6 7.26242e-05
18 *1081:A1 *136:6 9.33978e-07
19 *1081:A1 *136:23 3.81416e-06
20 *135:10 *1051:D 1.04232e-05
*RES
1 *1050:X *136:6 12.7107 
2 *136:6 *1051:D 20.0679 
3 *136:6 *136:23 1.67857 
4 *136:23 *1081:A3 9.3 
5 *136:23 *1052:B2 10.6571 
*END

*D_NET *137 0.00206043
*CONN
*I *1053:B I *D sky130_fd_sc_hd__and3_2
*I *1054:A1 I *D sky130_fd_sc_hd__a21oi_1
*I *1051:Y O *D sky130_fd_sc_hd__nand4_1
*CAP
1 *1053:B 0
2 *1054:A1 0.000107172
3 *1051:Y 0.000410939
4 *137:14 0.000518111
5 *1054:A1 *1053:C 0
6 *1054:A1 *1054:A2 0.000184944
7 *1054:A1 *138:8 2.70354e-05
8 *1054:A1 *139:14 0.000143651
9 *137:14 *974:A 0.0001098
10 *137:14 *138:8 2.61099e-05
11 *1051:A *137:14 4.43256e-05
12 *1053:A *1054:A1 2.36643e-05
13 *57:33 *137:14 0.000196269
14 *65:18 *137:14 0.000268409
*RES
1 *1051:Y *137:14 25.2107 
2 *137:14 *1054:A1 12.6393 
3 *137:14 *1053:B 9.3 
*END

*D_NET *138 0.000772064
*CONN
*I *1054:A2 I *D sky130_fd_sc_hd__a21oi_1
*I *1053:C I *D sky130_fd_sc_hd__and3_2
*I *1052:X O *D sky130_fd_sc_hd__a22o_1
*CAP
1 *1054:A2 3.09041e-05
2 *1053:C 1.43215e-05
3 *1052:X 8.45882e-05
4 *138:8 0.000129814
5 *138:8 *1052:A2 1.97695e-05
6 *1053:A *1053:C 2.08464e-05
7 *1053:A *1054:A2 0.000157571
8 *1053:A *138:8 7.61603e-05
9 *1054:A1 *1053:C 0
10 *1054:A1 *1054:A2 0.000184944
11 *1054:A1 *138:8 2.70354e-05
12 *137:14 *138:8 2.61099e-05
*RES
1 *1052:X *138:8 11.3893 
2 *138:8 *1053:C 9.72857 
3 *138:8 *1054:A2 11.0679 
*END

*D_NET *139 0.0062457
*CONN
*I *1086:A I *D sky130_fd_sc_hd__xor2_2
*I *1119:A I *D sky130_fd_sc_hd__nand2_1
*I *1090:A1 I *D sky130_fd_sc_hd__a21o_1
*I *1055:A I *D sky130_fd_sc_hd__nor2_1
*I *1053:X O *D sky130_fd_sc_hd__and3_2
*CAP
1 *1086:A 0
2 *1119:A 0.000143122
3 *1090:A1 0
4 *1055:A 0
5 *1053:X 0.000255331
6 *139:56 0.000437726
7 *139:39 0.00155655
8 *139:14 0.00151727
9 *1119:A *1085:A 0
10 *1119:A *1118:B 2.8266e-06
11 *1119:A *171:12 6.29133e-05
12 *1119:A *171:16 4.29272e-05
13 *139:14 *987:A 2.3953e-05
14 *139:14 *1055:B 0.000128042
15 *139:14 *274:10 0.000142011
16 *139:14 *293:24 0
17 *139:39 *987:A 0.000143373
18 *139:39 *1021:A 0
19 *139:39 *270:28 0
20 *139:39 *327:36 3.14163e-05
21 *139:56 *1085:B_N 0.000189577
22 *139:56 *1097:A 5.33005e-05
23 *139:56 *169:29 0.000218583
24 *139:56 *183:12 0.000114506
25 *987:C *139:39 0.000232911
26 *1014:B *139:39 0.000310775
27 *1019:B *139:39 0
28 *1020:A *139:39 9.9129e-05
29 *1020:B_N *139:39 3.57844e-05
30 *1033:A *139:39 0
31 *1053:A *139:14 9.76435e-06
32 *1054:A1 *139:14 0.000143651
33 *1088:A *139:39 0
34 *69:12 *139:14 0.000151375
35 *69:12 *139:39 7.78449e-05
36 *97:14 *139:39 1.24368e-05
37 *99:10 *139:39 3.15993e-05
38 *99:34 *139:39 7.6997e-05
39 *100:12 *139:39 0
*RES
1 *1053:X *139:14 19.7107 
2 *139:14 *1055:A 13.8 
3 *139:14 *139:39 33.6964 
4 *139:39 *1090:A1 13.8 
5 *139:39 *139:56 11.625 
6 *139:56 *1119:A 21.2107 
7 *139:56 *1086:A 9.3 
*END

*D_NET *140 0.000637505
*CONN
*I *1055:B I *D sky130_fd_sc_hd__nor2_1
*I *1054:Y O *D sky130_fd_sc_hd__a21oi_1
*CAP
1 *1055:B 0.000222236
2 *1054:Y 0.000222236
3 *1055:B *962:B 1.02911e-05
4 *1055:B *987:A 5.47001e-05
5 *1055:B *293:24 0
6 *139:14 *1055:B 0.000128042
*RES
1 *1054:Y *1055:B 31.1536 
*END

*D_NET *141 0.00641544
*CONN
*I *1105:A I *D sky130_fd_sc_hd__xor2_1
*I *1092:A1 I *D sky130_fd_sc_hd__a41o_1
*I *1116:A I *D sky130_fd_sc_hd__and2_1
*I *1055:Y O *D sky130_fd_sc_hd__nor2_1
*CAP
1 *1105:A 0.000104512
2 *1092:A1 0.000122834
3 *1116:A 3.39029e-05
4 *1055:Y 0.0010133
5 *141:24 0.000727698
6 *141:16 0.00168877
7 *1092:A1 *1092:A2 6.05161e-06
8 *1092:A1 *1092:B1 5.66971e-05
9 *1092:A1 *178:12 0.00016436
10 *1092:A1 *202:8 6.14702e-06
11 *1092:A1 *202:21 1.06172e-05
12 *1105:A *327:36 5.04705e-05
13 *1116:A *164:23 2.59355e-05
14 *141:16 *962:B 0.000178503
15 *141:16 *987:A 0.000102393
16 *141:16 *270:28 0
17 *141:16 *295:10 0.000488214
18 *141:16 *327:36 0.000160294
19 *141:24 *1094:B1 4.84667e-05
20 *141:24 *1095:B 6.76365e-05
21 *141:24 *1110:A2 0
22 *141:24 *1112:B1 0.000123295
23 *141:24 *1112:C1 8.00806e-05
24 *141:24 *164:23 0
25 *141:24 *178:12 0.000198368
26 *1017:A *1105:A 4.18895e-05
27 *1017:A *141:16 0.000144773
28 *1095:A *141:24 5.81363e-05
29 *1098:A *1092:A1 0.000187533
30 *1098:A *141:24 0.000198416
31 *1111:A1 *141:24 7.80714e-06
32 *73:14 *141:16 0.000120344
33 *79:25 *141:24 0.000197991
34 *103:8 *141:24 0
*RES
1 *1055:Y *141:16 36.1571 
2 *141:16 *141:24 17.125 
3 *141:24 *1116:A 14.3357 
4 *141:24 *1092:A1 17.3 
5 *141:16 *1105:A 11.4964 
*END

*D_NET *142 0.00243805
*CONN
*I *1059:A I *D sky130_fd_sc_hd__and3_1
*I *1061:A1 I *D sky130_fd_sc_hd__a21oi_1
*I *1056:Y O *D sky130_fd_sc_hd__nand4_1
*CAP
1 *1059:A 3.65914e-05
2 *1061:A1 0.000271329
3 *1056:Y 0.000173543
4 *142:8 0.000481464
5 *1059:A *1059:C 0.000173707
6 *1059:A *144:12 5.52302e-05
7 *1061:A1 *1059:B 0
8 *1061:A1 *1061:A2 0.00042898
9 *1061:A1 *1066:B 1.32293e-05
10 *1061:A1 *1171:A 0.000344347
11 *142:8 *1056:B 3.84299e-05
12 *142:8 *144:12 0.000136676
13 *142:8 *272:24 1.26059e-05
14 *57:8 *142:8 8.14145e-05
15 *57:68 *1059:A 0.000119356
16 *57:68 *142:8 7.11463e-05
*RES
1 *1056:Y *142:8 13.3357 
2 *142:8 *1061:A1 25.175 
3 *142:8 *1059:A 11.4786 
*END

*D_NET *143 0.00202429
*CONN
*I *1070:A_N I *D sky130_fd_sc_hd__and4b_1
*I *1061:B1 I *D sky130_fd_sc_hd__a21oi_1
*I *1059:B I *D sky130_fd_sc_hd__and3_1
*I *1057:X O *D sky130_fd_sc_hd__and4_1
*CAP
1 *1070:A_N 0.000407689
2 *1061:B1 8.86823e-05
3 *1059:B 0.000244927
4 *1057:X 0
5 *143:6 0.000333609
6 *143:4 0.000407689
7 *1059:B *1061:A2 0
8 *1059:B *1171:A 0
9 *1059:B *272:45 0.000208261
10 *1059:B *272:60 3.34027e-05
11 *1059:B *332:35 7.65336e-06
12 *1061:B1 *272:60 7.24209e-05
13 *1070:A_N *1070:B 3.89621e-06
14 *1070:A_N *236:36 1.87331e-05
15 *1070:A_N *237:72 0.000160952
16 *1070:A_N *237:85 3.63775e-05
17 *1061:A1 *1059:B 0
*RES
1 *1057:X *143:4 9.3 
2 *143:4 *143:6 4.5 
3 *143:6 *1059:B 18.5321 
4 *143:6 *1061:B1 15.7464 
5 *143:4 *1070:A_N 14.675 
*END

*D_NET *144 0.00213004
*CONN
*I *1059:C I *D sky130_fd_sc_hd__and3_1
*I *1061:A2 I *D sky130_fd_sc_hd__a21oi_1
*I *1058:X O *D sky130_fd_sc_hd__a22o_1
*CAP
1 *1059:C 0.000190451
2 *1061:A2 0.000232392
3 *1058:X 0.000178881
4 *144:12 0.000601724
5 *144:12 *971:A 2.34969e-05
6 *144:12 *1057:A 7.70035e-05
7 *1059:A *1059:C 0.000173707
8 *1059:A *144:12 5.52302e-05
9 *1059:B *1061:A2 0
10 *1061:A1 *1061:A2 0.00042898
11 *57:68 *1059:C 3.1501e-05
12 *142:8 *144:12 0.000136676
*RES
1 *1058:X *144:12 21.1036 
2 *144:12 *1061:A2 23.6214 
3 *144:12 *1059:C 11.9607 
*END

*D_NET *145 0.00210165
*CONN
*I *1063:A I *D sky130_fd_sc_hd__or2b_1
*I *1062:A I *D sky130_fd_sc_hd__or3_1
*I *1068:A1 I *D sky130_fd_sc_hd__o21ai_1
*I *1059:X O *D sky130_fd_sc_hd__and3_1
*CAP
1 *1063:A 0.000115864
2 *1062:A 0
3 *1068:A1 0.000150716
4 *1059:X 0.000121333
5 *145:21 0.000211373
6 *145:6 0.000367558
7 *1068:A1 *1062:C 0.000330583
8 *1068:A1 *1068:B1 7.54369e-06
9 *1068:A1 *237:85 2.59093e-05
10 *1068:A1 *295:16 0.000424611
11 *145:21 *1062:C 2.89016e-05
12 *57:68 *145:6 0.00014183
13 *57:87 *1063:A 0.000125057
14 *57:87 *145:6 2.60984e-05
15 *57:87 *145:21 2.42778e-05
*RES
1 *1059:X *145:6 11.4786 
2 *145:6 *1068:A1 23.8893 
3 *145:6 *145:21 1.78571 
4 *145:21 *1062:A 9.3 
5 *145:21 *1063:A 12.2107 
*END

*D_NET *146 0.00107119
*CONN
*I *1068:B1 I *D sky130_fd_sc_hd__o21ai_1
*I *1062:B I *D sky130_fd_sc_hd__or3_1
*I *1060:Y O *D sky130_fd_sc_hd__nand2_1
*CAP
1 *1068:B1 6.56334e-05
2 *1062:B 0.000251072
3 *1060:Y 3.92518e-05
4 *146:8 0.000355957
5 *1062:B *1062:C 4.39018e-05
6 *1062:B *1063:B_N 2.02555e-05
7 *1062:B *148:19 1.66067e-05
8 *1062:B *236:36 4.52619e-05
9 *1062:B *237:85 0.000114385
10 *1068:B1 *1062:C 6.93626e-06
11 *146:8 *154:8 5.50052e-05
12 *1068:A1 *1068:B1 7.54369e-06
13 *1070:C *1062:B 1.78393e-05
14 *3:13 *1062:B 0
15 *71:89 *1062:B 1.92303e-05
16 *71:89 *1068:B1 1.23044e-05
*RES
1 *1060:Y *146:8 14.3357 
2 *146:8 *1062:B 18.7821 
3 *146:8 *1068:B1 15.1929 
*END

*D_NET *147 0.00151942
*CONN
*I *1068:A2 I *D sky130_fd_sc_hd__o21ai_1
*I *1062:C I *D sky130_fd_sc_hd__or3_1
*I *1061:Y O *D sky130_fd_sc_hd__a21oi_1
*CAP
1 *1068:A2 0
2 *1062:C 0.000154794
3 *1061:Y 0.000282832
4 *147:6 0.000437625
5 *1062:C *237:85 0.000164731
6 *1062:B *1062:C 4.39018e-05
7 *1068:A1 *1062:C 0.000330583
8 *1068:B1 *1062:C 6.93626e-06
9 *57:87 *1062:C 5.33005e-05
10 *71:76 *147:6 1.58163e-05
11 *145:21 *1062:C 2.89016e-05
*RES
1 *1061:Y *147:6 13.1214 
2 *147:6 *1062:C 23.2107 
3 *147:6 *1068:A2 9.3 
*END

*D_NET *148 0.00166588
*CONN
*I *1075:A I *D sky130_fd_sc_hd__and3_1
*I *1071:A1 I *D sky130_fd_sc_hd__a21oi_1
*I *1063:B_N I *D sky130_fd_sc_hd__or2b_1
*I *1062:X O *D sky130_fd_sc_hd__or3_1
*CAP
1 *1075:A 0.000203019
2 *1071:A1 0.000173697
3 *1063:B_N 3.53493e-05
4 *1062:X 3.9195e-05
5 *148:19 0.000437492
6 *148:8 0.00013532
7 *1071:A1 *1070:D 6.98553e-06
8 *1071:A1 *236:18 1.51695e-05
9 *1071:A1 *236:36 8.25843e-06
10 *1071:A1 *238:92 9.58689e-05
11 *1075:A *1060:B 5.50052e-05
12 *1075:A *236:36 1.09289e-05
13 *1075:A *238:92 1.54874e-05
14 *148:19 *238:92 2.30116e-06
15 *1062:B *1063:B_N 2.02555e-05
16 *1062:B *148:19 1.66067e-05
17 *1070:C *1075:A 5.51649e-05
18 *1073:B *1075:A 5.36422e-05
19 *3:13 *1063:B_N 0
20 *3:13 *1075:A 6.18105e-05
21 *3:13 *148:19 0
22 *57:87 *148:8 5.52238e-05
23 *71:89 *1075:A 0.000169095
*RES
1 *1062:X *148:8 14.3357 
2 *148:8 *1063:B_N 14.5321 
3 *148:8 *148:19 1.03571 
4 *148:19 *1071:A1 15.9786 
5 *148:19 *1075:A 18.6393 
*END

*D_NET *149 0.00268735
*CONN
*I *1067:A I *D sky130_fd_sc_hd__or2_1
*I *1099:A I *D sky130_fd_sc_hd__xnor2_1
*I *1077:A I *D sky130_fd_sc_hd__and2_1
*I *1063:X O *D sky130_fd_sc_hd__or2b_1
*CAP
1 *1067:A 7.82312e-05
2 *1099:A 2.86479e-05
3 *1077:A 6.39004e-05
4 *1063:X 0.000290629
5 *149:12 0.000461409
6 *1067:A *1067:B 0.00011134
7 *1067:A *1100:A 3.09985e-05
8 *1067:A *235:80 0.000339045
9 *1077:A *1077:B 1.02301e-05
10 *1077:A *152:8 3.11088e-05
11 *1077:A *152:17 7.88421e-05
12 *1077:A *235:80 0.000258744
13 *1099:A *1067:B 4.17702e-05
14 *1099:A *152:17 1.32293e-05
15 *149:12 *1071:A2 3.11713e-05
16 *149:12 *156:12 0.000169095
17 *149:12 *316:32 5.49657e-05
18 *3:13 *149:12 3.2666e-05
19 *57:87 *149:12 0.000199086
20 *57:100 *149:12 0.000362236
*RES
1 *1063:X *149:12 25.4429 
2 *149:12 *1077:A 11.9071 
3 *149:12 *1099:A 10.2643 
4 *149:12 *1067:A 12.7107 
*END

*D_NET *150 0.00140209
*CONN
*I *1066:A I *D sky130_fd_sc_hd__xnor2_1
*I *1064:Y O *D sky130_fd_sc_hd__nand2_1
*CAP
1 *1066:A 0.000297108
2 *1064:Y 0.000297108
3 *1066:A *964:D 5.48715e-05
4 *1066:A *152:8 0.000374676
5 *1066:A *272:60 1.0488e-05
6 *1066:A *276:14 0.000139344
7 *1045:A1 *1066:A 0.000228493
*RES
1 *1064:Y *1066:A 34.6536 
*END

*D_NET *151 0.000683374
*CONN
*I *1066:B I *D sky130_fd_sc_hd__xnor2_1
*I *1065:X O *D sky130_fd_sc_hd__and2b_1
*CAP
1 *1066:B 0.000261141
2 *1065:X 0.000261141
3 *1066:B *1171:A 0.000147862
4 *1061:A1 *1066:B 1.32293e-05
*RES
1 *1065:X *1066:B 31.3143 
*END

*D_NET *152 0.00241998
*CONN
*I *1067:B I *D sky130_fd_sc_hd__or2_1
*I *1099:B I *D sky130_fd_sc_hd__xnor2_1
*I *1077:B I *D sky130_fd_sc_hd__and2_1
*I *1066:Y O *D sky130_fd_sc_hd__xnor2_1
*CAP
1 *1067:B 8.94537e-05
2 *1099:B 0
3 *1077:B 1.9105e-05
4 *1066:Y 0.000319827
5 *152:17 0.000159607
6 *152:8 0.000409085
7 *1067:B *1078:B1 7.4854e-05
8 *1067:B *1100:A 9.67754e-05
9 *1067:B *235:80 1.19813e-05
10 *152:8 *964:A 1.41743e-05
11 *152:8 *964:B 1.01581e-05
12 *152:8 *964:D 5.33005e-05
13 *152:8 *1064:B 9.58632e-05
14 *152:8 *235:80 0.000240147
15 *152:8 *276:14 2.38501e-05
16 *152:17 *1078:B1 5.23822e-05
17 *1045:A1 *152:8 7.24028e-05
18 *1066:A *152:8 0.000374676
19 *1067:A *1067:B 0.00011134
20 *1077:A *1077:B 1.02301e-05
21 *1077:A *152:8 3.11088e-05
22 *1077:A *152:17 7.88421e-05
23 *1099:A *1067:B 4.17702e-05
24 *1099:A *152:17 1.32293e-05
25 *71:123 *152:8 1.58163e-05
*RES
1 *1066:Y *152:8 17.6571 
2 *152:8 *1077:B 9.72857 
3 *152:8 *152:17 1.76786 
4 *152:17 *1099:B 9.3 
5 *152:17 *1067:B 12.3179 
*END

*D_NET *153 0.000911934
*CONN
*I *1078:A1 I *D sky130_fd_sc_hd__a21o_1
*I *1067:X O *D sky130_fd_sc_hd__or2_1
*CAP
1 *1078:A1 0.00019005
2 *1067:X 0.00019005
3 *1078:A1 *1072:A 0.000152718
4 *1078:A1 *1100:A 0.000227921
5 *1078:A1 *241:123 0.000151195
*RES
1 *1067:X *1078:A1 31.725 
*END

*D_NET *154 0.00129415
*CONN
*I *1071:A2 I *D sky130_fd_sc_hd__a21oi_1
*I *1075:B I *D sky130_fd_sc_hd__and3_1
*I *1068:Y O *D sky130_fd_sc_hd__o21ai_1
*CAP
1 *1071:A2 0.000130146
2 *1075:B 0
3 *1068:Y 0.000216001
4 *154:8 0.000346147
5 *1071:A2 *1060:B 1.21258e-05
6 *1071:A2 *156:12 7.58841e-05
7 *1071:A2 *238:92 5.50052e-05
8 *154:8 *1060:B 0.000116003
9 *1073:B *1071:A2 5.33005e-05
10 *3:13 *1071:A2 0.00014261
11 *71:76 *154:8 3.46801e-05
12 *71:89 *154:8 2.60673e-05
13 *146:8 *154:8 5.50052e-05
14 *149:12 *1071:A2 3.11713e-05
*RES
1 *1068:Y *154:8 13.55 
2 *154:8 *1075:B 9.3 
3 *154:8 *1071:A2 21.3179 
*END

*D_NET *155 0.000420213
*CONN
*I *1070:B I *D sky130_fd_sc_hd__and4b_1
*I *1069:X O *D sky130_fd_sc_hd__a22o_1
*CAP
1 *1070:B 0.00018759
2 *1069:X 0.00018759
3 *1070:B *236:36 1.52013e-05
4 *1070:B *237:85 2.59355e-05
5 *1070:A_N *1070:B 3.89621e-06
*RES
1 *1069:X *1070:B 20.7786 
*END

*D_NET *156 0.00208512
*CONN
*I *1071:B1 I *D sky130_fd_sc_hd__a21oi_1
*I *1075:C I *D sky130_fd_sc_hd__and3_1
*I *1070:X O *D sky130_fd_sc_hd__and4b_1
*CAP
1 *1071:B1 0.000217633
2 *1075:C 5.20933e-05
3 *1070:X 0.000170591
4 *156:12 0.000440317
5 *1071:B1 *939:A 0.000122591
6 *1071:B1 *1072:A 8.91505e-05
7 *1071:B1 *236:104 5.36422e-05
8 *1071:B1 *238:92 6.07717e-05
9 *1075:C *939:A 5.33005e-05
10 *1075:C *1060:B 3.9087e-05
11 *156:12 *236:18 0.000138432
12 *156:12 *316:32 5.51649e-05
13 *1071:A2 *156:12 7.58841e-05
14 *1073:B *1071:B1 9.41642e-05
15 *3:13 *156:12 1.73789e-05
16 *57:100 *1071:B1 0.000235821
17 *149:12 *156:12 0.000169095
*RES
1 *1070:X *156:12 21.9071 
2 *156:12 *1075:C 10.1036 
3 *156:12 *1071:B1 23.7643 
*END

*D_NET *157 0.00221029
*CONN
*I *1101:B I *D sky130_fd_sc_hd__or2_1
*I *1076:A1 I *D sky130_fd_sc_hd__o21bai_1
*I *1071:Y O *D sky130_fd_sc_hd__a21oi_1
*CAP
1 *1101:B 9.32459e-05
2 *1076:A1 7.18447e-05
3 *1071:Y 0.00054118
4 *157:6 0.00070627
5 *1076:A1 *1101:A 4.58402e-05
6 *1076:A1 *160:16 0.000146398
7 *1101:B *1074:A 3.50746e-05
8 *157:6 *1072:B 2.36643e-05
9 *157:6 *1074:A 7.47332e-05
10 *157:6 *1074:B 3.06989e-05
11 *157:6 *236:16 0.000306316
12 *157:6 *236:18 0.000135028
*RES
1 *1071:Y *157:6 16.4071 
2 *157:6 *1076:A1 20.2464 
3 *157:6 *1101:B 10.8714 
*END

*D_NET *158 0.000303983
*CONN
*I *1074:A I *D sky130_fd_sc_hd__nand2_1
*I *1072:Y O *D sky130_fd_sc_hd__xnor2_1
*CAP
1 *1074:A 8.01943e-05
2 *1072:Y 8.01943e-05
3 *1074:A *1074:B 3.37871e-05
4 *1101:B *1074:A 3.50746e-05
5 *157:6 *1074:A 7.47332e-05
*RES
1 *1072:Y *1074:A 20.8143 
*END

*D_NET *159 0.00062567
*CONN
*I *1074:B I *D sky130_fd_sc_hd__nand2_1
*I *1073:X O *D sky130_fd_sc_hd__and4_1
*CAP
1 *1074:B 0.000198267
2 *1073:X 0.000198267
3 *1074:B *1072:A 0.000140986
4 *1074:B *1072:B 2.36643e-05
5 *1074:A *1074:B 3.37871e-05
6 *157:6 *1074:B 3.06989e-05
*RES
1 *1073:X *1074:B 22.4393 
*END

*D_NET *160 0.0015414
*CONN
*I *1076:A2 I *D sky130_fd_sc_hd__o21bai_1
*I *1103:A2 I *D sky130_fd_sc_hd__o21a_1
*I *1102:B I *D sky130_fd_sc_hd__nand2_1
*I *1074:Y O *D sky130_fd_sc_hd__nand2_1
*CAP
1 *1076:A2 0
2 *1103:A2 0
3 *1102:B 9.68803e-05
4 *1074:Y 0.000150218
5 *160:24 0.00025974
6 *160:16 0.000313078
7 *1102:B *1102:A 3.20025e-05
8 *1102:B *1147:A3 0.000126278
9 *160:16 *1076:B1_N 3.69047e-06
10 *160:16 *1101:A 8.07792e-06
11 *160:16 *1147:A2 0.000169256
12 *160:16 *161:6 4.38942e-05
13 *160:16 *162:14 0.000100037
14 *160:24 *1076:B1_N 2.84026e-05
15 *160:24 *1103:A1 5.50052e-05
16 *160:24 *236:14 8.43535e-06
17 *1076:A1 *160:16 0.000146398
*RES
1 *1074:Y *160:16 22.7643 
2 *160:16 *160:24 11.3036 
3 *160:24 *1102:B 20.675 
4 *160:24 *1103:A2 9.3 
5 *160:16 *1076:A2 9.3 
*END

*D_NET *161 0.00218753
*CONN
*I *1076:B1_N I *D sky130_fd_sc_hd__o21bai_1
*I *1101:A I *D sky130_fd_sc_hd__or2_1
*I *1075:X O *D sky130_fd_sc_hd__and3_1
*CAP
1 *1076:B1_N 3.95188e-05
2 *1101:A 0.000182706
3 *1075:X 0.000429685
4 *161:6 0.00065191
5 *1076:B1_N *162:14 1.03105e-05
6 *1076:B1_N *236:14 0.000127651
7 *1101:A *1102:A 2.74273e-05
8 *161:6 *939:A 0.000196939
9 *161:6 *236:14 0.000391476
10 *1076:A1 *1101:A 4.58402e-05
11 *160:16 *1076:B1_N 3.69047e-06
12 *160:16 *1101:A 8.07792e-06
13 *160:16 *161:6 4.38942e-05
14 *160:24 *1076:B1_N 2.84026e-05
*RES
1 *1075:X *161:6 17.6393 
2 *161:6 *1101:A 21.0857 
3 *161:6 *1076:B1_N 10.6571 
*END

*D_NET *162 0.00195285
*CONN
*I *1100:B I *D sky130_fd_sc_hd__xnor2_1
*I *1078:A2 I *D sky130_fd_sc_hd__a21o_1
*I *1076:Y O *D sky130_fd_sc_hd__o21bai_1
*CAP
1 *1100:B 2.37514e-05
2 *1078:A2 0.000210814
3 *1076:Y 0.000278199
4 *162:14 0.000512765
5 *1078:A2 *1104:A 0
6 *1078:A2 *305:41 0.000487879
7 *1100:B *305:41 2.37302e-05
8 *162:14 *1100:A 3.9733e-05
9 *162:14 *1147:A2 0.000265633
10 *1076:B1_N *162:14 1.03105e-05
11 *160:16 *162:14 0.000100037
*RES
1 *1076:Y *162:14 23.8536 
2 *162:14 *1078:A2 14.3714 
3 *162:14 *1100:B 9.83571 
*END

*D_NET *163 0.000787659
*CONN
*I *1078:B1 I *D sky130_fd_sc_hd__a21o_1
*I *1077:X O *D sky130_fd_sc_hd__and2_1
*CAP
1 *1078:B1 0.000219744
2 *1077:X 0.000219744
3 *1078:B1 *1072:A 0.000151195
4 *1067:B *1078:B1 7.4854e-05
5 *57:100 *1078:B1 6.97392e-05
6 *152:17 *1078:B1 5.23822e-05
*RES
1 *1077:X *1078:B1 31.725 
*END

*D_NET *164 0.00524423
*CONN
*I *1116:B I *D sky130_fd_sc_hd__and2_1
*I *1092:A2 I *D sky130_fd_sc_hd__a41o_1
*I *1105:B I *D sky130_fd_sc_hd__xor2_1
*I *1078:X O *D sky130_fd_sc_hd__a21o_1
*CAP
1 *1116:B 1.59835e-05
2 *1092:A2 0.000159323
3 *1105:B 0
4 *1078:X 0.000761002
5 *164:23 0.00104802
6 *164:8 0.00163372
7 *1092:A2 *1092:B1 8.43535e-06
8 *1092:A2 *1118:A 5.49995e-05
9 *1092:A2 *178:12 0.000100248
10 *1092:A2 *202:8 7.74068e-05
11 *164:8 *966:A 9.99989e-05
12 *164:8 *967:A1 3.13225e-05
13 *164:8 *1072:A 3.25247e-05
14 *164:8 *241:123 0
15 *164:8 *241:138 7.17455e-05
16 *164:8 *316:62 7.94526e-05
17 *164:23 *1095:B 8.2731e-05
18 *164:23 *1096:A 5.54817e-06
19 *164:23 *1112:A2 0.000123295
20 *164:23 *1115:A2 0
21 *164:23 *269:90 0
22 *164:23 *316:22 0
23 *970:D_N *164:8 0.000103267
24 *1092:A1 *1092:A2 6.05161e-06
25 *1098:A *164:23 0
26 *1116:A *164:23 2.59355e-05
27 *57:100 *164:8 3.17148e-05
28 *57:121 *164:8 0.000473153
29 *57:142 *164:8 0.000218354
30 *79:10 *164:8 0
31 *79:25 *164:23 0
32 *85:17 *164:8 0
33 *85:17 *164:23 0
34 *141:24 *164:23 0
*RES
1 *1078:X *164:8 30.6214 
2 *164:8 *1105:B 13.8 
3 *164:8 *164:23 20.1964 
4 *164:23 *1092:A2 21.1214 
5 *164:23 *1116:B 9.72857 
*END

*D_NET *165 0.00104514
*CONN
*I *1083:A I *D sky130_fd_sc_hd__and3_2
*I *1084:A1 I *D sky130_fd_sc_hd__a21o_1
*I *1079:X O *D sky130_fd_sc_hd__or3_1
*CAP
1 *1083:A 0
2 *1084:A1 0.000221368
3 *1079:X 0.000184839
4 *165:16 0.000406207
5 *1084:A1 *1084:B1 0.000128172
6 *1084:A1 *170:10 2.51343e-06
7 *165:16 *1083:B 3.73361e-05
8 *165:16 *1083:C 5.4959e-05
9 *165:16 *169:14 5.46383e-06
10 *107:12 *165:16 4.27842e-06
*RES
1 *1079:X *165:16 22.1571 
2 *165:16 *1084:A1 21.4071 
3 *165:16 *1083:A 9.3 
*END

*D_NET *166 0.000199557
*CONN
*I *1081:B1 I *D sky130_fd_sc_hd__a31o_1
*I *1080:X O *D sky130_fd_sc_hd__and3_1
*CAP
1 *1081:B1 6.82672e-05
2 *1080:X 6.82672e-05
3 *1080:C *1081:B1 0
4 *1081:A1 *1081:B1 3.57366e-05
5 *136:6 *1081:B1 2.72859e-05
*RES
1 *1080:X *1081:B1 19.975 
*END

*D_NET *167 0.00425412
*CONN
*I *1084:B1 I *D sky130_fd_sc_hd__a21o_1
*I *1083:B I *D sky130_fd_sc_hd__and3_2
*I *1081:X O *D sky130_fd_sc_hd__a31o_1
*CAP
1 *1084:B1 0.000182128
2 *1083:B 0.000104434
3 *1081:X 0.00105689
4 *167:14 0.00134345
5 *1083:B *1083:C 3.51224e-06
6 *167:14 *1021:B 0
7 *167:14 *1137:A2 0
8 *167:14 *1212:A 0
9 *167:14 *233:69 0.000265316
10 *167:14 *234:19 3.04266e-05
11 *167:14 *235:48 0
12 *977:D *167:14 0.000148514
13 *1012:A2 *167:14 7.08001e-05
14 *1028:A1 *167:14 0
15 *1029:C *167:14 0.000235663
16 *1081:A1 *167:14 5.52302e-05
17 *1084:A1 *1084:B1 0.000128172
18 *60:8 *167:14 9.77824e-05
19 *60:23 *167:14 0.000154057
20 *61:95 *167:14 0
21 *71:10 *167:14 4.01647e-05
22 *94:16 *167:14 7.73758e-05
23 *107:12 *167:14 0.000101456
24 *109:10 *167:14 0.000121411
25 *114:12 *167:14 0
26 *165:16 *1083:B 3.73361e-05
*RES
1 *1081:X *167:14 35.4607 
2 *167:14 *1083:B 15.1571 
3 *167:14 *1084:B1 17.4964 
*END

*D_NET *168 0.00179842
*CONN
*I *1084:A2 I *D sky130_fd_sc_hd__a21o_1
*I *1083:C I *D sky130_fd_sc_hd__and3_2
*I *1082:Y O *D sky130_fd_sc_hd__o21ai_1
*CAP
1 *1084:A2 0.0002236
2 *1083:C 0.000418247
3 *1082:Y 8.90685e-05
4 *168:8 0.000730915
5 *1084:A2 *1212:A 0.000101178
6 *168:8 *1212:A 0.000176941
7 *1083:B *1083:C 3.51224e-06
8 *165:16 *1083:C 5.4959e-05
*RES
1 *1082:Y *168:8 16.05 
2 *168:8 *1083:C 18.8714 
3 *168:8 *1084:A2 17.6393 
*END

*D_NET *169 0.00275087
*CONN
*I *1090:B1 I *D sky130_fd_sc_hd__a21o_1
*I *1085:A I *D sky130_fd_sc_hd__nor2b_2
*I *1097:A I *D sky130_fd_sc_hd__xnor2_2
*I *1089:A I *D sky130_fd_sc_hd__xor2_1
*I *1083:X O *D sky130_fd_sc_hd__and3_2
*CAP
1 *1090:B1 4.27071e-05
2 *1085:A 0.000128685
3 *1097:A 0.000118421
4 *1089:A 2.39558e-05
5 *1083:X 0.000361119
6 *169:29 0.000384331
7 *169:25 0.000333834
8 *169:14 0.000538978
9 *1085:A *1085:B_N 8.22008e-05
10 *1085:A *171:12 5.49544e-05
11 *1085:A *171:16 0
12 *1089:A *170:10 2.84026e-05
13 *1090:B1 *1091:A 3.72797e-05
14 *169:14 *1088:B 5.6647e-05
15 *169:14 *174:8 6.66813e-05
16 *169:25 *1091:A 4.10843e-05
17 *169:25 *170:10 0.000163361
18 *169:29 *1085:B_N 1.08847e-05
19 *169:29 *1118:B 0
20 *1119:A *1085:A 0
21 *139:56 *1097:A 5.33005e-05
22 *139:56 *169:29 0.000218583
23 *165:16 *169:14 5.46383e-06
*RES
1 *1083:X *169:14 24.0857 
2 *169:14 *1089:A 9.83571 
3 *169:14 *169:25 3.01786 
4 *169:25 *169:29 7.66071 
5 *169:29 *1097:A 15.5679 
6 *169:29 *1085:A 16.5857 
7 *169:25 *1090:B1 10.2643 
*END

*D_NET *170 0.00215228
*CONN
*I *1090:A2 I *D sky130_fd_sc_hd__a21o_1
*I *1085:B_N I *D sky130_fd_sc_hd__nor2b_2
*I *1084:X O *D sky130_fd_sc_hd__a21o_1
*CAP
1 *1090:A2 0
2 *1085:B_N 0.00030348
3 *1084:X 0.000391101
4 *170:10 0.00069458
5 *1085:B_N *1097:B 0
6 *1085:B_N *293:16 0
7 *170:10 *1091:A 0.000286176
8 *1084:A1 *170:10 2.51343e-06
9 *1085:A *1085:B_N 8.22008e-05
10 *1089:A *170:10 2.84026e-05
11 *139:56 *1085:B_N 0.000189577
12 *169:25 *170:10 0.000163361
13 *169:29 *1085:B_N 1.08847e-05
*RES
1 *1084:X *170:10 17.2643 
2 *170:10 *1085:B_N 24.2286 
3 *170:10 *1090:A2 9.3 
*END

*D_NET *171 0.00178909
*CONN
*I *1119:B I *D sky130_fd_sc_hd__nand2_1
*I *1086:B I *D sky130_fd_sc_hd__xor2_2
*I *1118:B I *D sky130_fd_sc_hd__nand2_1
*I *1085:Y O *D sky130_fd_sc_hd__nor2b_2
*CAP
1 *1119:B 0
2 *1086:B 0
3 *1118:B 0.000173739
4 *1085:Y 0.000308577
5 *171:16 0.000252494
6 *171:12 0.000387331
7 *1118:B *1092:A4 9.58689e-05
8 *1118:B *1118:A 5.46383e-06
9 *1118:B *295:10 0.000194042
10 *171:12 *1120:C1 5.52238e-05
11 *171:16 *1134:A1 0
12 *171:16 *295:10 0.000129868
13 *1085:A *171:12 5.49544e-05
14 *1085:A *171:16 0
15 *1119:A *1118:B 2.8266e-06
16 *1119:A *171:12 6.29133e-05
17 *1119:A *171:16 4.29272e-05
18 *1198:A *171:12 2.286e-05
19 *169:29 *1118:B 0
*RES
1 *1085:Y *171:12 14.925 
2 *171:12 *171:16 6.75 
3 *171:16 *1118:B 17.7286 
4 *171:16 *1086:B 4.5 
5 *171:12 *1119:B 9.3 
*END

*D_NET *172 0.00308349
*CONN
*I *1134:A2 I *D sky130_fd_sc_hd__o21a_1
*I *1096:A I *D sky130_fd_sc_hd__inv_2
*I *1117:B I *D sky130_fd_sc_hd__nor2_1
*I *1092:A3 I *D sky130_fd_sc_hd__a41o_1
*I *1086:X O *D sky130_fd_sc_hd__xor2_2
*CAP
1 *1134:A2 0.000267024
2 *1096:A 0.000301838
3 *1117:B 3.89153e-05
4 *1092:A3 0.000185848
5 *1086:X 0
6 *172:34 0.000838822
7 *172:6 0.000256922
8 *172:4 0.000302119
9 *1092:A3 *202:8 1.6806e-05
10 *1092:A3 *202:21 0.000103466
11 *1092:A3 *204:14 5.52302e-05
12 *1096:A *1120:C1 0
13 *1096:A *1122:A3 0
14 *1096:A *1134:B1 0
15 *1096:A *182:14 7.89362e-05
16 *1096:A *202:21 0
17 *1096:A *316:22 0
18 *1117:B *1120:A2 2.89016e-05
19 *1117:B *1120:B1 2.61378e-05
20 *1117:B *204:14 0.000126572
21 *1134:A2 *1120:C1 7.02611e-05
22 *1134:A2 *1134:B1 0
23 *1134:A2 *1135:B 8.17614e-05
24 *1134:A2 *316:22 0
25 *172:6 *1120:A2 0
26 *172:6 *204:14 0
27 *172:34 *1120:A1 1.24368e-05
28 *172:34 *1120:A2 0.000226507
29 *172:34 *183:12 2.57552e-06
30 *1098:A *1096:A 5.68674e-05
31 *1203:A *1134:A2 0
32 *164:23 *1096:A 5.54817e-06
*RES
1 *1086:X *172:4 9.3 
2 *172:4 *172:6 0.732143 
3 *172:6 *1092:A3 21.9964 
4 *172:6 *1117:B 11.0857 
5 *172:4 *172:34 8.33929 
6 *172:34 *1096:A 19.3893 
7 *172:34 *1134:A2 18.8714 
*END

*D_NET *173 0.000483919
*CONN
*I *1088:B I *D sky130_fd_sc_hd__nor2_2
*I *1087:Y O *D sky130_fd_sc_hd__a21oi_1
*CAP
1 *1088:B 0.000172917
2 *1087:Y 0.000172917
3 *1088:A *1088:B 2.48421e-05
4 *118:27 *1088:B 5.65955e-05
5 *169:14 *1088:B 5.6647e-05
*RES
1 *1087:Y *1088:B 30.7429 
*END

*D_NET *174 0.00180306
*CONN
*I *1097:B I *D sky130_fd_sc_hd__xnor2_2
*I *1091:A I *D sky130_fd_sc_hd__and2_1
*I *1089:B I *D sky130_fd_sc_hd__xor2_1
*I *1088:Y O *D sky130_fd_sc_hd__nor2_2
*CAP
1 *1097:B 8.38924e-05
2 *1091:A 0.000297401
3 *1089:B 0
4 *1088:Y 6.09635e-05
5 *174:17 0.000415524
6 *174:8 9.51939e-05
7 *1091:A *1091:B 5.88058e-05
8 *1091:A *1092:A4 0.000242476
9 *1097:B *293:16 5.09564e-05
10 *174:8 *293:16 5.1601e-05
11 *174:17 *293:16 1.50223e-05
12 *1085:B_N *1097:B 0
13 *1090:B1 *1091:A 3.72797e-05
14 *169:14 *174:8 6.66813e-05
15 *169:25 *1091:A 4.10843e-05
16 *170:10 *1091:A 0.000286176
*RES
1 *1088:Y *174:8 15.7464 
2 *174:8 *1089:B 13.8 
3 *174:8 *174:17 0.732143 
4 *174:17 *1091:A 20.2643 
5 *174:17 *1097:B 15.7464 
*END

*D_NET *175 0.00158967
*CONN
*I *1092:A4 I *D sky130_fd_sc_hd__a41o_1
*I *1089:X O *D sky130_fd_sc_hd__xor2_1
*CAP
1 *1092:A4 0.000349354
2 *1089:X 0.000349354
3 *1092:A4 *1091:B 0.000143375
4 *1092:A4 *1092:B1 0.000371907
5 *1092:A4 *1118:A 3.73361e-05
6 *1091:A *1092:A4 0.000242476
7 *1118:B *1092:A4 9.58689e-05
*RES
1 *1089:X *1092:A4 26.9571 
*END

*D_NET *176 0.000328816
*CONN
*I *1091:B I *D sky130_fd_sc_hd__and2_1
*I *1090:X O *D sky130_fd_sc_hd__a21o_1
*CAP
1 *1091:B 6.33177e-05
2 *1090:X 6.33177e-05
3 *1091:A *1091:B 5.88058e-05
4 *1092:A4 *1091:B 0.000143375
*RES
1 *1090:X *1091:B 20.3857 
*END

*D_NET *177 0.00128499
*CONN
*I *1092:B1 I *D sky130_fd_sc_hd__a41o_1
*I *1091:X O *D sky130_fd_sc_hd__and2_1
*CAP
1 *1092:B1 0.000401523
2 *1091:X 0.000401523
3 *1092:B1 *1118:A 4.49036e-05
4 *1092:A1 *1092:B1 5.66971e-05
5 *1092:A2 *1092:B1 8.43535e-06
6 *1092:A4 *1092:B1 0.000371907
*RES
1 *1091:X *1092:B1 24.9214 
*END

*D_NET *178 0.00203886
*CONN
*I *1098:B I *D sky130_fd_sc_hd__xnor2_1
*I *1094:A2 I *D sky130_fd_sc_hd__a21oi_1
*I *1111:C1 I *D sky130_fd_sc_hd__o211a_1
*I *1092:X O *D sky130_fd_sc_hd__a41o_1
*CAP
1 *1098:B 0.000104086
2 *1094:A2 0
3 *1111:C1 0.0001955
4 *1092:X 0
5 *178:12 0.000449143
6 *178:4 0.000357729
7 *1111:C1 *1094:B1 5.52238e-05
8 *1111:C1 *1095:B 0.00014285
9 *1111:C1 *295:10 0
10 *178:12 *295:10 0
11 *1092:A1 *178:12 0.00016436
12 *1092:A2 *178:12 0.000100248
13 *1098:A *1098:B 5.50052e-05
14 *1098:A *1111:C1 5.71472e-05
15 *1111:A2 *1111:C1 1.02504e-05
16 *1111:B1 *1111:C1 6.16744e-05
17 *118:27 *1111:C1 0
18 *119:6 *1111:C1 5.03772e-05
19 *119:21 *1111:C1 3.68997e-05
20 *141:24 *178:12 0.000198368
*RES
1 *1092:X *178:4 9.3 
2 *178:4 *178:12 14.3214 
3 *178:12 *1111:C1 23.2643 
4 *178:12 *1094:A2 9.3 
5 *178:4 *1098:B 11.2821 
*END

*D_NET *179 0.00217448
*CONN
*I *1094:B1 I *D sky130_fd_sc_hd__a21oi_1
*I *1110:A2 I *D sky130_fd_sc_hd__o21a_1
*I *1093:X O *D sky130_fd_sc_hd__and2b_1
*CAP
1 *1094:B1 0.000148594
2 *1110:A2 0.000194287
3 *1093:X 0.000237398
4 *179:8 0.00058028
5 *179:8 *200:75 0.000357054
6 *1095:A *1094:B1 1.31516e-05
7 *1110:A1 *1110:A2 0.00019484
8 *1111:A1 *1094:B1 5.41794e-05
9 *1111:A1 *1110:A2 0.000101545
10 *1111:A2 *1094:B1 2.18827e-05
11 *1111:A2 *1110:A2 4.03318e-05
12 *1111:B1 *1094:B1 6.42242e-05
13 *1111:C1 *1094:B1 5.52238e-05
14 *103:19 *1110:A2 7.79781e-06
15 *119:21 *1094:B1 5.52238e-05
16 *141:24 *1094:B1 4.84667e-05
17 *141:24 *1110:A2 0
*RES
1 *1093:X *179:8 17.2107 
2 *179:8 *1110:A2 18.175 
3 *179:8 *1094:B1 17.1929 
*END

*D_NET *180 0.000902041
*CONN
*I *1095:B I *D sky130_fd_sc_hd__xnor2_2
*I *1094:Y O *D sky130_fd_sc_hd__a21oi_1
*CAP
1 *1095:B 0.000273447
2 *1094:Y 0.000273447
3 *1098:A *1095:B 6.19295e-05
4 *1111:C1 *1095:B 0.00014285
5 *141:24 *1095:B 6.76365e-05
6 *164:23 *1095:B 8.2731e-05
*RES
1 *1094:Y *1095:B 33.8857 
*END

*D_NET *181 0.00201813
*CONN
*I *1125:C_N I *D sky130_fd_sc_hd__or3b_2
*I *1113:A I *D sky130_fd_sc_hd__nand3_2
*I *1123:S I *D sky130_fd_sc_hd__mux2_1
*I *1115:A1 I *D sky130_fd_sc_hd__a21oi_2
*I *1095:Y O *D sky130_fd_sc_hd__xnor2_2
*CAP
1 *1125:C_N 0.000186752
2 *1113:A 2.64124e-05
3 *1123:S 0
4 *1115:A1 0
5 *1095:Y 0.000101021
6 *181:32 0.000440541
7 *181:21 0.000381507
8 *181:8 0.000255151
9 *1113:A *1113:B 6.68086e-05
10 *1125:C_N *1126:A3 3.04311e-05
11 *1125:C_N *192:18 8.54035e-05
12 *1125:C_N *207:10 5.64914e-05
13 *181:8 *200:75 4.64868e-05
14 *181:21 *1123:A0 1.00477e-05
15 *181:21 *200:75 3.08664e-05
16 *181:21 *316:22 8.99065e-05
17 *181:32 *1113:B 3.96825e-05
18 *181:32 *1209:A 3.14219e-05
19 *181:32 *193:14 0.000139202
*RES
1 *1095:Y *181:8 11.0857 
2 *181:8 *1115:A1 9.3 
3 *181:8 *181:21 12.0893 
4 *181:21 *1123:S 9.3 
5 *181:21 *181:32 4.26786 
6 *181:32 *1113:A 10.2643 
7 *181:32 *1125:C_N 21.9071 
*END

*D_NET *182 0.00130383
*CONN
*I *1107:A I *D sky130_fd_sc_hd__nor4_1
*I *1122:A1 I *D sky130_fd_sc_hd__o31a_1
*I *1096:Y O *D sky130_fd_sc_hd__inv_2
*CAP
1 *1107:A 4.44197e-05
2 *1122:A1 3.77607e-05
3 *1096:Y 0.000413061
4 *182:14 0.000495241
5 *1107:A *1107:C 5.45307e-05
6 *1122:A1 *1107:C 7.86187e-05
7 *1122:A1 *1122:B1 5.46383e-06
8 *182:14 *1107:C 2.60585e-05
9 *182:14 *184:8 6.9741e-05
10 *1096:A *182:14 7.89362e-05
*RES
1 *1096:Y *182:14 24.4071 
2 *182:14 *1122:A1 11.2107 
3 *182:14 *1107:A 10.2464 
*END

*D_NET *183 0.0035805
*CONN
*I *1121:A I *D sky130_fd_sc_hd__xnor2_2
*I *1107:B I *D sky130_fd_sc_hd__nor4_1
*I *1122:A2 I *D sky130_fd_sc_hd__o31a_1
*I *1097:Y O *D sky130_fd_sc_hd__xnor2_2
*CAP
1 *1121:A 5.15219e-05
2 *1107:B 0.000101951
3 *1122:A2 0
4 *1097:Y 0.000901933
5 *183:22 0.000256725
6 *183:12 0.00110823
7 *1107:B *1107:C 0.000216077
8 *1121:A *1120:A1 5.7661e-06
9 *183:12 *1120:A1 4.22023e-05
10 *183:12 *1120:A2 1.16543e-05
11 *183:12 *1120:B1 0.000130403
12 *183:12 *1121:B 7.88091e-05
13 *183:12 *204:14 0.000364509
14 *183:22 *1107:C 9.58632e-05
15 *183:22 *1122:A3 3.75868e-05
16 *183:22 *184:8 6.01916e-05
17 *139:56 *183:12 0.000114506
18 *172:34 *183:12 2.57552e-06
*RES
1 *1097:Y *183:12 22.7286 
2 *183:12 *183:22 11.8214 
3 *183:22 *1122:A2 9.3 
4 *183:22 *1107:B 11.4786 
5 *183:12 *1121:A 10.3357 
*END

*D_NET *184 0.000987106
*CONN
*I *1107:C I *D sky130_fd_sc_hd__nor4_1
*I *1122:B1 I *D sky130_fd_sc_hd__o31a_1
*I *1098:Y O *D sky130_fd_sc_hd__xnor2_1
*CAP
1 *1107:C 9.32842e-05
2 *1122:B1 1.79576e-05
3 *1098:Y 7.90386e-05
4 *184:8 0.00019028
5 *1107:A *1107:C 5.45307e-05
6 *1107:B *1107:C 0.000216077
7 *1122:A1 *1107:C 7.86187e-05
8 *1122:A1 *1122:B1 5.46383e-06
9 *182:14 *1107:C 2.60585e-05
10 *182:14 *184:8 6.9741e-05
11 *183:22 *1107:C 9.58632e-05
12 *183:22 *184:8 6.01916e-05
*RES
1 *1098:Y *184:8 11.4964 
2 *184:8 *1122:B1 9.72857 
3 *184:8 *1107:C 12.7107 
*END

*D_NET *185 0.00163553
*CONN
*I *1100:A I *D sky130_fd_sc_hd__xnor2_1
*I *1099:Y O *D sky130_fd_sc_hd__xnor2_1
*CAP
1 *1100:A 0.000382287
2 *1099:Y 0.000382287
3 *1100:A *1147:A2 2.53116e-05
4 *1100:A *235:80 0.000450218
5 *1067:A *1100:A 3.09985e-05
6 *1067:B *1100:A 9.67754e-05
7 *1078:A1 *1100:A 0.000227921
8 *162:14 *1100:A 3.9733e-05
*RES
1 *1099:Y *1100:A 36.6893 
*END

*D_NET *186 0.000726876
*CONN
*I *1127:B1 I *D sky130_fd_sc_hd__a21oi_1
*I *1104:A I *D sky130_fd_sc_hd__and3_1
*I *1100:Y O *D sky130_fd_sc_hd__xnor2_1
*CAP
1 *1127:B1 4.82972e-05
2 *1104:A 5.12225e-05
3 *1100:Y 9.09581e-05
4 *186:8 0.000190478
5 *1104:A *305:41 0.000106512
6 *1127:B1 *1104:B 1.21258e-05
7 *1127:B1 *1104:C 8.29063e-05
8 *1127:B1 *1127:A1 1.21258e-05
9 *1127:B1 *1127:A2 4.08637e-05
10 *1127:B1 *190:24 5.33005e-05
11 *1127:B1 *305:41 6.91613e-06
12 *186:8 *1104:B 1.24368e-05
13 *186:8 *1127:A1 0
14 *186:8 *190:24 1.87331e-05
15 *1078:A2 *1104:A 0
*RES
1 *1100:Y *186:8 11.3893 
2 *186:8 *1104:A 11.6214 
3 *186:8 *1127:B1 10.6571 
*END

*D_NET *187 0.00128279
*CONN
*I *1103:A1 I *D sky130_fd_sc_hd__o21a_1
*I *1102:A I *D sky130_fd_sc_hd__nand2_1
*I *1101:X O *D sky130_fd_sc_hd__or2_1
*CAP
1 *1103:A1 0.000175862
2 *1102:A 0.000173921
3 *1101:X 0
4 *187:4 0.000349783
5 *1102:A *1147:A3 0.000261851
6 *1103:A1 *1103:B1 5.46383e-06
7 *1103:A1 *1145:A1 7.58841e-05
8 *1103:A1 *1147:A3 9.96553e-05
9 *1103:A1 *236:14 2.59355e-05
10 *1101:A *1102:A 2.74273e-05
11 *1102:B *1102:A 3.20025e-05
12 *160:24 *1103:A1 5.50052e-05
*RES
1 *1101:X *187:4 9.3 
2 *187:4 *1102:A 22.4964 
3 *187:4 *1103:A1 21.55 
*END

*D_NET *188 0.00117371
*CONN
*I *1127:A1 I *D sky130_fd_sc_hd__a21oi_1
*I *1104:B I *D sky130_fd_sc_hd__and3_1
*I *1102:Y O *D sky130_fd_sc_hd__nand2_1
*CAP
1 *1127:A1 0.000179557
2 *1104:B 4.786e-05
3 *1102:Y 0.000172006
4 *188:12 0.000399423
5 *1127:A1 *1127:A2 1.98663e-05
6 *1127:A1 *190:24 6.43635e-05
7 *188:12 *1149:A1 2.85321e-05
8 *188:12 *189:10 7.58841e-05
9 *188:12 *235:70 7.58841e-05
10 *188:12 *235:80 7.36469e-05
11 *1127:B1 *1104:B 1.21258e-05
12 *1127:B1 *1127:A1 1.21258e-05
13 *186:8 *1104:B 1.24368e-05
14 *186:8 *1127:A1 0
*RES
1 *1102:Y *188:12 21.1036 
2 *188:12 *1104:B 9.83571 
3 *188:12 *1127:A1 12.1036 
*END

*D_NET *189 0.00131956
*CONN
*I *1127:A2 I *D sky130_fd_sc_hd__a21oi_1
*I *1104:C I *D sky130_fd_sc_hd__and3_1
*I *1103:X O *D sky130_fd_sc_hd__o21a_1
*CAP
1 *1127:A2 7.86203e-05
2 *1104:C 1.72406e-05
3 *1103:X 0.000196147
4 *189:10 0.000292007
5 *1104:C *305:41 8.29063e-05
6 *1127:A2 *190:24 1.98839e-05
7 *1127:A2 *305:41 0.000180777
8 *189:10 *1128:B 7.5196e-05
9 *189:10 *232:150 9.0267e-05
10 *189:10 *235:70 6.69941e-05
11 *1127:A1 *1127:A2 1.98663e-05
12 *1127:B1 *1104:C 8.29063e-05
13 *1127:B1 *1127:A2 4.08637e-05
14 *188:12 *189:10 7.58841e-05
*RES
1 *1103:X *189:10 22.9786 
2 *189:10 *1104:C 10.1036 
3 *189:10 *1127:A2 11.4964 
*END

*D_NET *190 0.00561705
*CONN
*I *1128:A I *D sky130_fd_sc_hd__nor2_1
*I *1131:A I *D sky130_fd_sc_hd__or2_1
*I *1106:A I *D sky130_fd_sc_hd__nand2_2
*I *1104:X O *D sky130_fd_sc_hd__and3_1
*CAP
1 *1128:A 0
2 *1131:A 0.000203209
3 *1106:A 0.000191745
4 *1104:X 0.000567699
5 *190:30 0.00101814
6 *190:24 0.00119088
7 *1106:A *192:18 1.84368e-05
8 *1106:A *327:36 1.9774e-05
9 *1131:A *235:16 2.12733e-05
10 *1131:A *235:70 6.3629e-05
11 *1131:A *327:20 7.45464e-05
12 *1131:A *327:36 0.000122705
13 *190:24 *1128:B 4.09607e-05
14 *190:24 *1147:A2 0
15 *190:24 *1147:A3 9.94172e-05
16 *190:24 *1157:CLK 5.49489e-05
17 *190:24 *232:150 4.31391e-05
18 *190:30 *958:A 0.000356268
19 *190:30 *967:A2 0
20 *190:30 *1147:A2 0.000417177
21 *190:30 *1157:CLK 4.33899e-05
22 *190:30 *1159:CLK 0
23 *190:30 *270:12 0.000190459
24 *190:30 *282:54 0.000182598
25 *973:B1 *190:30 0
26 *1001:A *190:30 4.71938e-05
27 *1003:C1 *190:30 0.000124157
28 *1127:A1 *190:24 6.43635e-05
29 *1127:A2 *190:24 1.98839e-05
30 *1127:B1 *190:24 5.33005e-05
31 *90:24 *1106:A 3.23506e-05
32 *90:24 *1131:A 0.000267731
33 *90:24 *190:30 6.89449e-05
34 *186:8 *190:24 1.87331e-05
*RES
1 *1104:X *190:24 30.3328 
2 *190:24 *190:30 19.4018 
3 *190:30 *1106:A 16.8446 
4 *190:30 *1131:A 19.8357 
5 *190:24 *1128:A 9.3 
*END

*D_NET *191 0.00213835
*CONN
*I *1106:B I *D sky130_fd_sc_hd__nand2_2
*I *1131:B I *D sky130_fd_sc_hd__or2_1
*I *1105:X O *D sky130_fd_sc_hd__xor2_1
*CAP
1 *1106:B 0
2 *1131:B 0.000547568
3 *1105:X 0.000196069
4 *191:8 0.000743637
5 *1131:B *1129:B2 0.000100547
6 *1131:B *1132:A1 0.000127165
7 *1131:B *1132:A2 1.47972e-05
8 *1131:B *1132:A3 0.000204026
9 *1131:B *1132:B2 2.64262e-06
10 *1131:B *192:6 5.68722e-05
11 *1131:B *327:20 3.17389e-05
12 *191:8 *327:36 0.000113283
*RES
1 *1105:X *191:8 13.1393 
2 *191:8 *1131:B 26.2464 
3 *191:8 *1106:B 9.3 
*END

*D_NET *192 0.00633191
*CONN
*I *1132:A1 I *D sky130_fd_sc_hd__a32o_1
*I *1135:A I *D sky130_fd_sc_hd__xnor2_1
*I *1120:A1 I *D sky130_fd_sc_hd__o211a_1
*I *1122:A3 I *D sky130_fd_sc_hd__o31a_1
*I *1107:D I *D sky130_fd_sc_hd__nor4_1
*I *1106:Y O *D sky130_fd_sc_hd__nand2_2
*CAP
1 *1132:A1 4.00565e-05
2 *1135:A 0
3 *1120:A1 0.000242189
4 *1122:A3 0.000129331
5 *1107:D 0.00016528
6 *1106:Y 1.95494e-05
7 *192:35 0.000636294
8 *192:33 0.000475103
9 *192:18 0.00123879
10 *192:6 0.000922788
11 *1120:A1 *1120:A2 3.57366e-05
12 *1120:A1 *1121:B 8.07313e-05
13 *1122:A3 *316:22 0.000220636
14 *1132:A1 *1132:B1 2.5468e-05
15 *1132:A1 *1132:B2 2.57862e-05
16 *192:6 *1132:B2 2.51343e-06
17 *192:18 *1124:A2 0.000108564
18 *192:18 *1124:B1 0.00019484
19 *192:18 *1124:C1 1.18064e-05
20 *192:18 *1136:B2 0.000482652
21 *192:18 *207:10 1.02504e-05
22 *192:18 *210:16 0
23 *192:33 *1136:B2 0.00020006
24 *192:33 *207:10 0
25 *192:33 *327:20 0
26 *192:35 *1135:B 0.000139637
27 *192:35 *207:10 9.71197e-05
28 *1096:A *1122:A3 0
29 *1106:A *192:18 1.84368e-05
30 *1121:A *1120:A1 5.7661e-06
31 *1125:C_N *192:18 8.54035e-05
32 *1131:B *1132:A1 0.000127165
33 *1131:B *192:6 5.68722e-05
34 *90:24 *192:18 0.000440861
35 *172:34 *1120:A1 1.24368e-05
36 *183:12 *1120:A1 4.22023e-05
37 *183:22 *1122:A3 3.75868e-05
*RES
1 *1106:Y *192:6 9.83571 
2 *192:6 *192:18 22.1607 
3 *192:18 *1107:D 15.9786 
4 *192:18 *192:33 9.01786 
5 *192:33 *192:35 4.64286 
6 *192:35 *1122:A3 21.1571 
7 *192:35 *1120:A1 13.9786 
8 *192:33 *1135:A 9.3 
9 *192:6 *1132:A1 10.6571 
*END

*D_NET *193 0.00184108
*CONN
*I *1125:A I *D sky130_fd_sc_hd__or3b_2
*I *1123:A1 I *D sky130_fd_sc_hd__mux2_1
*I *1209:A I *D sky130_fd_sc_hd__buf_1
*I *1107:Y O *D sky130_fd_sc_hd__nor4_1
*CAP
1 *1125:A 0.000124223
2 *1123:A1 0
3 *1209:A 0.000137802
4 *1107:Y 4.2068e-05
5 *193:14 0.000300688
6 *193:8 0.000329177
7 *1125:A *1125:B 1.58163e-05
8 *1209:A *1113:B 0.000182002
9 *193:8 *207:10 7.89362e-05
10 *193:14 *1113:B 4.06286e-05
11 *193:14 *1123:A0 0.000176791
12 *193:14 *207:10 0.000242321
13 *193:14 *208:12 0
14 *181:32 *1209:A 3.14219e-05
15 *181:32 *193:14 0.000139202
*RES
1 *1107:Y *193:8 14.8357 
2 *193:8 *193:14 9.01786 
3 *193:14 *1209:A 12.3179 
4 *193:14 *1123:A1 9.3 
5 *193:8 *1125:A 15.8893 
*END

*D_NET *194 0.0002953
*CONN
*I *1112:A1 I *D sky130_fd_sc_hd__a211o_1
*I *1108:X O *D sky130_fd_sc_hd__or2_1
*CAP
1 *1112:A1 5.46663e-05
2 *1108:X 5.46663e-05
3 *1112:A1 *1112:A2 0.00012501
4 *1112:A1 *1112:B1 6.09572e-05
*RES
1 *1108:X *1112:A1 29.2429 
*END

*D_NET *195 0.000735049
*CONN
*I *1112:A2 I *D sky130_fd_sc_hd__a211o_1
*I *1109:Y O *D sky130_fd_sc_hd__nand2_1
*CAP
1 *1112:A2 0.000177394
2 *1109:Y 0.000177394
3 *1108:B *1112:A2 5.71472e-05
4 *1109:A *1112:A2 4.59075e-05
5 *1112:A1 *1112:A2 0.00012501
6 *79:25 *1112:A2 2.89016e-05
7 *164:23 *1112:A2 0.000123295
*RES
1 *1109:Y *1112:A2 31.0107 
*END

*D_NET *196 0.000413432
*CONN
*I *1112:B1 I *D sky130_fd_sc_hd__a211o_1
*I *1110:X O *D sky130_fd_sc_hd__o21a_1
*CAP
1 *1112:B1 0.000105501
2 *1110:X 0.000105501
3 *1112:B1 *315:36 1.21258e-05
4 *1112:A1 *1112:B1 6.09572e-05
5 *79:25 *1112:B1 6.05161e-06
6 *141:24 *1112:B1 0.000123295
*RES
1 *1110:X *1112:B1 29.7786 
*END

*D_NET *197 0.000439361
*CONN
*I *1112:C1 I *D sky130_fd_sc_hd__a211o_1
*I *1111:X O *D sky130_fd_sc_hd__o211a_1
*CAP
1 *1112:C1 0.000101076
2 *1111:X 0.000101076
3 *1112:C1 *269:90 1.39726e-05
4 *1095:A *1112:C1 0.000143155
5 *101:19 *1112:C1 0
6 *141:24 *1112:C1 8.00806e-05
*RES
1 *1111:X *1112:C1 30.3321 
*END

*D_NET *198 0.00258338
*CONN
*I *1113:C I *D sky130_fd_sc_hd__nand3_2
*I *1115:B1 I *D sky130_fd_sc_hd__a21oi_2
*I *1112:X O *D sky130_fd_sc_hd__a211o_1
*CAP
1 *1113:C 0.000203211
2 *1115:B1 0
3 *1112:X 0.000489647
4 *198:12 0.000692858
5 *1113:C *1124:A2 0.000125125
6 *1113:C *1126:A2 2.57744e-05
7 *1113:C *1126:A3 6.80593e-05
8 *1113:C *1136:B2 0.000179656
9 *1113:C *200:75 0.000388226
10 *1113:C *201:6 9.41642e-05
11 *198:12 *1124:C1 0.000178437
12 *198:12 *220:30 7.11754e-05
13 *198:12 *269:90 6.70515e-05
14 *1126:C1 *1113:C 0
*RES
1 *1112:X *198:12 25.4071 
2 *198:12 *1115:B1 9.3 
3 *198:12 *1113:C 24.8 
*END

*D_NET *199 0.000919467
*CONN
*I *1114:B I *D sky130_fd_sc_hd__nand2_2
*I *1126:B1 I *D sky130_fd_sc_hd__o311ai_4
*I *1113:Y O *D sky130_fd_sc_hd__nand3_2
*CAP
1 *1114:B 0
2 *1126:B1 4.87019e-05
3 *1113:Y 0.000215195
4 *199:8 0.000263897
5 *1126:B1 *200:10 0.000153047
6 *1126:B1 *327:20 0.000179656
7 *199:8 *200:10 4.58194e-05
8 *1114:A *1126:B1 1.31516e-05
*RES
1 *1113:Y *199:8 12.7286 
2 *199:8 *1126:B1 20.55 
3 *199:8 *1114:B 9.3 
*END

*D_NET *200 0.0108567
*CONN
*I *1138:A I *D sky130_fd_sc_hd__inv_2
*I *1136:A1 I *D sky130_fd_sc_hd__a22o_1
*I *1129:A1 I *D sky130_fd_sc_hd__a22o_1
*I *1132:B1 I *D sky130_fd_sc_hd__a32o_1
*I *1114:Y O *D sky130_fd_sc_hd__nand2_2
*CAP
1 *1138:A 0.000867181
2 *1136:A1 0
3 *1129:A1 0
4 *1132:B1 0.000162202
5 *1114:Y 0.000125122
6 *200:75 0.00224219
7 *200:30 0.000471774
8 *200:16 0.000450538
9 *200:10 0.0016411
10 *1132:B1 *1132:B2 7.65117e-05
11 *1132:B1 *269:90 0.000141734
12 *1132:B1 *315:36 6.22106e-05
13 *1138:A *1137:A2 0.000393956
14 *1138:A *1139:B1 7.6411e-05
15 *1138:A *220:30 0.000143765
16 *200:10 *327:20 2.26424e-05
17 *200:16 *1136:B1 2.89114e-05
18 *200:16 *1136:B2 9.71197e-05
19 *200:16 *212:10 0
20 *200:16 *327:20 8.68569e-05
21 *200:30 *1129:B1 5.33005e-05
22 *200:30 *1133:A1 5.7661e-06
23 *200:30 *1133:B2 4.70981e-05
24 *200:30 *212:10 2.94103e-05
25 *200:30 *212:16 9.87983e-06
26 *200:30 *269:90 0.000236655
27 *200:30 *315:36 5.14628e-05
28 *200:30 *327:20 5.14407e-06
29 *200:75 *201:6 2.2351e-05
30 *200:75 *212:10 0.000184745
31 *200:75 *315:36 0.000397728
32 *1015:A1 *1138:A 0.000132844
33 *1019:C_N *1138:A 9.60939e-05
34 *1020:A *200:75 1.18064e-05
35 *1020:B_N *200:75 8.00806e-05
36 *1028:A2 *1138:A 0.000212373
37 *1031:A1 *1138:A 5.03772e-05
38 *1095:A *200:75 0.000122101
39 *1111:A1 *200:75 5.33005e-05
40 *1111:A2 *200:75 3.67257e-05
41 *1113:C *200:75 0.000388226
42 *1114:A *200:10 0.000153047
43 *1126:B1 *200:10 0.000153047
44 *1126:C1 *200:75 5.52238e-05
45 *1132:A1 *1132:B1 2.5468e-05
46 *1160:D *1138:A 0.000143375
47 *90:24 *1132:B1 0.000247057
48 *90:34 *200:10 4.46689e-05
49 *90:34 *200:16 0
50 *99:34 *200:75 9.69349e-05
51 *114:12 *1138:A 0.000139913
52 *179:8 *200:75 0.000357054
53 *181:8 *200:75 4.64868e-05
54 *181:21 *200:75 3.08664e-05
55 *199:8 *200:10 4.58194e-05
*RES
1 *1114:Y *200:10 17.3 
2 *200:10 *200:16 7.69643 
3 *200:16 *200:30 15.4286 
4 *200:30 *1132:B1 23.0589 
5 *200:30 *1129:A1 9.3 
6 *200:16 *1136:A1 9.3 
7 *200:10 *200:75 39.9107 
8 *200:75 *1138:A 26.9964 
*END

*D_NET *201 0.00101882
*CONN
*I *1124:A2 I *D sky130_fd_sc_hd__o211ai_2
*I *1126:A1 I *D sky130_fd_sc_hd__o311ai_4
*I *1115:Y O *D sky130_fd_sc_hd__a21oi_2
*CAP
1 *1124:A2 0.000161749
2 *1126:A1 0
3 *1115:Y 6.69411e-05
4 *201:6 0.00022869
5 *1124:A2 *1126:A2 0.000137561
6 *1124:A2 *1136:B2 5.58603e-05
7 *1124:A2 *210:16 5.37741e-06
8 *201:6 *1126:A2 1.24368e-05
9 *1113:C *1124:A2 0.000125125
10 *1113:C *201:6 9.41642e-05
11 *192:18 *1124:A2 0.000108564
12 *200:75 *201:6 2.2351e-05
*RES
1 *1115:Y *201:6 10.6571 
2 *201:6 *1126:A1 9.3 
3 *201:6 *1124:A2 22.5143 
*END

*D_NET *202 0.00148178
*CONN
*I *1134:A1 I *D sky130_fd_sc_hd__o21a_1
*I *1117:A I *D sky130_fd_sc_hd__nor2_1
*I *1118:A I *D sky130_fd_sc_hd__nand2_1
*I *1116:X O *D sky130_fd_sc_hd__and2_1
*CAP
1 *1134:A1 0.000153066
2 *1117:A 0
3 *1118:A 0.000122013
4 *1116:X 5.75575e-05
5 *202:21 0.00032278
6 *202:8 0.000349284
7 *1134:A1 *1134:B1 9.14786e-05
8 *1134:A1 *295:10 0
9 *202:21 *1134:B1 2.84494e-05
10 *202:21 *295:10 0
11 *1092:A1 *202:8 6.14702e-06
12 *1092:A1 *202:21 1.06172e-05
13 *1092:A2 *1118:A 5.49995e-05
14 *1092:A2 *202:8 7.74068e-05
15 *1092:A3 *202:8 1.6806e-05
16 *1092:A3 *202:21 0.000103466
17 *1092:A4 *1118:A 3.73361e-05
18 *1092:B1 *1118:A 4.49036e-05
19 *1096:A *202:21 0
20 *1118:B *1118:A 5.46383e-06
21 *171:16 *1134:A1 0
*RES
1 *1116:X *202:8 15.1393 
2 *202:8 *1118:A 16.4071 
3 *202:8 *202:21 3.16071 
4 *202:21 *1117:A 13.8 
5 *202:21 *1134:A1 16.5857 
*END

*D_NET *203 0.000492604
*CONN
*I *1120:A2 I *D sky130_fd_sc_hd__o211a_1
*I *1117:Y O *D sky130_fd_sc_hd__nor2_1
*CAP
1 *1120:A2 6.44554e-05
2 *1117:Y 6.44554e-05
3 *1120:A2 *1120:B1 6.08937e-05
4 *1117:B *1120:A2 2.89016e-05
5 *1120:A1 *1120:A2 3.57366e-05
6 *172:6 *1120:A2 0
7 *172:34 *1120:A2 0.000226507
8 *183:12 *1120:A2 1.16543e-05
*RES
1 *1117:Y *1120:A2 21.2071 
*END

*D_NET *204 0.00199341
*CONN
*I *1120:B1 I *D sky130_fd_sc_hd__o211a_1
*I *1134:B1 I *D sky130_fd_sc_hd__o21a_1
*I *1118:Y O *D sky130_fd_sc_hd__nand2_1
*CAP
1 *1120:B1 5.42434e-05
2 *1134:B1 0.000115584
3 *1118:Y 0.000269376
4 *204:14 0.000439203
5 *1134:B1 *1120:C1 0.000148189
6 *204:14 *295:10 8.31421e-05
7 *1092:A3 *204:14 5.52302e-05
8 *1096:A *1134:B1 0
9 *1117:B *1120:B1 2.61378e-05
10 *1117:B *204:14 0.000126572
11 *1120:A2 *1120:B1 6.08937e-05
12 *1134:A1 *1134:B1 9.14786e-05
13 *1134:A2 *1134:B1 0
14 *172:6 *204:14 0
15 *183:12 *1120:B1 0.000130403
16 *183:12 *204:14 0.000364509
17 *202:21 *1134:B1 2.84494e-05
*RES
1 *1118:Y *204:14 24.3893 
2 *204:14 *1134:B1 21.1571 
3 *204:14 *1120:B1 11.3893 
*END

*D_NET *205 0.0011857
*CONN
*I *1120:C1 I *D sky130_fd_sc_hd__o211a_1
*I *1119:Y O *D sky130_fd_sc_hd__nand2_1
*CAP
1 *1120:C1 0.00042015
2 *1119:Y 0.00042015
3 *1096:A *1120:C1 0
4 *1134:A2 *1120:C1 7.02611e-05
5 *1134:B1 *1120:C1 0.000148189
6 *1198:A *1120:C1 7.17235e-05
7 *171:12 *1120:C1 5.52238e-05
*RES
1 *1119:Y *1120:C1 35.0107 
*END

*D_NET *206 0.000206637
*CONN
*I *1121:B I *D sky130_fd_sc_hd__xnor2_2
*I *1120:X O *D sky130_fd_sc_hd__o211a_1
*CAP
1 *1121:B 2.35482e-05
2 *1120:X 2.35482e-05
3 *1120:A1 *1121:B 8.07313e-05
4 *183:12 *1121:B 7.88091e-05
*RES
1 *1120:X *1121:B 19.9571 
*END

*D_NET *207 0.00273376
*CONN
*I *1126:A2 I *D sky130_fd_sc_hd__o311ai_4
*I *1124:B1 I *D sky130_fd_sc_hd__o211ai_2
*I *1121:Y O *D sky130_fd_sc_hd__xnor2_2
*CAP
1 *1126:A2 0.000139335
2 *1124:B1 0.000145231
3 *1121:Y 0.000504643
4 *207:10 0.000789209
5 *1124:B1 *1124:C1 0.000197269
6 *1124:B1 *210:10 0
7 *207:10 *1123:A0 1.0033e-05
8 *207:10 *1124:C1 6.81083e-05
9 *207:10 *1135:B 2.41972e-05
10 *207:10 *316:22 0
11 *1113:C *1126:A2 2.57744e-05
12 *1124:A2 *1126:A2 0.000137561
13 *1125:C_N *207:10 5.64914e-05
14 *192:18 *1124:B1 0.00019484
15 *192:18 *207:10 1.02504e-05
16 *192:33 *207:10 0
17 *192:35 *207:10 9.71197e-05
18 *193:8 *207:10 7.89362e-05
19 *193:14 *207:10 0.000242321
20 *201:6 *1126:A2 1.24368e-05
*RES
1 *1121:Y *207:10 24.2821 
2 *207:10 *1124:B1 17.3893 
3 *207:10 *1126:A2 16.425 
*END

*D_NET *208 0.00117467
*CONN
*I *1125:B I *D sky130_fd_sc_hd__or3b_2
*I *1123:A0 I *D sky130_fd_sc_hd__mux2_1
*I *1122:X O *D sky130_fd_sc_hd__o31a_1
*CAP
1 *1125:B 8.34943e-05
2 *1123:A0 9.3343e-05
3 *1122:X 0.000242104
4 *208:12 0.000418941
5 *1123:A0 *1113:B 5.65955e-05
6 *1123:A0 *316:22 0
7 *208:12 *316:22 6.75012e-05
8 *1125:A *1125:B 1.58163e-05
9 *181:21 *1123:A0 1.00477e-05
10 *193:14 *1123:A0 0.000176791
11 *193:14 *208:12 0
12 *207:10 *1123:A0 1.0033e-05
*RES
1 *1122:X *208:12 22.2107 
2 *208:12 *1123:A0 20.7821 
3 *208:12 *1125:B 10.2464 
*END

*D_NET *209 0.00108615
*CONN
*I *1124:C1 I *D sky130_fd_sc_hd__o211ai_2
*I *1123:X O *D sky130_fd_sc_hd__mux2_1
*CAP
1 *1124:C1 0.000250357
2 *1123:X 0.000250357
3 *1124:C1 *1113:B 9.55684e-05
4 *1124:C1 *220:30 3.42426e-05
5 *1124:B1 *1124:C1 0.000197269
6 *192:18 *1124:C1 1.18064e-05
7 *198:12 *1124:C1 0.000178437
8 *207:10 *1124:C1 6.81083e-05
*RES
1 *1123:X *1124:C1 33.2607 
*END

*D_NET *210 0.00181387
*CONN
*I *1136:A2 I *D sky130_fd_sc_hd__a22o_1
*I *1129:A2 I *D sky130_fd_sc_hd__a22o_1
*I *1132:B2 I *D sky130_fd_sc_hd__a32o_1
*I *1124:Y O *D sky130_fd_sc_hd__o211ai_2
*CAP
1 *1136:A2 5.70086e-05
2 *1129:A2 0
3 *1132:B2 0.000279343
4 *1124:Y 9.04801e-05
5 *210:16 0.000461627
6 *210:10 0.000329774
7 *1132:B2 *1132:A2 4.53692e-05
8 *1136:A2 *1136:B1 2.89114e-05
9 *1136:A2 *1136:B2 0.000138881
10 *1136:A2 *220:30 2.28598e-05
11 *210:16 *1132:A2 9.25014e-06
12 *210:16 *212:10 4.038e-06
13 *210:16 *212:16 0.000104523
14 *1124:A2 *210:16 5.37741e-06
15 *1124:B1 *210:10 0
16 *1131:B *1132:B2 2.64262e-06
17 *1132:A1 *1132:B2 2.57862e-05
18 *1132:B1 *1132:B2 7.65117e-05
19 *90:24 *1136:A2 4.27935e-05
20 *90:24 *210:10 7.08862e-05
21 *90:24 *210:16 0
22 *90:34 *210:16 1.52978e-05
23 *192:6 *1132:B2 2.51343e-06
24 *192:18 *210:16 0
*RES
1 *1124:Y *210:10 11.1036 
2 *210:10 *210:16 7.69643 
3 *210:16 *1132:B2 18.2464 
4 *210:16 *1129:A2 13.8 
5 *210:10 *1136:A2 11.0679 
*END

*D_NET *211 0.00121303
*CONN
*I *1126:A3 I *D sky130_fd_sc_hd__o311ai_4
*I *1125:X O *D sky130_fd_sc_hd__or3b_2
*CAP
1 *1126:A3 0.000468653
2 *1125:X 0.000468653
3 *1126:A3 *1136:B2 0
4 *1126:A3 *327:20 0
5 *1113:C *1126:A3 6.80593e-05
6 *1114:A *1126:A3 0.000166983
7 *1125:C_N *1126:A3 3.04311e-05
8 *90:34 *1126:A3 1.02504e-05
*RES
1 *1125:X *1126:A3 35.7786 
*END

*D_NET *212 0.00305488
*CONN
*I *1136:B1 I *D sky130_fd_sc_hd__a22o_1
*I *1129:B1 I *D sky130_fd_sc_hd__a22o_1
*I *1132:A2 I *D sky130_fd_sc_hd__a32o_1
*I *1126:Y O *D sky130_fd_sc_hd__o311ai_4
*CAP
1 *1136:B1 0.000127027
2 *1129:B1 1.67213e-05
3 *1132:A2 0.000167966
4 *1126:Y 0.000478356
5 *212:16 0.000333004
6 *212:10 0.000753701
7 *1129:B1 *315:36 2.89016e-05
8 *1132:A2 *1129:B2 0.000190462
9 *1132:A2 *1132:A3 9.35433e-05
10 *1132:A2 *1133:B2 6.05161e-06
11 *1136:B1 *1136:B2 1.02821e-05
12 *212:16 *1129:B2 9.25014e-06
13 *1126:C1 *212:10 0.000116049
14 *1131:B *1132:A2 1.47972e-05
15 *1132:B2 *1132:A2 4.53692e-05
16 *1136:A2 *1136:B1 2.89114e-05
17 *90:34 *212:10 0.000174805
18 *90:34 *212:16 3.5628e-05
19 *200:16 *1136:B1 2.89114e-05
20 *200:16 *212:10 0
21 *200:30 *1129:B1 5.33005e-05
22 *200:30 *212:10 2.94103e-05
23 *200:30 *212:16 9.87983e-06
24 *200:75 *212:10 0.000184745
25 *210:16 *1132:A2 9.25014e-06
26 *210:16 *212:10 4.038e-06
27 *210:16 *212:16 0.000104523
*RES
1 *1126:Y *212:10 21.4071 
2 *212:10 *212:16 2.71429 
3 *212:16 *1132:A2 18.1393 
4 *212:16 *1129:B1 14.3357 
5 *212:10 *1136:B1 15.5857 
*END

*D_NET *213 0.00096385
*CONN
*I *1128:B I *D sky130_fd_sc_hd__nor2_1
*I *1127:Y O *D sky130_fd_sc_hd__a21oi_1
*CAP
1 *1128:B 0.000349582
2 *1127:Y 0.000349582
3 *1128:B *1157:CLK 1.92789e-05
4 *1128:B *1157:D 4.23728e-05
5 *1128:B *232:150 5.94054e-05
6 *1128:B *235:70 2.74721e-05
7 *189:10 *1128:B 7.5196e-05
8 *190:24 *1128:B 4.09607e-05
*RES
1 *1127:Y *1128:B 33.1714 
*END

*D_NET *214 0.00335365
*CONN
*I *1129:B2 I *D sky130_fd_sc_hd__a22o_1
*I *1128:Y O *D sky130_fd_sc_hd__nor2_1
*CAP
1 *1129:B2 0.000633948
2 *1128:Y 0.000633948
3 *1129:B2 *1133:B2 0.000150625
4 *1129:B2 *1147:A3 0.000320031
5 *1129:B2 *1157:D 9.80173e-05
6 *1129:B2 *1159:CLK 0.00028884
7 *1129:B2 *235:70 0.000834166
8 *1129:B2 *327:20 0
9 *1003:B1 *1129:B2 4.79773e-05
10 *1131:B *1129:B2 0.000100547
11 *1132:A2 *1129:B2 0.000190462
12 *90:24 *1129:B2 4.58402e-05
13 *212:16 *1129:B2 9.25014e-06
*RES
1 *1128:Y *1129:B2 45.725 
*END

*D_NET *215 0.00791227
*CONN
*I *1130:B2 I *D sky130_fd_sc_hd__a22o_1
*I *1129:X O *D sky130_fd_sc_hd__a22o_1
*CAP
1 *1130:B2 0.000211633
2 *1129:X 0.00200349
3 *215:16 0.00221512
4 *1130:B2 *921:A 0.000349028
5 *1130:B2 *1007:A 1.32293e-05
6 *1130:B2 *1007:D 5.46383e-06
7 *1130:B2 *234:6 4.73949e-05
8 *1130:B2 *269:36 7.34009e-05
9 *1130:B2 *330:10 0.000149372
10 *215:16 *1013:A 3.08664e-05
11 *215:16 *270:28 0.000138217
12 *215:16 *270:30 0.000135741
13 *215:16 *315:36 0.00070899
14 *1013:B *215:16 0.000140714
15 *1013:C_N *215:16 4.18895e-05
16 *1019:B *215:16 0.000392848
17 *1022:C *215:16 0.000290832
18 *1023:A2 *215:16 9.34943e-05
19 *1023:B1 *215:16 5.62995e-05
20 *1110:B1 *215:16 0.000126639
21 *92:14 *215:16 1.29677e-06
22 *93:10 *1130:B2 0.000270229
23 *94:8 *215:16 9.21519e-05
24 *98:6 *215:16 0.000306317
25 *99:10 *215:16 1.76164e-05
*RES
1 *1129:X *215:16 48.7107 
2 *215:16 *1130:B2 20.9964 
*END

*D_NET *216 0.00103616
*CONN
*I *1132:A3 I *D sky130_fd_sc_hd__a32o_1
*I *1131:X O *D sky130_fd_sc_hd__or2_1
*CAP
1 *1132:A3 0.000221157
2 *1131:X 0.000221157
3 *1132:A3 *1133:B2 1.82549e-05
4 *1132:A3 *1157:RESET_B 0.00010326
5 *1132:A3 *327:20 0.000101545
6 *1131:B *1132:A3 0.000204026
7 *1132:A2 *1132:A3 9.35433e-05
8 *1159:D *1132:A3 7.32173e-05
*RES
1 *1131:X *1132:A3 33.4571 
*END

*D_NET *217 0.000537693
*CONN
*I *1133:B2 I *D sky130_fd_sc_hd__a22o_1
*I *1132:X O *D sky130_fd_sc_hd__a32o_1
*CAP
1 *1133:B2 0.000157832
2 *1132:X 0.000157832
3 *1133:B2 *327:20 0
4 *1129:B2 *1133:B2 0.000150625
5 *1132:A2 *1133:B2 6.05161e-06
6 *1132:A3 *1133:B2 1.82549e-05
7 *200:30 *1133:B2 4.70981e-05
*RES
1 *1132:X *1133:B2 30.4929 
*END

*D_NET *218 0.00175088
*CONN
*I *1135:B I *D sky130_fd_sc_hd__xnor2_1
*I *1134:X O *D sky130_fd_sc_hd__o21a_1
*CAP
1 *1135:B 0.000702161
2 *1134:X 0.000702161
3 *1135:B *316:22 0
4 *1134:A2 *1135:B 8.17614e-05
5 *1203:A *1135:B 0.00010096
6 *192:35 *1135:B 0.000139637
7 *207:10 *1135:B 2.41972e-05
*RES
1 *1134:X *1135:B 39.5643 
*END

*D_NET *219 0.00253785
*CONN
*I *1136:B2 I *D sky130_fd_sc_hd__a22o_1
*I *1135:Y O *D sky130_fd_sc_hd__xnor2_1
*CAP
1 *1136:B2 0.000605384
2 *1135:Y 0.000605384
3 *1136:B2 *327:20 0
4 *1113:C *1136:B2 0.000179656
5 *1124:A2 *1136:B2 5.58603e-05
6 *1126:A3 *1136:B2 0
7 *1136:A2 *1136:B2 0.000138881
8 *1136:B1 *1136:B2 1.02821e-05
9 *90:34 *1136:B2 0.000162572
10 *192:18 *1136:B2 0.000482652
11 *192:33 *1136:B2 0.00020006
12 *200:16 *1136:B2 9.71197e-05
*RES
1 *1135:Y *1136:B2 42.6893 
*END

*D_NET *220 0.00750219
*CONN
*I *1137:B2 I *D sky130_fd_sc_hd__a22o_1
*I *1136:X O *D sky130_fd_sc_hd__a22o_1
*CAP
1 *1137:B2 0
2 *1136:X 0.00237166
3 *220:30 0.00237166
4 *220:30 *1137:A2 0.000137873
5 *220:30 *269:42 5.67624e-05
6 *220:30 *269:90 0.00108022
7 *1015:A1 *220:30 0.000240643
8 *1015:B1_N *220:30 9.78079e-05
9 *1019:A *220:30 4.08637e-05
10 *1019:C_N *220:30 0.000107279
11 *1028:A2 *220:30 0.00044659
12 *1031:A1 *220:30 9.71197e-05
13 *1124:C1 *220:30 3.42426e-05
14 *1136:A2 *220:30 2.28598e-05
15 *1138:A *220:30 0.000143765
16 *90:24 *220:30 0.000181662
17 *198:12 *220:30 7.11754e-05
*RES
1 *1136:X *220:30 47.2464 
2 *220:30 *1137:B2 9.3 
*END

*D_NET *221 0.00162144
*CONN
*I *1139:B2 I *D sky130_fd_sc_hd__a22o_1
*I *1138:Y O *D sky130_fd_sc_hd__inv_2
*CAP
1 *1139:B2 0.000576835
2 *1138:Y 0.000576835
3 *1139:B2 *1139:A1 0.000147475
4 *1139:B2 *1139:A2 0
5 *1139:B2 *1139:B1 1.32552e-05
6 *1139:B2 *1160:CLK 9.91086e-05
7 *1139:B2 *1161:CLK 2.89016e-05
8 *1139:B2 *330:10 0
9 *1160:D *1139:B2 0.000179025
10 *1161:D *1139:B2 0
*RES
1 *1138:Y *1139:B2 38.9036 
*END

*D_NET *222 0.00178706
*CONN
*I *1141:B1 I *D sky130_fd_sc_hd__a31o_1
*I *1140:X O *D sky130_fd_sc_hd__and2_1
*CAP
1 *1141:B1 0.00048041
2 *1140:X 0.00048041
3 *1141:B1 *927:B 1.0609e-05
4 *1141:B1 *927:C 6.05161e-06
5 *1141:B1 *1141:A3 0.000143633
6 *1141:B1 *1153:A1 8.43535e-06
7 *1141:B1 *1184:A 0.00022197
8 *1141:B1 *281:33 0.000121838
9 *1141:B1 *331:26 0.000313706
*RES
1 *1140:X *1141:B1 37.8679 
*END

*D_NET *223 0.000112637
*CONN
*I *1143:B1 I *D sky130_fd_sc_hd__a31o_1
*I *1142:X O *D sky130_fd_sc_hd__and2_1
*CAP
1 *1143:B1 5.63185e-05
2 *1142:X 5.63185e-05
*RES
1 *1142:X *1143:B1 19.5464 
*END

*D_NET *224 0.000797382
*CONN
*I *1145:B1 I *D sky130_fd_sc_hd__a31o_1
*I *1144:X O *D sky130_fd_sc_hd__and2_1
*CAP
1 *1145:B1 0.000244176
2 *1144:X 0.000244176
3 *1145:B1 *1145:A1 0
4 *1145:B1 *1149:A3 0.000144241
5 *1145:B1 *232:118 0.000164789
*RES
1 *1144:X *1145:B1 33.4571 
*END

*D_NET *225 0.000112637
*CONN
*I *1147:B1 I *D sky130_fd_sc_hd__a31o_1
*I *1146:X O *D sky130_fd_sc_hd__and2_1
*CAP
1 *1147:B1 5.63185e-05
2 *1146:X 5.63185e-05
*RES
1 *1146:X *1147:B1 19.5464 
*END

*D_NET *226 0.000650327
*CONN
*I *1149:B1 I *D sky130_fd_sc_hd__a31o_1
*I *1148:X O *D sky130_fd_sc_hd__and2_1
*CAP
1 *1149:B1 0.000180541
2 *1148:X 0.000180541
3 *1149:B1 *1166:RESET_B 6.74651e-05
4 *1149:B1 *232:118 0.000165083
5 *1149:B1 *331:12 5.66971e-05
*RES
1 *1148:X *1149:B1 32.2071 
*END

*D_NET *227 0.000348016
*CONN
*I *1151:B1 I *D sky130_fd_sc_hd__a31o_1
*I *1150:X O *D sky130_fd_sc_hd__and2_1
*CAP
1 *1151:B1 4.31585e-05
2 *1150:X 4.31585e-05
3 *1151:B1 *1150:A 0.000100831
4 *1151:B1 *231:31 3.34295e-05
5 *1151:B1 *288:10 0.000127439
*RES
1 *1150:X *1151:B1 29.2429 
*END

*D_NET *228 0.000447814
*CONN
*I *1153:B1 I *D sky130_fd_sc_hd__a31o_1
*I *1152:X O *D sky130_fd_sc_hd__and2_1
*CAP
1 *1153:B1 8.48647e-05
2 *1152:X 8.48647e-05
3 *1153:B1 *1154:A 2.85234e-05
4 *1153:B1 *1155:A1 0.000125542
5 *1153:B1 *231:31 0.000124019
*RES
1 *1152:X *1153:B1 29.7786 
*END

*D_NET *229 0.000305297
*CONN
*I *1155:B1 I *D sky130_fd_sc_hd__a31o_1
*I *1154:X O *D sky130_fd_sc_hd__and2_1
*CAP
1 *1155:B1 3.35784e-05
2 *1154:X 3.35784e-05
3 *1155:B1 *1155:A1 0.000139208
4 *1155:B1 *1155:A2 5.33005e-05
5 *1155:B1 *1162:RESET_B 4.5632e-05
*RES
1 *1154:X *1155:B1 19.9571 
*END

*D_NET *230 0.0228186
*CONN
*I *957:A2 I *D sky130_fd_sc_hd__o21ba_1
*I *918:A I *D sky130_fd_sc_hd__inv_2
*I *1151:A2 I *D sky130_fd_sc_hd__a31o_1
*I *1149:A2 I *D sky130_fd_sc_hd__a31o_1
*I *1143:A2 I *D sky130_fd_sc_hd__a31o_1
*I *1147:A2 I *D sky130_fd_sc_hd__a31o_1
*I *1145:A2 I *D sky130_fd_sc_hd__a31o_1
*I *1141:A2 I *D sky130_fd_sc_hd__a31o_1
*I *1153:A2 I *D sky130_fd_sc_hd__a31o_1
*I *1155:A2 I *D sky130_fd_sc_hd__a31o_1
*I *917:X O *D sky130_fd_sc_hd__clkbuf_4
*CAP
1 *957:A2 0.000206531
2 *918:A 0
3 *1151:A2 0.000254147
4 *1149:A2 0.000206699
5 *1143:A2 7.87198e-05
6 *1147:A2 0.00151339
7 *1145:A2 0
8 *1141:A2 4.83874e-05
9 *1153:A2 3.30687e-05
10 *1155:A2 0.000215782
11 *917:X 0.000261806
12 *230:94 0.00174444
13 *230:83 0.000242247
14 *230:79 0.000352676
15 *230:75 0.00263014
16 *230:46 0.002859
17 *230:37 0.000404182
18 *230:20 0.000480414
19 *230:14 0.000417342
20 *230:12 0.000398512
21 *230:10 0.000833709
22 *957:A2 *957:B1_N 4.60153e-05
23 *957:A2 *269:8 5.33005e-05
24 *1141:A2 *1141:A1 7.74068e-05
25 *1143:A2 *1142:A 0
26 *1143:A2 *1142:B 0
27 *1143:A2 *1143:A1 1.21258e-05
28 *1143:A2 *1143:A3 6.05161e-06
29 *1147:A2 *939:A 0
30 *1147:A2 *1143:A3 1.98839e-05
31 *1147:A2 *1147:A1 0.000355363
32 *1147:A2 *1159:CLK 2.00751e-05
33 *1147:A2 *1163:CLK 0.000121564
34 *1147:A2 *241:123 0
35 *1147:A2 *268:95 0.000186156
36 *1147:A2 *282:58 6.26559e-05
37 *1149:A2 *1149:A3 0.000183683
38 *1151:A2 *1154:B 0.000231867
39 *1151:A2 *1155:A1 2.96478e-05
40 *1151:A2 *231:23 9.66977e-05
41 *1151:A2 *268:14 5.49489e-05
42 *1151:A2 *268:18 5.49544e-05
43 *1153:A2 *1153:A1 3.50166e-05
44 *1153:A2 *1153:A3 5.982e-05
45 *1155:A2 *1154:B 0
46 *1155:A2 *1155:A1 1.98839e-05
47 *1155:A2 *1155:A3 0.000184631
48 *1155:A2 *1162:RESET_B 0.000138182
49 *1155:A2 *1168:CLK 3.8206e-05
50 *1155:A2 *268:24 3.12359e-05
51 *230:10 *956:B 5.55219e-05
52 *230:10 *232:14 2.44041e-05
53 *230:10 *269:21 0.000311014
54 *230:10 *282:21 9.91086e-05
55 *230:10 *316:135 1.69115e-05
56 *230:12 *956:B 0.00130386
57 *230:12 *232:14 0.00124496
58 *230:12 *268:24 1.02504e-05
59 *230:12 *286:10 0
60 *230:14 *268:24 5.59013e-05
61 *230:14 *286:10 0
62 *230:20 *268:24 0.000129572
63 *230:20 *281:33 2.12087e-05
64 *230:20 *286:10 0
65 *230:37 *1153:A3 9.83442e-05
66 *230:37 *268:24 4.08637e-05
67 *230:37 *281:33 9.35114e-06
68 *230:46 *1153:A1 0.00026023
69 *230:46 *281:33 5.74499e-06
70 *230:75 *931:A 0.000343284
71 *230:75 *1153:A1 0.000342548
72 *230:75 *1162:CLK 0.000173255
73 *230:75 *1166:CLK 2.84109e-05
74 *230:75 *1183:A 4.63219e-05
75 *230:75 *1184:A 3.79254e-05
76 *230:75 *244:12 0.000230362
77 *230:75 *281:10 4.44838e-05
78 *230:75 *296:18 0.000244042
79 *230:83 *1145:A1 1.00887e-05
80 *230:94 *1145:A1 0.000532425
81 *230:94 *1166:CLK 0
82 *230:94 *268:101 0.000508309
83 *1046:C *230:10 2.9842e-05
84 *1100:A *1147:A2 2.53116e-05
85 *1155:B1 *1155:A2 5.33005e-05
86 *1156:D *957:A2 1.13883e-05
87 *1165:D *1147:A2 1.58163e-05
88 *1166:D *230:75 0.00010254
89 *1166:D *230:79 2.29112e-05
90 *1167:D *1151:A2 1.00332e-05
91 *1168:D *1155:A2 0.000166093
92 *112:10 *230:10 0
93 *160:16 *1147:A2 0.000169256
94 *162:14 *1147:A2 0.000265633
95 *190:24 *1147:A2 0
96 *190:30 *1147:A2 0.000417177
*RES
1 *917:X *230:10 19.425 
2 *230:10 *230:12 16.8214 
3 *230:12 *230:14 0.732143 
4 *230:14 *230:20 6.48214 
5 *230:20 *1155:A2 23.8536 
6 *230:20 *230:37 1.76786 
7 *230:37 *1153:A2 10.3357 
8 *230:37 *230:46 3 
9 *230:46 *1141:A2 19.3357 
10 *230:46 *230:75 47 
11 *230:75 *230:79 5.53571 
12 *230:79 *230:83 1.26786 
13 *230:83 *1145:A2 13.8 
14 *230:83 *230:94 11.3036 
15 *230:94 *1147:A2 47.3179 
16 *230:94 *1143:A2 10.5679 
17 *230:79 *1149:A2 17.4964 
18 *230:14 *1151:A2 26.9607 
19 *230:12 *918:A 13.8 
20 *230:10 *957:A2 17.1214 
*END

*D_NET *231 0.00397456
*CONN
*I *1150:A I *D sky130_fd_sc_hd__and2_1
*I *1152:A I *D sky130_fd_sc_hd__and2_1
*I *1154:A I *D sky130_fd_sc_hd__and2_1
*I *919:A I *D sky130_fd_sc_hd__clkbuf_4
*I *918:Y O *D sky130_fd_sc_hd__inv_2
*CAP
1 *1150:A 0.000144004
2 *1152:A 8.08452e-05
3 *1154:A 1.34669e-05
4 *919:A 0.000415429
5 *918:Y 0
6 *231:31 0.000286647
7 *231:23 0.000411053
8 *231:4 0.000490143
9 *919:A *1154:B 4.27338e-05
10 *919:A *1182:A 5.33334e-05
11 *919:A *232:6 5.48954e-05
12 *919:A *232:100 3.5298e-05
13 *919:A *268:18 1.24368e-05
14 *1150:A *926:A 6.28241e-05
15 *1150:A *1155:A1 0.000135973
16 *1150:A *1167:CLK 0.00018372
17 *1150:A *288:10 3.32354e-05
18 *1152:A *1152:B 4.41645e-05
19 *1152:A *1162:RESET_B 0.000141036
20 *1154:A *1162:RESET_B 1.62025e-05
21 *231:23 *1151:A1 6.05161e-06
22 *231:23 *232:100 0.000308602
23 *231:23 *268:14 5.74499e-06
24 *231:23 *268:18 8.48366e-05
25 *231:31 *1155:A1 0.000241727
26 *231:31 *288:10 0.00028666
27 *1151:A2 *231:23 9.66977e-05
28 *1151:B1 *1150:A 0.000100831
29 *1151:B1 *231:31 3.34295e-05
30 *1153:B1 *1154:A 2.85234e-05
31 *1153:B1 *231:31 0.000124019
*RES
1 *918:Y *231:4 9.3 
2 *231:4 *919:A 15.9607 
3 *231:4 *231:23 7.5 
4 *231:23 *231:31 10.4464 
5 *231:31 *1154:A 9.83571 
6 *231:31 *1152:A 11.8179 
7 *231:23 *1150:A 18.175 
*END

*D_NET *232 0.0271273
*CONN
*I *1133:A1 I *D sky130_fd_sc_hd__a22o_1
*I *1146:A I *D sky130_fd_sc_hd__and2_1
*I *1142:A I *D sky130_fd_sc_hd__and2_1
*I *1144:A I *D sky130_fd_sc_hd__and2_1
*I *1148:A I *D sky130_fd_sc_hd__and2_1
*I *1140:A I *D sky130_fd_sc_hd__and2_1
*I *1139:A1 I *D sky130_fd_sc_hd__a22o_1
*I *1137:A1 I *D sky130_fd_sc_hd__a22o_1
*I *1130:A1 I *D sky130_fd_sc_hd__a22o_1
*I *956:A I *D sky130_fd_sc_hd__nor2_2
*I *919:X O *D sky130_fd_sc_hd__clkbuf_4
*CAP
1 *1133:A1 0.000576217
2 *1146:A 0
3 *1142:A 7.36067e-05
4 *1144:A 8.67643e-05
5 *1148:A 0
6 *1140:A 0
7 *1139:A1 0.000607838
8 *1137:A1 0
9 *1130:A1 0
10 *956:A 6.52286e-05
11 *919:X 0.000339084
12 *232:150 0.0014782
13 *232:131 0.00110393
14 *232:118 0.000612233
15 *232:107 0.00164887
16 *232:100 0.00235668
17 *232:66 0.00119821
18 *232:47 0.00143918
19 *232:14 0.00160563
20 *232:6 0.00213562
21 *956:A *957:B1_N 5.33005e-05
22 *956:A *269:8 3.03071e-05
23 *1133:A1 *1133:A2 0.000181803
24 *1133:A1 *1157:RESET_B 0.000726343
25 *1133:A1 *308:8 0
26 *1133:A1 *308:31 0
27 *1133:A1 *315:8 5.33005e-05
28 *1133:A1 *315:36 0.00018372
29 *1133:A1 *315:134 0.000202835
30 *1133:A1 *327:20 9.87983e-06
31 *1139:A1 *1139:B1 9.60875e-05
32 *1139:A1 *330:10 0.000175354
33 *1142:A *1142:B 3.63587e-05
34 *1144:A *1144:B 9.60939e-05
35 *232:6 *1182:A 5.41494e-05
36 *232:14 *269:21 3.12359e-05
37 *232:14 *286:10 0
38 *232:14 *294:12 0
39 *232:47 *1130:A2 0.000140907
40 *232:47 *1156:RESET_B 2.81497e-05
41 *232:47 *269:21 9.7285e-05
42 *232:47 *286:63 0.00014536
43 *232:47 *286:84 8.98658e-05
44 *232:47 *294:12 0.000142062
45 *232:47 *298:22 0.00027275
46 *232:47 *315:68 0.00015149
47 *232:66 *1005:A 0.00010311
48 *232:66 *1130:B1 1.22512e-05
49 *232:66 *1139:B1 0.000394754
50 *232:66 *269:36 2.51343e-06
51 *232:66 *282:21 2.82057e-05
52 *232:66 *282:30 0.000182076
53 *232:66 *294:12 0
54 *232:66 *315:58 0
55 *232:66 *330:10 2.6304e-05
56 *232:100 *926:C 3.23206e-05
57 *232:100 *927:A 0.0005855
58 *232:100 *927:B 0.000267734
59 *232:100 *1151:A1 0.000200315
60 *232:100 *239:8 9.69932e-05
61 *232:100 *281:8 0.000135028
62 *232:100 *281:74 0.000125547
63 *232:107 *1140:B 0.000269747
64 *232:107 *331:12 0.00148284
65 *232:107 *331:26 4.77002e-05
66 *232:118 *1145:A1 0
67 *232:118 *1148:B 5.49995e-05
68 *232:118 *1149:A1 0.000318154
69 *232:118 *1166:RESET_B 0
70 *232:118 *331:12 4.77002e-05
71 *232:131 *1145:A1 0
72 *232:131 *1149:A1 0.000197269
73 *232:150 *1145:A1 0
74 *232:150 *1149:A1 0.000797556
75 *232:150 *1157:RESET_B 0.000419598
76 *232:150 *235:70 0
77 *232:150 *284:24 0
78 *232:150 *308:8 0
79 *919:A *232:6 5.48954e-05
80 *919:A *232:100 3.5298e-05
81 *1128:B *232:150 5.94054e-05
82 *1139:B2 *1139:A1 0.000147475
83 *1143:A2 *1142:A 0
84 *1145:B1 *232:118 0.000164789
85 *1149:B1 *232:118 0.000165083
86 *1156:D *956:A 5.33005e-05
87 *1156:D *232:47 0.00010137
88 *1158:D *232:47 0.000141734
89 *1158:D *232:66 0.000157965
90 *1166:D *232:118 4.07062e-05
91 *108:14 *1139:A1 0.000105582
92 *108:14 *232:66 2.84494e-05
93 *114:12 *1139:A1 0
94 *121:27 *956:A 0
95 *189:10 *232:150 9.0267e-05
96 *190:24 *232:150 4.31391e-05
97 *200:30 *1133:A1 5.7661e-06
98 *230:10 *232:14 2.44041e-05
99 *230:12 *232:14 0.00124496
100 *231:23 *232:100 0.000308602
*RES
1 *919:X *232:6 13.5321 
2 *232:6 *232:14 21.9821 
3 *232:14 *956:A 15.175 
4 *232:14 *232:47 34.4107 
5 *232:47 *1130:A1 9.3 
6 *232:47 *232:66 25.1964 
7 *232:66 *1137:A1 13.8 
8 *232:66 *1139:A1 25.5857 
9 *232:6 *232:100 29.8571 
10 *232:100 *1140:A 9.3 
11 *232:100 *232:107 29.2857 
12 *232:107 *1148:A 9.3 
13 *232:107 *232:118 15.0893 
14 *232:118 *1144:A 15.4786 
15 *232:118 *232:131 2.55357 
16 *232:131 *1142:A 15.1929 
17 *232:131 *232:150 20.8214 
18 *232:150 *1146:A 13.8 
19 *232:150 *1133:A1 29.3357 
*END

*D_NET *233 0.018149
*CONN
*I *929:A I *D sky130_fd_sc_hd__or3b_2
*I *961:D I *D sky130_fd_sc_hd__and4_1
*I *963:B1 I *D sky130_fd_sc_hd__a22o_1
*I *964:D I *D sky130_fd_sc_hd__nand4_1
*I *977:B I *D sky130_fd_sc_hd__nand4_2
*I *1021:B I *D sky130_fd_sc_hd__nand2_1
*I *1009:A2 I *D sky130_fd_sc_hd__a22o_1
*I *979:C I *D sky130_fd_sc_hd__nand4_2
*I *1153:A1 I *D sky130_fd_sc_hd__a31o_1
*I *931:A I *D sky130_fd_sc_hd__xor2_1
*I *920:X O *D sky130_fd_sc_hd__clkbuf_4
*CAP
1 *929:A 7.04516e-05
2 *961:D 0.000402132
3 *963:B1 8.0149e-05
4 *964:D 0.000164426
5 *977:B 0
6 *1021:B 0.00046106
7 *1009:A2 1.17665e-05
8 *979:C 1.94619e-05
9 *1153:A1 0.000261098
10 *931:A 0.000122151
11 *920:X 0.000108296
12 *233:125 0.000649327
13 *233:106 0.00141025
14 *233:73 0.000575605
15 *233:69 0.000697754
16 *233:44 0.00244987
17 *233:27 0.00126322
18 *233:25 0.000493234
19 *233:8 0.000407766
20 *929:A *930:B 3.62127e-05
21 *931:A *1183:A 0.000228592
22 *961:D *963:B2 0.00037362
23 *961:D *970:B 0.000136958
24 *961:D *990:A1 4.87953e-05
25 *961:D *271:109 0.000351156
26 *961:D *271:126 9.34185e-05
27 *961:D *272:69 0
28 *961:D *277:27 0.000134539
29 *963:B1 *963:B2 5.49544e-05
30 *963:B1 *282:54 2.36643e-05
31 *964:D *1171:A 0
32 *964:D *272:60 4.13122e-06
33 *964:D *272:69 0.000102027
34 *979:C *979:D 3.65071e-05
35 *1021:B *293:16 0
36 *1021:B *315:36 0.000139907
37 *1153:A1 *927:C 5.50052e-05
38 *1153:A1 *1184:A 1.98839e-05
39 *1153:A1 *281:33 0.000560923
40 *233:8 *1140:B 7.89362e-05
41 *233:25 *241:20 3.26201e-05
42 *233:27 *927:A 5.33005e-05
43 *233:27 *927:C 4.34677e-05
44 *233:27 *930:B 3.69047e-06
45 *233:27 *240:6 5.7094e-05
46 *233:44 *927:B 0.000181916
47 *233:44 *927:C 0.000215395
48 *233:44 *933:A2 0.000193118
49 *233:44 *959:A 0
50 *233:44 *979:A 2.14901e-05
51 *233:44 *1039:D 4.44838e-05
52 *233:44 *235:115 0
53 *233:44 *235:126 7.91281e-05
54 *233:44 *237:59 3.29901e-05
55 *233:44 *238:36 0.000265025
56 *233:44 *239:21 0.000150618
57 *233:44 *271:12 3.90111e-05
58 *233:44 *293:24 0
59 *233:44 *331:26 0.000305711
60 *233:69 *234:19 0.00012342
61 *233:69 *234:21 0.000196914
62 *233:69 *234:25 1.81709e-05
63 *233:69 *234:35 2.49484e-05
64 *233:69 *272:18 0
65 *233:69 *316:62 7.78186e-05
66 *233:125 *272:69 4.99138e-05
67 *978:A *1009:A2 5.49995e-05
68 *979:B *979:C 5.48668e-06
69 *989:A1 *961:D 7.20393e-07
70 *990:A2 *961:D 1.15172e-05
71 *990:B1 *961:D 3.05398e-05
72 *1009:A1 *1009:A2 5.49995e-05
73 *1009:A1 *233:69 5.46383e-06
74 *1009:A1 *233:73 9.80705e-05
75 *1012:A1 *1021:B 0.000281743
76 *1012:A2 *1021:B 0.000335922
77 *1029:C *1021:B 0
78 *1031:A2 *1021:B 3.59033e-05
79 *1043:C1 *233:44 1.84999e-05
80 *1044:B1 *233:44 2.38901e-05
81 *1044:B1 *233:106 3.20696e-05
82 *1045:A1 *964:D 2.84026e-05
83 *1051:A *233:69 0
84 *1052:B1 *233:69 0.00015134
85 *1066:A *964:D 5.48715e-05
86 *1141:B1 *1153:A1 8.43535e-06
87 *1153:A2 *1153:A1 3.50166e-05
88 *57:33 *233:44 0
89 *60:8 *233:73 5.54817e-06
90 *60:23 *1021:B 6.93626e-06
91 *60:23 *233:73 0.000105618
92 *63:25 *1021:B 7.26251e-05
93 *63:25 *233:73 5.70868e-06
94 *65:18 *979:C 5.28539e-05
95 *65:18 *233:44 1.33049e-05
96 *65:18 *233:69 0.000209255
97 *65:29 *961:D 1.21289e-05
98 *67:17 *961:D 0.000142011
99 *71:10 *233:69 5.50052e-05
100 *107:12 *1021:B 0.000151847
101 *109:10 *1021:B 0
102 *117:12 *1021:B 0.000150618
103 *121:27 *979:C 0
104 *125:14 *233:44 2.01883e-05
105 *128:8 *233:44 0.000275255
106 *131:14 *961:D 0
107 *131:14 *964:D 0
108 *131:14 *233:125 0
109 *152:8 *964:D 5.33005e-05
110 *167:14 *1021:B 0
111 *167:14 *233:69 0.000265316
112 *230:46 *1153:A1 0.00026023
113 *230:75 *931:A 0.000343284
114 *230:75 *1153:A1 0.000342548
*RES
1 *920:X *233:8 15.7464 
2 *233:8 *931:A 18.175 
3 *233:8 *233:25 7.35714 
4 *233:25 *233:27 4.23214 
5 *233:27 *1153:A1 17.2464 
6 *233:27 *233:44 24.4107 
7 *233:44 *979:C 14.7643 
8 *233:44 *233:69 18.8929 
9 *233:69 *233:73 7.35714 
10 *233:73 *1009:A2 14.3357 
11 *233:73 *1021:B 24.9964 
12 *233:69 *977:B 9.3 
13 *233:44 *233:106 8.74073 
14 *233:106 *964:D 17.3446 
15 *233:106 *233:125 2.6875 
16 *233:125 *963:B1 15.175 
17 *233:125 *961:D 24.9071 
18 *233:25 *929:A 10.675 
*END

*D_NET *234 0.0120455
*CONN
*I *974:C I *D sky130_fd_sc_hd__nand4_2
*I *1052:A2 I *D sky130_fd_sc_hd__a22o_1
*I *1081:A2 I *D sky130_fd_sc_hd__a31o_1
*I *1051:B I *D sky130_fd_sc_hd__nand4_1
*I *979:D I *D sky130_fd_sc_hd__nand4_2
*I *980:B1 I *D sky130_fd_sc_hd__a22o_1
*I *934:A I *D sky130_fd_sc_hd__xnor2_1
*I *927:A I *D sky130_fd_sc_hd__or3_1
*I *1151:A1 I *D sky130_fd_sc_hd__a31o_1
*I *976:A2 I *D sky130_fd_sc_hd__a22o_1
*I *921:X O *D sky130_fd_sc_hd__clkbuf_4
*CAP
1 *974:C 0
2 *1052:A2 9.51174e-05
3 *1081:A2 2.89057e-05
4 *1051:B 0
5 *979:D 0.000359239
6 *980:B1 0.000117945
7 *934:A 0
8 *927:A 0.000331704
9 *1151:A1 0.000132871
10 *976:A2 3.69768e-05
11 *921:X 0.000242606
12 *234:117 0.000124023
13 *234:45 0.000633897
14 *234:39 0.000604204
15 *234:37 0.000591188
16 *234:35 0.000675443
17 *234:25 0.000401154
18 *234:21 0.000234624
19 *234:19 0.0003695
20 *234:6 0.00053777
21 *927:A *926:A 1.04232e-05
22 *927:A *241:20 0
23 *927:A *241:46 0
24 *927:A *268:8 0.000245942
25 *927:A *281:74 1.98839e-05
26 *976:A2 *1007:C 5.46383e-06
27 *979:D *979:A 5.03772e-05
28 *1151:A1 *926:A 9.00853e-05
29 *1151:A1 *926:C 5.52238e-05
30 *1151:A1 *926:D 5.52302e-05
31 *1151:A1 *268:8 1.02936e-05
32 *1151:A1 *268:14 0.000127123
33 *234:6 *976:B2 0.000261935
34 *234:6 *1007:A 5.49995e-05
35 *234:6 *1007:C 2.97489e-05
36 *234:6 *1007:D 1.98839e-05
37 *234:6 *269:36 0.000348737
38 *234:19 *235:20 0
39 *234:21 *272:18 0
40 *234:25 *272:18 2.91887e-05
41 *234:35 *272:18 0.000182336
42 *234:37 *272:18 2.26327e-05
43 *234:37 *331:26 4.63635e-05
44 *234:39 *926:B 0.000379611
45 *234:39 *934:B 8.00806e-05
46 *234:39 *237:10 1.46893e-05
47 *234:39 *241:61 1.69115e-05
48 *234:39 *272:24 6.28982e-05
49 *234:39 *331:26 0.000282426
50 *234:45 *926:A 2.16719e-05
51 *234:45 *926:B 0.00015234
52 *234:45 *1167:CLK 0
53 *234:45 *331:26 0
54 *976:A1 *234:6 1.0484e-05
55 *977:D *234:19 0.000148514
56 *979:B *979:D 2.32314e-05
57 *979:B *980:B1 0.000129571
58 *979:C *979:D 3.65071e-05
59 *1009:B2 *976:A2 0
60 *1035:B *234:39 6.13903e-05
61 *1051:D *234:25 3.34687e-05
62 *1051:D *234:35 5.80706e-06
63 *1052:B1 *1052:A2 4.88637e-05
64 *1052:B1 *234:25 0.000102545
65 *1052:B1 *234:35 7.97962e-05
66 *1052:B2 *1052:A2 8.46829e-05
67 *1052:B2 *1081:A2 5.52302e-05
68 *1081:A1 *1052:A2 0.000225609
69 *1081:A1 *1081:A2 5.51706e-05
70 *1130:B2 *234:6 4.73949e-05
71 *61:8 *234:6 5.33005e-05
72 *61:10 *234:35 0.000113151
73 *61:12 *234:35 3.57844e-05
74 *61:12 *234:37 2.49484e-05
75 *61:16 *234:39 0.00013171
76 *62:6 *234:19 5.49995e-05
77 *65:18 *979:D 3.06948e-05
78 *66:10 *979:D 2.43098e-05
79 *121:8 *234:39 0.000447157
80 *121:27 *979:D 5.52302e-05
81 *121:27 *980:B1 1.21258e-05
82 *121:27 *234:37 5.55219e-05
83 *121:27 *234:39 0.000206542
84 *135:10 *234:35 0.000183726
85 *136:23 *1052:A2 0
86 *136:23 *1081:A2 1.55885e-05
87 *138:8 *1052:A2 1.97695e-05
88 *167:14 *234:19 3.04266e-05
89 *231:23 *1151:A1 6.05161e-06
90 *232:100 *927:A 0.0005855
91 *232:100 *1151:A1 0.000200315
92 *233:27 *927:A 5.33005e-05
93 *233:69 *234:19 0.00012342
94 *233:69 *234:21 0.000196914
95 *233:69 *234:25 1.81709e-05
96 *233:69 *234:35 2.49484e-05
*RES
1 *921:X *234:6 15.5857 
2 *234:6 *976:A2 10.0321 
3 *234:6 *234:19 10.2321 
4 *234:19 *234:21 2.55357 
5 *234:21 *234:25 2.48214 
6 *234:25 *234:35 16.2857 
7 *234:35 *234:37 1.33929 
8 *234:37 *234:39 14.0893 
9 *234:39 *234:45 7.58929 
10 *234:45 *1151:A1 14.0857 
11 *234:45 *927:A 26.8893 
12 *234:39 *934:A 13.8 
13 *234:37 *980:B1 15.8893 
14 *234:35 *979:D 19.0143 
15 *234:25 *1051:B 13.8 
16 *234:21 *234:117 4.5 
17 *234:117 *1081:A2 10.2464 
18 *234:117 *1052:A2 12.3179 
19 *234:19 *974:C 13.8 
*END

*D_NET *235 0.0261875
*CONN
*I *1149:A1 I *D sky130_fd_sc_hd__a31o_1
*I *1045:A2 I *D sky130_fd_sc_hd__a31o_1
*I *936:A I *D sky130_fd_sc_hd__xor2_1
*I *927:B I *D sky130_fd_sc_hd__or3_1
*I *933:A1 I *D sky130_fd_sc_hd__o21a_1
*I *1064:B I *D sky130_fd_sc_hd__nand2_1
*I *1007:C I *D sky130_fd_sc_hd__nand4_1
*I *976:B1 I *D sky130_fd_sc_hd__a22o_1
*I *974:D I *D sky130_fd_sc_hd__nand4_2
*I *1024:B I *D sky130_fd_sc_hd__and2_1
*I *922:X O *D sky130_fd_sc_hd__clkbuf_4
*CAP
1 *1149:A1 0.000852639
2 *1045:A2 0
3 *936:A 2.51633e-05
4 *927:B 0.000230561
5 *933:A1 6.39728e-05
6 *1064:B 4.15157e-05
7 *1007:C 0.000106062
8 *976:B1 0
9 *974:D 5.43503e-05
10 *1024:B 0.000569159
11 *922:X 0
12 *235:126 0.000373189
13 *235:115 0.00079235
14 *235:99 0.00113809
15 *235:80 0.0015124
16 *235:70 0.00265466
17 *235:48 0.00013173
18 *235:20 0.000845802
19 *235:16 0.00304036
20 *235:4 0.00365071
21 *927:B *927:C 6.14702e-06
22 *927:B *241:46 0
23 *933:A1 *933:A2 5.33005e-05
24 *933:A1 *238:36 2.77258e-05
25 *933:A1 *297:16 0.000178847
26 *936:A *935:B 9.71197e-05
27 *936:A *936:B 5.52238e-05
28 *936:A *247:6 1.39841e-05
29 *974:D *974:B 8.60361e-05
30 *974:D *272:14 5.33005e-05
31 *1007:C *975:A 9.58632e-05
32 *1007:C *976:B2 6.16604e-05
33 *1007:C *1007:D 5.33005e-05
34 *1024:B *962:B 0.000125623
35 *1024:B *272:14 3.78688e-05
36 *1149:A1 *1166:RESET_B 0
37 *1149:A1 *284:24 0
38 *1149:A1 *284:30 0
39 *235:16 *327:36 1.9354e-05
40 *235:20 *272:14 7.3988e-05
41 *235:20 *272:18 3.14003e-05
42 *235:70 *1147:A3 0.000161787
43 *235:70 *1157:RESET_B 0
44 *235:70 *285:34 7.70717e-05
45 *235:99 *271:69 0.000382678
46 *235:99 *293:24 8.09765e-05
47 *235:99 *305:41 0.000360134
48 *235:99 *332:54 0.000303705
49 *235:115 *236:48 7.37016e-05
50 *235:115 *238:36 0
51 *235:115 *286:18 0.000113426
52 *235:115 *293:24 0.000226992
53 *235:115 *297:16 0.000218045
54 *235:126 *937:B 0
55 *976:A1 *1007:C 0.000139734
56 *976:A2 *1007:C 5.46383e-06
57 *993:A1 *235:16 9.84729e-05
58 *993:A2 *235:16 3.24049e-05
59 *993:B1 *235:16 3.14161e-05
60 *1000:A1 *235:16 3.24049e-05
61 *1000:A2 *235:16 0.000268842
62 *1001:B *235:16 4.11486e-05
63 *1007:B *1007:C 0.000221978
64 *1027:A1 *1024:B 9.06059e-05
65 *1027:A2 *1024:B 2.59355e-05
66 *1046:A *1024:B 1.24368e-05
67 *1048:B1 *1024:B 7.7591e-05
68 *1056:D *235:115 0.000121891
69 *1065:B *235:115 0.000196458
70 *1067:A *235:80 0.000339045
71 *1067:B *235:80 1.19813e-05
72 *1077:A *235:80 0.000258744
73 *1100:A *235:80 0.000450218
74 *1128:B *235:70 2.74721e-05
75 *1129:B2 *235:70 0.000834166
76 *1131:A *235:16 2.12733e-05
77 *1131:A *235:70 6.3629e-05
78 *1141:B1 *927:B 1.0609e-05
79 *57:33 *235:115 0.000144732
80 *61:10 *235:20 5.20919e-05
81 *61:95 *235:20 1.17516e-05
82 *61:95 *235:48 1.11596e-05
83 *71:68 *235:99 0.000195856
84 *78:12 *235:16 4.25489e-05
85 *79:6 *235:16 6.9741e-05
86 *90:24 *235:16 0.000186817
87 *90:24 *235:70 9.58126e-05
88 *126:12 *235:115 5.26937e-05
89 *129:10 *235:99 5.71124e-05
90 *129:10 *235:115 2.43663e-05
91 *132:12 *1024:B 0.000224341
92 *152:8 *1064:B 9.58632e-05
93 *152:8 *235:80 0.000240147
94 *167:14 *235:48 0
95 *188:12 *1149:A1 2.85321e-05
96 *188:12 *235:70 7.58841e-05
97 *188:12 *235:80 7.36469e-05
98 *189:10 *235:70 6.69941e-05
99 *232:100 *927:B 0.000267734
100 *232:118 *1149:A1 0.000318154
101 *232:131 *1149:A1 0.000197269
102 *232:150 *1149:A1 0.000797556
103 *232:150 *235:70 0
104 *233:44 *927:B 0.000181916
105 *233:44 *235:115 0
106 *233:44 *235:126 7.91281e-05
107 *234:6 *1007:C 2.97489e-05
108 *234:19 *235:20 0
*RES
1 *922:X *235:4 9.3 
2 *235:4 *235:16 29.258 
3 *235:16 *235:20 9.02679 
4 *235:20 *1024:B 28.925 
5 *235:20 *974:D 10.6571 
6 *235:16 *235:48 5.08036 
7 *235:48 *976:B1 9.3 
8 *235:48 *1007:C 13.1393 
9 *235:4 *235:70 27.3929 
10 *235:70 *235:80 17.3393 
11 *235:80 *1064:B 10.2464 
12 *235:80 *235:99 27.875 
13 *235:99 *235:115 28.25 
14 *235:115 *933:A1 11.0679 
15 *235:115 *235:126 6.75 
16 *235:126 *927:B 19.6929 
17 *235:126 *936:A 14.7464 
18 *235:99 *1045:A2 13.8 
19 *235:70 *1149:A1 38.1393 
*END

*D_NET *236 0.0150354
*CONN
*I *1145:A1 I *D sky130_fd_sc_hd__a31o_1
*I *1072:B I *D sky130_fd_sc_hd__xnor2_1
*I *938:A1 I *D sky130_fd_sc_hd__o31a_1
*I *942:A I *D sky130_fd_sc_hd__xnor2_1
*I *1070:D I *D sky130_fd_sc_hd__and4b_1
*I *1058:A2 I *D sky130_fd_sc_hd__a22o_1
*I *1042:B I *D sky130_fd_sc_hd__and4_1
*I *1056:B I *D sky130_fd_sc_hd__nand4_1
*I *1035:C I *D sky130_fd_sc_hd__nand4_1
*I *926:B I *D sky130_fd_sc_hd__or4_1
*I *923:X O *D sky130_fd_sc_hd__clkbuf_4
*CAP
1 *1145:A1 0.000607378
2 *1072:B 3.15985e-05
3 *938:A1 0
4 *942:A 0.000368263
5 *1070:D 2.15016e-05
6 *1058:A2 0
7 *1042:B 0
8 *1056:B 0.000143405
9 *1035:C 0
10 *926:B 0.000183187
11 *923:X 0.000151672
12 *236:104 0.00058384
13 *236:50 0.000439962
14 *236:48 0.000498562
15 *236:42 0.000226208
16 *236:36 0.00125678
17 *236:18 0.00127286
18 *236:16 0.000415917
19 *236:14 0.000677196
20 *236:6 0.00132671
21 *926:B *926:A 0.000198698
22 *926:B *926:C 0.000168067
23 *926:B *237:10 4.46186e-06
24 *942:A *941:A1 0.000102315
25 *942:A *238:100 1.76135e-05
26 *942:A *238:108 1.69115e-05
27 *942:A *238:112 4.25809e-05
28 *942:A *241:91 3.14048e-05
29 *942:A *252:12 0
30 *942:A *255:14 9.90431e-05
31 *942:A *268:95 0
32 *942:A *281:74 0.000267377
33 *942:A *332:27 5.7661e-06
34 *1056:B *272:24 0.000110621
35 *1072:B *1072:A 1.32056e-05
36 *1145:A1 *1147:A3 0.00017271
37 *1145:A1 *268:101 2.49484e-05
38 *236:6 *1103:B1 0.000102659
39 *236:14 *939:A 4.79864e-05
40 *236:16 *1072:A 0.00013255
41 *236:16 *238:92 9.86486e-06
42 *236:36 *1057:A 4.19624e-06
43 *236:36 *238:92 0.000372975
44 *236:36 *286:18 2.01732e-05
45 *236:42 *1057:B 5.49544e-05
46 *236:42 *238:59 0.000150241
47 *236:48 *238:36 0
48 *236:48 *238:59 1.12669e-05
49 *236:50 *1035:A 9.71197e-05
50 *236:50 *237:40 0.00026546
51 *236:50 *272:24 0.000135706
52 *236:104 *941:A1 2.26327e-05
53 *236:104 *1072:A 5.51649e-05
54 *236:104 *1073:C 0.000296306
55 *236:104 *238:100 2.39779e-05
56 *236:104 *241:123 1.13495e-05
57 *1056:D *1056:B 5.3218e-05
58 *1058:B1 *236:42 8.34144e-05
59 *1058:B2 *236:42 4.25684e-05
60 *1062:B *236:36 4.52619e-05
61 *1070:A_N *236:36 1.87331e-05
62 *1070:B *236:36 1.52013e-05
63 *1070:C *236:36 5.54817e-06
64 *1071:A1 *1070:D 6.98553e-06
65 *1071:A1 *236:18 1.51695e-05
66 *1071:A1 *236:36 8.25843e-06
67 *1071:B1 *236:104 5.36422e-05
68 *1073:B *236:18 0.000356093
69 *1073:B *236:36 5.33005e-05
70 *1074:B *1072:B 2.36643e-05
71 *1075:A *236:36 1.09289e-05
72 *1076:B1_N *236:14 0.000127651
73 *1103:A1 *1145:A1 7.58841e-05
74 *1103:A1 *236:14 2.59355e-05
75 *1145:B1 *1145:A1 0
76 *1163:D *1145:A1 0.000128154
77 *3:13 *236:104 0
78 *57:87 *236:104 6.17449e-05
79 *57:100 *236:104 1.25275e-05
80 *126:12 *236:48 1.00887e-05
81 *126:16 *236:42 0.000178503
82 *127:17 *236:42 0.000137639
83 *142:8 *1056:B 3.84299e-05
84 *156:12 *236:18 0.000138432
85 *157:6 *1072:B 2.36643e-05
86 *157:6 *236:16 0.000306316
87 *157:6 *236:18 0.000135028
88 *160:24 *236:14 8.43535e-06
89 *161:6 *236:14 0.000391476
90 *230:83 *1145:A1 1.00887e-05
91 *230:94 *1145:A1 0.000532425
92 *232:118 *1145:A1 0
93 *232:131 *1145:A1 0
94 *232:150 *1145:A1 0
95 *234:39 *926:B 0.000379611
96 *234:45 *926:B 0.00015234
97 *235:115 *236:48 7.37016e-05
*RES
1 *923:X *236:6 11.4786 
2 *236:6 *236:14 16.625 
3 *236:14 *236:16 3 
4 *236:16 *236:18 3.82143 
5 *236:18 *236:36 20.2395 
6 *236:36 *236:42 3.96429 
7 *236:42 *236:48 10.9464 
8 *236:48 *236:50 5.875 
9 *236:50 *926:B 25.1036 
10 *236:50 *1035:C 9.3 
11 *236:48 *1056:B 13.1929 
12 *236:42 *1042:B 9.3 
13 *236:36 *1058:A2 9.3 
14 *236:18 *1070:D 9.96518 
15 *236:16 *236:104 10.0893 
16 *236:104 *942:A 22.0321 
17 *236:104 *938:A1 13.8 
18 *236:14 *1072:B 10.2643 
19 *236:6 *1145:A1 32.3893 
*END

*D_NET *237 0.0127566
*CONN
*I *1143:A1 I *D sky130_fd_sc_hd__a31o_1
*I *1073:C I *D sky130_fd_sc_hd__and4_1
*I *938:A2 I *D sky130_fd_sc_hd__o31a_1
*I *941:A1 I *D sky130_fd_sc_hd__o21a_1
*I *945:A I *D sky130_fd_sc_hd__xor2_1
*I *1069:A2 I *D sky130_fd_sc_hd__a22o_1
*I *1057:C I *D sky130_fd_sc_hd__and4_1
*I *1039:C I *D sky130_fd_sc_hd__and4_1
*I *1035:D I *D sky130_fd_sc_hd__nand4_1
*I *926:C I *D sky130_fd_sc_hd__or4_1
*I *924:X O *D sky130_fd_sc_hd__buf_2
*CAP
1 *1143:A1 0.000460865
2 *1073:C 7.48682e-05
3 *938:A2 0
4 *941:A1 0.000144622
5 *945:A 0.000453805
6 *1069:A2 0
7 *1057:C 3.05481e-05
8 *1039:C 0
9 *1035:D 0
10 *926:C 0.000216333
11 *924:X 0.000268605
12 *237:118 0.000586447
13 *237:111 7.72277e-05
14 *237:98 0.0004963
15 *237:85 0.00105595
16 *237:72 0.000439824
17 *237:59 0.000986274
18 *237:40 0.000999137
19 *237:25 0.000240323
20 *237:10 0.000519003
21 *926:C *926:A 0.000246064
22 *926:C *238:10 0.000429932
23 *926:C *283:18 7.80929e-05
24 *941:A1 *238:108 0.000149904
25 *941:A1 *241:104 1.78353e-05
26 *945:A *932:A 0
27 *945:A *932:B 5.28902e-05
28 *945:A *942:B 0
29 *945:A *955:B1 0
30 *945:A *295:16 0
31 *945:A *332:35 0
32 *1057:C *238:59 5.65955e-05
33 *1057:C *238:66 1.32056e-05
34 *1073:C *238:100 0.000296306
35 *1143:A1 *939:B 9.60939e-05
36 *1143:A1 *1143:A3 5.52302e-05
37 *1143:A1 *241:123 1.54142e-05
38 *1143:A1 *268:95 0.000569794
39 *237:10 *1041:A2 6.88108e-05
40 *237:10 *283:18 5.98006e-05
41 *237:40 *1035:A 0.000122719
42 *237:40 *331:26 0.000122719
43 *237:59 *1039:D 0.000146797
44 *237:59 *1057:A 9.41642e-05
45 *237:59 *238:59 0.000253281
46 *237:72 *1069:B2 5.50052e-05
47 *237:72 *238:66 0.00012351
48 *237:85 *295:16 4.29179e-05
49 *237:98 *241:104 4.59075e-05
50 *237:98 *241:123 5.52238e-05
51 *237:111 *241:123 4.27935e-05
52 *237:118 *241:123 8.46829e-05
53 *926:B *926:C 0.000168067
54 *926:B *237:10 4.46186e-06
55 *942:A *941:A1 0.000102315
56 *1035:B *237:10 7.74068e-05
57 *1035:B *237:40 9.90367e-05
58 *1041:A1 *237:10 5.49995e-05
59 *1042:A *237:59 5.33005e-05
60 *1062:B *237:85 0.000114385
61 *1062:C *237:85 0.000164731
62 *1068:A1 *237:85 2.59093e-05
63 *1070:A_N *237:72 0.000160952
64 *1070:A_N *237:85 3.63775e-05
65 *1070:B *237:85 2.59355e-05
66 *1143:A2 *1143:A1 1.21258e-05
67 *1151:A1 *926:C 5.52238e-05
68 *1163:D *1143:A1 5.17614e-05
69 *3:13 *941:A1 0
70 *3:13 *945:A 0
71 *3:13 *237:85 0
72 *57:20 *237:59 0.000137639
73 *125:14 *237:59 8.25843e-06
74 *126:12 *237:59 2.47319e-05
75 *127:8 *237:59 0.000233877
76 *127:17 *237:59 2.48445e-05
77 *128:8 *237:59 1.00887e-05
78 *232:100 *926:C 3.23206e-05
79 *233:44 *237:59 3.29901e-05
80 *234:39 *237:10 1.46893e-05
81 *236:50 *237:40 0.00026546
82 *236:104 *941:A1 2.26327e-05
83 *236:104 *1073:C 0.000296306
*RES
1 *924:X *237:10 18.0321 
2 *237:10 *926:C 21.7464 
3 *237:10 *237:25 5.03571 
4 *237:25 *1035:D 9.3 
5 *237:25 *237:40 14.0714 
6 *237:40 *1039:C 9.3 
7 *237:40 *237:59 21.7143 
8 *237:59 *1057:C 10.2643 
9 *237:59 *237:72 4.25 
10 *237:72 *1069:A2 9.3 
11 *237:72 *237:85 10.7679 
12 *237:85 *945:A 21.5143 
13 *237:85 *237:98 9.55357 
14 *237:98 *941:A1 21.4607 
15 *237:98 *237:111 0.535714 
16 *237:111 *938:A2 9.3 
17 *237:111 *237:118 0.946429 
18 *237:118 *1073:C 22.0679 
19 *237:118 *1143:A1 19.0143 
*END

*D_NET *238 0.01277
*CONN
*I *1069:B1 I *D sky130_fd_sc_hd__a22o_1
*I *1073:D I *D sky130_fd_sc_hd__and4_1
*I *938:A3 I *D sky130_fd_sc_hd__o31a_1
*I *941:A2 I *D sky130_fd_sc_hd__o21a_1
*I *946:A I *D sky130_fd_sc_hd__inv_2
*I *944:B I *D sky130_fd_sc_hd__nand2_1
*I *1057:D I *D sky130_fd_sc_hd__and4_1
*I *1039:D I *D sky130_fd_sc_hd__and4_1
*I *926:D I *D sky130_fd_sc_hd__or4_1
*I *1141:A1 I *D sky130_fd_sc_hd__a31o_1
*I *925:X O *D sky130_fd_sc_hd__buf_2
*CAP
1 *1069:B1 0
2 *1073:D 0
3 *938:A3 1.49469e-05
4 *941:A2 0
5 *946:A 0.000270749
6 *944:B 0.000112811
7 *1057:D 0
8 *1039:D 7.06606e-05
9 *926:D 8.95055e-06
10 *1141:A1 0.000133779
11 *925:X 0
12 *238:112 0.000576103
13 *238:108 0.000334475
14 *238:100 0.000372024
15 *238:92 0.000935987
16 *238:66 0.000893912
17 *238:59 0.000600355
18 *238:36 0.000975582
19 *238:10 0.000438345
20 *238:4 0.000773251
21 *926:D *268:14 5.71472e-05
22 *938:A3 *241:123 1.44193e-05
23 *944:B *258:10 0.000115371
24 *946:A *947:B1 1.00887e-05
25 *946:A *947:C1 3.93522e-05
26 *946:A *948:A 0.000273043
27 *946:A *948:B 0.000161956
28 *946:A *949:B1 0.0001871
29 *946:A *258:10 7.15503e-05
30 *946:A *290:12 5.66943e-05
31 *1141:A1 *1141:A3 0
32 *1141:A1 *281:10 0
33 *1141:A1 *288:10 8.26807e-05
34 *238:10 *926:A 2.26424e-05
35 *238:10 *1150:B 6.65302e-05
36 *238:10 *1155:A1 7.02611e-05
37 *238:10 *283:18 8.07951e-05
38 *238:10 *288:10 8.90684e-05
39 *238:36 *933:A2 4.87854e-05
40 *238:36 *1155:A1 9.16074e-05
41 *238:36 *297:16 2.07491e-05
42 *238:59 *1057:A 6.54263e-05
43 *238:59 *1057:B 0.000223537
44 *238:66 *1069:B2 5.50052e-05
45 *238:92 *1072:A 5.66971e-05
46 *238:92 *332:35 4.37982e-05
47 *238:100 *241:123 0.000462261
48 *238:108 *241:91 3.90513e-05
49 *238:108 *241:104 7.65976e-05
50 *238:108 *241:123 2.14658e-05
51 *238:112 *949:B1 0
52 *238:112 *241:91 0.000103285
53 *926:C *238:10 0.000429932
54 *933:A1 *238:36 2.77258e-05
55 *941:A1 *238:108 0.000149904
56 *942:A *238:100 1.76135e-05
57 *942:A *238:108 1.69115e-05
58 *942:A *238:112 4.25809e-05
59 *1042:A *238:59 5.50052e-05
60 *1057:C *238:59 5.65955e-05
61 *1057:C *238:66 1.32056e-05
62 *1058:B2 *238:59 5.50052e-05
63 *1069:A1 *238:92 4.21517e-05
64 *1071:A1 *238:92 9.58689e-05
65 *1071:A2 *238:92 5.50052e-05
66 *1071:B1 *238:92 6.07717e-05
67 *1073:B *238:92 8.02118e-05
68 *1073:C *238:100 0.000296306
69 *1075:A *238:92 1.54874e-05
70 *1141:A2 *1141:A1 7.74068e-05
71 *1151:A1 *926:D 5.52302e-05
72 *3:13 *238:92 4.09646e-05
73 *3:13 *238:112 2.82564e-05
74 *57:20 *238:59 0.000126102
75 *125:14 *1039:D 3.2033e-05
76 *126:12 *238:59 5.51649e-05
77 *127:17 *238:59 0.00022197
78 *148:19 *238:92 2.30116e-06
79 *233:44 *1039:D 4.44838e-05
80 *233:44 *238:36 0.000265025
81 *235:115 *238:36 0
82 *236:16 *238:92 9.86486e-06
83 *236:36 *238:92 0.000372975
84 *236:42 *238:59 0.000150241
85 *236:48 *238:36 0
86 *236:48 *238:59 1.12669e-05
87 *236:104 *238:100 2.39779e-05
88 *237:59 *1039:D 0.000146797
89 *237:59 *238:59 0.000253281
90 *237:72 *238:66 0.00012351
*RES
1 *925:X *238:4 9.3 
2 *238:4 *238:10 12.0536 
3 *238:10 *1141:A1 16.5857 
4 *238:10 *926:D 14.3357 
5 *238:4 *238:36 12.1964 
6 *238:36 *1039:D 15.8893 
7 *238:36 *238:59 15.2679 
8 *238:59 *1057:D 9.3 
9 *238:59 *238:66 3 
10 *238:66 *238:92 23.3217 
11 *238:92 *238:100 15.4464 
12 *238:100 *238:108 8.01786 
13 *238:108 *238:112 8.26786 
14 *238:112 *944:B 11.6214 
15 *238:112 *946:A 25.7821 
16 *238:108 *941:A2 13.8 
17 *238:100 *938:A3 9.72857 
18 *238:92 *1073:D 9.3 
19 *238:66 *1069:B1 9.3 
*END

*D_NET *239 0.00325559
*CONN
*I *933:A2 I *D sky130_fd_sc_hd__o21a_1
*I *935:B I *D sky130_fd_sc_hd__nand2_1
*I *927:C I *D sky130_fd_sc_hd__or3_1
*I *926:X O *D sky130_fd_sc_hd__or4_1
*CAP
1 *933:A2 0.000105843
2 *935:B 0.00011061
3 *927:C 0.00012593
4 *926:X 0.000161912
5 *239:21 0.000263211
6 *239:8 0.000334599
7 *927:C *331:26 0.00023916
8 *933:A2 *297:16 2.28499e-05
9 *933:A2 *331:26 0.000185297
10 *935:B *934:B 0
11 *935:B *936:B 0.000120587
12 *935:B *241:46 5.7661e-06
13 *935:B *241:61 0.000370032
14 *935:B *247:6 8.25843e-06
15 *239:8 *281:8 9.41642e-05
16 *239:21 *331:26 0.000141368
17 *927:B *927:C 6.14702e-06
18 *933:A1 *933:A2 5.33005e-05
19 *936:A *935:B 9.71197e-05
20 *1141:B1 *927:C 6.05161e-06
21 *1153:A1 *927:C 5.50052e-05
22 *232:100 *239:8 9.69932e-05
23 *233:27 *927:C 4.34677e-05
24 *233:44 *927:C 0.000215395
25 *233:44 *933:A2 0.000193118
26 *233:44 *239:21 0.000150618
27 *238:36 *933:A2 4.87854e-05
*RES
1 *926:X *239:8 15.9786 
2 *239:8 *927:C 17.9071 
3 *239:8 *239:21 1.94643 
4 *239:21 *935:B 18.0679 
5 *239:21 *933:A2 17.3 
*END

*D_NET *240 0.00098407
*CONN
*I *930:B I *D sky130_fd_sc_hd__nand2_1
*I *929:B I *D sky130_fd_sc_hd__or3b_2
*I *927:X O *D sky130_fd_sc_hd__or3_1
*CAP
1 *930:B 0.000166919
2 *929:B 0
3 *927:X 0.000160094
4 *240:6 0.000327013
5 *930:B *930:A 5.65955e-05
6 *930:B *241:20 9.82566e-05
7 *930:B *242:14 7.8195e-05
8 *929:A *930:B 3.62127e-05
9 *233:27 *930:B 3.69047e-06
10 *233:27 *240:6 5.7094e-05
*RES
1 *927:X *240:6 11.4786 
2 *240:6 *929:B 9.3 
3 *240:6 *930:B 13.5857 
*END

*D_NET *241 0.0190841
*CONN
*I *994:A1 I *D sky130_fd_sc_hd__a31o_1
*I *987:A I *D sky130_fd_sc_hd__and3_1
*I *972:A I *D sky130_fd_sc_hd__nand2_1
*I *938:B1 I *D sky130_fd_sc_hd__o31a_1
*I *941:B1 I *D sky130_fd_sc_hd__o21a_1
*I *1155:A1 I *D sky130_fd_sc_hd__a31o_1
*I *933:B1 I *D sky130_fd_sc_hd__o21a_1
*I *935:A I *D sky130_fd_sc_hd__nand2_1
*I *930:A I *D sky130_fd_sc_hd__nand2_1
*I *929:C_N I *D sky130_fd_sc_hd__or3b_2
*I *928:X O *D sky130_fd_sc_hd__buf_2
*CAP
1 *994:A1 2.13113e-05
2 *987:A 0.000427328
3 *972:A 3.71042e-05
4 *938:B1 0
5 *941:B1 0
6 *1155:A1 0.00075374
7 *933:B1 0
8 *935:A 0
9 *930:A 6.85253e-05
10 *929:C_N 0
11 *928:X 0
12 *241:138 0.00105687
13 *241:123 0.00144487
14 *241:104 0.000905288
15 *241:91 0.000562944
16 *241:61 0.00128734
17 *241:46 0.000816126
18 *241:20 0.00041109
19 *241:12 0.000920713
20 *241:4 0.000752814
21 *930:A *953:B1 6.61834e-05
22 *930:A *242:14 1.11823e-05
23 *972:A *967:A2 0.000114954
24 *972:A *272:107 6.05161e-06
25 *972:A *272:122 1.05903e-05
26 *972:A *282:54 0.000139913
27 *987:A *962:A 0.000356203
28 *987:A *962:B 5.60201e-05
29 *987:A *285:34 0.000137639
30 *1155:A1 *925:A 9.41642e-05
31 *1155:A1 *1154:B 0.000311293
32 *1155:A1 *1155:A3 0.000136682
33 *1155:A1 *1162:RESET_B 4.64076e-05
34 *1155:A1 *283:14 0.000304579
35 *1155:A1 *288:10 2.50463e-05
36 *1155:A1 *297:16 0.000152851
37 *241:12 *954:A2 0.000106538
38 *241:12 *955:A1 5.49544e-05
39 *241:12 *955:B1 1.95646e-05
40 *241:12 *1171:A 0.000143375
41 *241:12 *242:14 2.84109e-05
42 *241:12 *268:6 0.000221963
43 *241:12 *268:8 0.000437692
44 *241:12 *281:74 7.17453e-05
45 *241:12 *332:27 0.00010946
46 *241:46 *937:B 5.52238e-05
47 *241:46 *249:8 0.00014285
48 *241:61 *934:B 4.15914e-05
49 *241:61 *936:B 1.74352e-05
50 *241:61 *951:B1 0
51 *241:61 *1167:CLK 2.72859e-05
52 *241:61 *247:6 5.20359e-06
53 *241:61 *249:8 9.22103e-06
54 *241:61 *331:26 4.25809e-05
55 *241:91 *281:74 2.07491e-05
56 *241:91 *332:27 0.000354105
57 *241:123 *939:A 0.000306611
58 *241:123 *939:B 5.33005e-05
59 *241:123 *966:A 7.80714e-06
60 *241:123 *967:A2 2.8266e-06
61 *241:123 *1072:A 0.000271587
62 *241:138 *962:A 0.000341668
63 *241:138 *966:A 0.000170654
64 *241:138 *967:A1 0.000113119
65 *241:138 *968:A2 9.99444e-06
66 *241:138 *278:14 3.19998e-05
67 *241:138 *332:81 0.00010326
68 *927:A *241:20 0
69 *927:A *241:46 0
70 *927:B *241:46 0
71 *930:B *930:A 5.65955e-05
72 *930:B *241:20 9.82566e-05
73 *935:B *241:46 5.7661e-06
74 *935:B *241:61 0.000370032
75 *938:A3 *241:123 1.44193e-05
76 *941:A1 *241:104 1.78353e-05
77 *942:A *241:91 3.14048e-05
78 *970:D_N *241:138 2.94055e-05
79 *972:B *241:123 7.83659e-05
80 *994:A2 *241:138 9.67754e-05
81 *996:B *241:138 3.04037e-05
82 *1002:A *241:138 4.17702e-05
83 *1055:B *987:A 5.47001e-05
84 *1078:A1 *241:123 0.000151195
85 *1143:A1 *241:123 1.54142e-05
86 *1147:A2 *241:123 0
87 *1150:A *1155:A1 0.000135973
88 *1151:A2 *1155:A1 2.96478e-05
89 *1153:B1 *1155:A1 0.000125542
90 *1155:A2 *1155:A1 1.98839e-05
91 *1155:B1 *1155:A1 0.000139208
92 *1167:D *1155:A1 4.66218e-05
93 *3:13 *241:91 0.00027025
94 *3:13 *241:104 0.000164547
95 *56:12 *241:138 0.000287337
96 *57:142 *241:138 0.000139337
97 *71:64 *987:A 0.000137639
98 *139:14 *987:A 2.3953e-05
99 *139:39 *987:A 0.000143373
100 *141:16 *987:A 0.000102393
101 *164:8 *241:123 0
102 *164:8 *241:138 7.17455e-05
103 *231:31 *1155:A1 0.000241727
104 *233:25 *241:20 3.26201e-05
105 *234:39 *241:61 1.69115e-05
106 *236:104 *241:123 1.13495e-05
107 *237:98 *241:104 4.59075e-05
108 *237:98 *241:123 5.52238e-05
109 *237:111 *241:123 4.27935e-05
110 *237:118 *241:123 8.46829e-05
111 *238:10 *1155:A1 7.02611e-05
112 *238:36 *1155:A1 9.16074e-05
113 *238:100 *241:123 0.000462261
114 *238:108 *241:91 3.90513e-05
115 *238:108 *241:104 7.65976e-05
116 *238:108 *241:123 2.14658e-05
117 *238:112 *241:91 0.000103285
*RES
1 *928:X *241:4 9.3 
2 *241:4 *241:12 12.9821 
3 *241:12 *241:20 9.44643 
4 *241:20 *929:C_N 9.3 
5 *241:20 *930:A 11.0857 
6 *241:12 *241:46 9.80357 
7 *241:46 *935:A 9.3 
8 *241:46 *241:61 17.25 
9 *241:61 *933:B1 9.3 
10 *241:61 *1155:A1 37.1571 
11 *241:4 *241:91 13.0179 
12 *241:91 *941:B1 13.8 
13 *241:91 *241:104 7.69643 
14 *241:104 *938:B1 9.3 
15 *241:104 *241:123 23.7143 
16 *241:123 *972:A 15.1571 
17 *241:123 *241:138 19.5357 
18 *241:138 *987:A 28.4964 
19 *241:138 *994:A1 9.72857 
*END

*D_NET *242 0.00179675
*CONN
*I *954:A2 I *D sky130_fd_sc_hd__o22a_1
*I *955:A2 I *D sky130_fd_sc_hd__a21oi_4
*I *929:X O *D sky130_fd_sc_hd__or3b_2
*CAP
1 *954:A2 0.000112185
2 *955:A2 0
3 *929:X 0.00026254
4 *242:14 0.000374725
5 *954:A2 *953:B2 0.000125731
6 *954:A2 *953:C1 0.000121842
7 *954:A2 *955:A1 5.33005e-05
8 *954:A2 *281:74 0.00026432
9 *242:14 *953:B1 0.000202822
10 *242:14 *953:C1 0
11 *242:14 *268:95 0
12 *242:14 *281:74 5.49544e-05
13 *930:A *242:14 1.11823e-05
14 *930:B *242:14 7.8195e-05
15 *241:12 *954:A2 0.000106538
16 *241:12 *242:14 2.84109e-05
*RES
1 *929:X *242:14 22.9607 
2 *242:14 *955:A2 9.3 
3 *242:14 *954:A2 22.5321 
*END

*D_NET *243 0.000221722
*CONN
*I *931:B I *D sky130_fd_sc_hd__xor2_1
*I *930:Y O *D sky130_fd_sc_hd__nand2_1
*CAP
1 *931:B 0.000110861
2 *930:Y 0.000110861
*RES
1 *930:Y *931:B 29.2429 
*END

*D_NET *244 0.00198844
*CONN
*I *932:B I *D sky130_fd_sc_hd__and2_1
*I *953:A2 I *D sky130_fd_sc_hd__o221a_1
*I *931:X O *D sky130_fd_sc_hd__xor2_1
*CAP
1 *932:B 0.000268807
2 *953:A2 5.9755e-05
3 *931:X 0.000248048
4 *244:12 0.000576609
5 *932:B *953:A1 0.000100082
6 *932:B *954:B2 0
7 *932:B *281:74 0.000122101
8 *932:B *332:27 0.000227539
9 *932:B *332:35 5.80706e-06
10 *953:A2 *953:A1 2.85234e-05
11 *953:A2 *953:B2 6.79185e-05
12 *945:A *932:B 5.28902e-05
13 *230:75 *244:12 0.000230362
*RES
1 *931:X *244:12 22.1214 
2 *244:12 *953:A2 10.6571 
3 *244:12 *932:B 24.925 
*END

*D_NET *245 0.00104246
*CONN
*I *954:B1 I *D sky130_fd_sc_hd__o22a_1
*I *932:X O *D sky130_fd_sc_hd__and2_1
*CAP
1 *954:B1 0.000237978
2 *932:X 0.000237978
3 *954:B1 *954:B2 0.000149911
4 *954:B1 *281:74 0.000268396
5 *954:B1 *332:35 0.000148196
*RES
1 *932:X *954:B1 32.1357 
*END

*D_NET *246 0.000298618
*CONN
*I *934:B I *D sky130_fd_sc_hd__xnor2_1
*I *933:X O *D sky130_fd_sc_hd__o21a_1
*CAP
1 *934:B 8.84729e-05
2 *933:X 8.84729e-05
3 *934:B *1150:B 0
4 *934:B *1167:CLK 0
5 *935:B *934:B 0
6 *234:39 *934:B 8.00806e-05
7 *241:61 *934:B 4.15914e-05
*RES
1 *933:X *934:B 29.6714 
*END

*D_NET *247 0.00388588
*CONN
*I *952:A2 I *D sky130_fd_sc_hd__a22o_1
*I *953:B1 I *D sky130_fd_sc_hd__o221a_1
*I *934:Y O *D sky130_fd_sc_hd__xnor2_1
*CAP
1 *952:A2 0.000163159
2 *953:B1 0.000310004
3 *934:Y 0.000728909
4 *247:6 0.00120207
5 *952:A2 *951:B2 0.0001839
6 *952:A2 *1171:A 0
7 *952:A2 *268:95 7.70035e-05
8 *953:B1 *953:B2 3.41517e-06
9 *953:B1 *953:C1 9.49318e-05
10 *953:B1 *1171:A 0.000141766
11 *953:B1 *268:95 0
12 *247:6 *936:B 6.87574e-05
13 *247:6 *951:B1 1.02911e-05
14 *247:6 *951:B2 9.55638e-05
15 *247:6 *952:B2 6.44139e-06
16 *247:6 *1167:CLK 9.90367e-05
17 *247:6 *249:8 0.000404182
18 *930:A *953:B1 6.61834e-05
19 *935:B *247:6 8.25843e-06
20 *936:A *247:6 1.39841e-05
21 *241:61 *247:6 5.20359e-06
22 *242:14 *953:B1 0.000202822
*RES
1 *934:Y *247:6 18.8714 
2 *247:6 *953:B1 25.5321 
3 *247:6 *952:A2 21.1036 
*END

*D_NET *248 0.000562262
*CONN
*I *936:B I *D sky130_fd_sc_hd__xor2_1
*I *935:Y O *D sky130_fd_sc_hd__nand2_1
*CAP
1 *936:B 5.58364e-05
2 *935:Y 5.58364e-05
3 *936:B *249:8 0.000188586
4 *935:B *936:B 0.000120587
5 *936:A *936:B 5.52238e-05
6 *241:61 *936:B 1.74352e-05
7 *247:6 *936:B 6.87574e-05
*RES
1 *935:Y *936:B 21.6 
*END

*D_NET *249 0.00175205
*CONN
*I *951:A2 I *D sky130_fd_sc_hd__a22o_1
*I *937:B I *D sky130_fd_sc_hd__or2_1
*I *936:X O *D sky130_fd_sc_hd__xor2_1
*CAP
1 *951:A2 0
2 *937:B 0.000169207
3 *936:X 8.71163e-05
4 *249:8 0.000256323
5 *937:B *937:A 4.25176e-05
6 *937:B *951:A1 0.000163575
7 *937:B *952:B2 5.20751e-05
8 *937:B *293:24 6.35509e-05
9 *937:B *297:16 9.58181e-05
10 *249:8 *951:B1 5.21648e-06
11 *249:8 *951:B2 1.6588e-05
12 *936:B *249:8 0.000188586
13 *235:126 *937:B 0
14 *241:46 *937:B 5.52238e-05
15 *241:46 *249:8 0.00014285
16 *241:61 *249:8 9.22103e-06
17 *247:6 *249:8 0.000404182
*RES
1 *936:X *249:8 13.8536 
2 *249:8 *937:B 22.4429 
3 *249:8 *951:A2 9.3 
*END

*D_NET *250 0.000565646
*CONN
*I *952:B1 I *D sky130_fd_sc_hd__a22o_1
*I *937:X O *D sky130_fd_sc_hd__or2_1
*CAP
1 *952:B1 0.000194481
2 *937:X 0.000194481
3 *952:B1 *951:B1 4.02159e-05
4 *952:B1 *952:B2 9.25014e-06
5 *952:B1 *1171:A 3.00989e-05
6 *952:B1 *297:16 9.71197e-05
*RES
1 *937:X *952:B1 30.5464 
*END

*D_NET *251 0.000213941
*CONN
*I *939:B I *D sky130_fd_sc_hd__xnor2_1
*I *938:X O *D sky130_fd_sc_hd__o31a_1
*CAP
1 *939:B 3.22734e-05
2 *938:X 3.22734e-05
3 *1143:A1 *939:B 9.60939e-05
4 *241:123 *939:B 5.33005e-05
*RES
1 *938:X *939:B 19.5464 
*END

*D_NET *252 0.000957037
*CONN
*I *950:A2 I *D sky130_fd_sc_hd__a22o_1
*I *940:B I *D sky130_fd_sc_hd__or2_1
*I *939:Y O *D sky130_fd_sc_hd__xnor2_1
*CAP
1 *950:A2 0
2 *940:B 0.000174275
3 *939:Y 0.000156348
4 *252:12 0.000330623
5 *940:B *950:A1 5.87052e-05
6 *940:B *950:B1 5.49489e-05
7 *940:B *950:B2 5.49489e-05
8 *940:B *951:B1 1.8289e-05
9 *252:12 *950:B1 3.4846e-06
10 *252:12 *268:95 0.000105414
11 *942:A *252:12 0
*RES
1 *939:Y *252:12 20.4786 
2 *252:12 *940:B 12.7464 
3 *252:12 *950:A2 9.3 
*END

*D_NET *253 0.00463694
*CONN
*I *951:B1 I *D sky130_fd_sc_hd__a22o_1
*I *940:X O *D sky130_fd_sc_hd__or2_1
*CAP
1 *951:B1 0.000862117
2 *940:X 0.000862117
3 *951:B1 *950:A1 0.000314839
4 *951:B1 *951:B2 0.00126875
5 *951:B1 *952:A1 0.00013238
6 *951:B1 *952:B2 0.000160523
7 *951:B1 *268:95 0.000779706
8 *951:B1 *292:14 9.99853e-05
9 *951:B1 *295:16 8.25114e-05
10 *940:B *951:B1 1.8289e-05
11 *952:B1 *951:B1 4.02159e-05
12 *241:61 *951:B1 0
13 *247:6 *951:B1 1.02911e-05
14 *249:8 *951:B1 5.21648e-06
*RES
1 *940:X *951:B1 42.7786 
*END

*D_NET *254 0.000361069
*CONN
*I *942:B I *D sky130_fd_sc_hd__xnor2_1
*I *941:X O *D sky130_fd_sc_hd__o21a_1
*CAP
1 *942:B 0.000120807
2 *941:X 0.000120807
3 *942:B *951:B2 5.52302e-05
4 *945:A *942:B 0
5 *3:13 *942:B 6.42242e-05
*RES
1 *941:X *942:B 29.7786 
*END

*D_NET *255 0.00104019
*CONN
*I *943:B I *D sky130_fd_sc_hd__or2_1
*I *949:A2 I *D sky130_fd_sc_hd__a22o_1
*I *942:Y O *D sky130_fd_sc_hd__xnor2_1
*CAP
1 *943:B 2.08293e-05
2 *949:A2 0
3 *942:Y 0.000170752
4 *255:14 0.000191581
5 *943:B *949:A1 0.000144074
6 *943:B *281:74 7.20274e-05
7 *255:14 *949:A1 2.44318e-05
8 *255:14 *949:B2 6.99731e-05
9 *255:14 *281:74 0.000247478
10 *255:14 *332:27 0
11 *942:A *255:14 9.90431e-05
*RES
1 *942:Y *255:14 14.425 
2 *255:14 *949:A2 9.3 
3 *255:14 *943:B 10.6571 
*END

*D_NET *256 0.000617126
*CONN
*I *950:B1 I *D sky130_fd_sc_hd__a22o_1
*I *943:X O *D sky130_fd_sc_hd__or2_1
*CAP
1 *950:B1 0.000185572
2 *943:X 0.000185572
3 *950:B1 *950:A1 5.49489e-05
4 *950:B1 *950:B2 0.000110436
5 *950:B1 *1163:CLK 1.67864e-05
6 *950:B1 *1166:CLK 5.37741e-06
7 *940:B *950:B1 5.49489e-05
8 *252:12 *950:B1 3.4846e-06
*RES
1 *943:X *950:B1 31.35 
*END

*D_NET *257 0.000364358
*CONN
*I *945:B I *D sky130_fd_sc_hd__xor2_1
*I *944:Y O *D sky130_fd_sc_hd__nand2_1
*CAP
1 *945:B 9.61327e-05
2 *944:Y 9.61327e-05
3 *945:B *953:A1 7.62237e-05
4 *945:B *258:10 9.58689e-05
*RES
1 *944:Y *945:B 20.7786 
*END

*D_NET *258 0.00158792
*CONN
*I *947:A2 I *D sky130_fd_sc_hd__a211o_1
*I *948:B I *D sky130_fd_sc_hd__or2_1
*I *945:X O *D sky130_fd_sc_hd__xor2_1
*CAP
1 *947:A2 1.06389e-05
2 *948:B 0.00029701
3 *945:X 0.00021535
4 *258:10 0.000522998
5 *947:A2 *948:A 3.50746e-05
6 *948:B *947:B1 1.22852e-05
7 *948:B *947:C1 1.83129e-05
8 *948:B *948:A 3.15034e-05
9 *948:B *1166:CLK 0
10 *944:B *258:10 0.000115371
11 *945:B *258:10 9.58689e-05
12 *946:A *948:B 0.000161956
13 *946:A *258:10 7.15503e-05
*RES
1 *945:X *258:10 14.0857 
2 *258:10 *948:B 22.7554 
3 *258:10 *947:A2 9.72857 
*END

*D_NET *259 0.000683514
*CONN
*I *947:C1 I *D sky130_fd_sc_hd__a211o_1
*I *946:Y O *D sky130_fd_sc_hd__inv_2
*CAP
1 *947:C1 0.000242203
2 *946:Y 0.000242203
3 *947:C1 *948:A 0.000141443
4 *946:A *947:C1 3.93522e-05
5 *948:B *947:C1 1.83129e-05
*RES
1 *946:Y *947:C1 22.7964 
*END

*D_NET *260 0.000664602
*CONN
*I *949:B1 I *D sky130_fd_sc_hd__a22o_1
*I *947:X O *D sky130_fd_sc_hd__a211o_1
*CAP
1 *949:B1 0.000231353
2 *947:X 0.000231353
3 *949:B1 *948:A 1.4796e-05
4 *949:B1 *949:B2 0
5 *946:A *949:B1 0.0001871
6 *238:112 *949:B1 0
*RES
1 *947:X *949:B1 31.1179 
*END

*D_NET *261 0.00111108
*CONN
*I *949:B2 I *D sky130_fd_sc_hd__a22o_1
*I *948:X O *D sky130_fd_sc_hd__or2_1
*CAP
1 *949:B2 0.000405737
2 *948:X 0.000405737
3 *949:B2 *949:A1 0.00022963
4 *949:B2 *1166:CLK 0
5 *949:B1 *949:B2 0
6 *255:14 *949:B2 6.99731e-05
*RES
1 *948:X *949:B2 33.6357 
*END

*D_NET *262 0.00114311
*CONN
*I *950:B2 I *D sky130_fd_sc_hd__a22o_1
*I *949:X O *D sky130_fd_sc_hd__a22o_1
*CAP
1 *950:B2 0.000251285
2 *949:X 0.000251285
3 *950:B2 *950:A1 5.49489e-05
4 *950:B2 *1163:CLK 0.000148903
5 *950:B2 *281:74 0.000271302
6 *940:B *950:B2 5.49489e-05
7 *950:B1 *950:B2 0.000110436
*RES
1 *949:X *950:B2 32.6714 
*END

*D_NET *263 0.00349685
*CONN
*I *951:B2 I *D sky130_fd_sc_hd__a22o_1
*I *950:X O *D sky130_fd_sc_hd__a22o_1
*CAP
1 *951:B2 0.000905385
2 *950:X 0.000905385
3 *951:B2 *952:B2 1.2747e-05
4 *951:B2 *953:C1 5.33005e-05
5 *942:B *951:B2 5.52302e-05
6 *951:B1 *951:B2 0.00126875
7 *952:A2 *951:B2 0.0001839
8 *247:6 *951:B2 9.55638e-05
9 *249:8 *951:B2 1.6588e-05
*RES
1 *950:X *951:B2 37.1179 
*END

*D_NET *264 0.00085526
*CONN
*I *952:B2 I *D sky130_fd_sc_hd__a22o_1
*I *951:X O *D sky130_fd_sc_hd__a22o_1
*CAP
1 *952:B2 0.000280431
2 *951:X 0.000280431
3 *952:B2 *1171:A 5.33614e-05
4 *937:B *952:B2 5.20751e-05
5 *951:B1 *952:B2 0.000160523
6 *951:B2 *952:B2 1.2747e-05
7 *952:B1 *952:B2 9.25014e-06
8 *247:6 *952:B2 6.44139e-06
*RES
1 *951:X *952:B2 31.5464 
*END

*D_NET *265 0.00119564
*CONN
*I *953:C1 I *D sky130_fd_sc_hd__o221a_1
*I *952:X O *D sky130_fd_sc_hd__a22o_1
*CAP
1 *953:C1 0.000302884
2 *952:X 0.000302884
3 *953:C1 *953:B2 0.000156866
4 *953:C1 *955:A1 0.000143967
5 *953:C1 *268:95 1.89601e-05
6 *951:B2 *953:C1 5.33005e-05
7 *953:B1 *953:C1 9.49318e-05
8 *954:A2 *953:C1 0.000121842
9 *242:14 *953:C1 0
*RES
1 *952:X *953:C1 34.225 
*END

*D_NET *266 0.000971317
*CONN
*I *954:B2 I *D sky130_fd_sc_hd__o22a_1
*I *953:X O *D sky130_fd_sc_hd__o221a_1
*CAP
1 *954:B2 0.000195407
2 *953:X 0.000195407
3 *954:B2 *953:A1 5.66971e-05
4 *954:B2 *953:B2 0.000334843
5 *954:B2 *332:35 3.90513e-05
6 *932:B *954:B2 0
7 *954:B1 *954:B2 0.000149911
*RES
1 *953:X *954:B2 32.5107 
*END

*D_NET *267 0.00052209
*CONN
*I *955:B1 I *D sky130_fd_sc_hd__a21oi_4
*I *954:X O *D sky130_fd_sc_hd__o22a_1
*CAP
1 *955:B1 0.000120426
2 *954:X 0.000120426
3 *955:B1 *281:74 9.60875e-05
4 *955:B1 *332:27 4.22908e-05
5 *955:B1 *332:35 0.000123295
6 *945:A *955:B1 0
7 *241:12 *955:B1 1.95646e-05
*RES
1 *954:X *955:B1 30.6179 
*END

*D_NET *268 0.0207105
*CONN
*I *1143:A3 I *D sky130_fd_sc_hd__a31o_1
*I *1147:A3 I *D sky130_fd_sc_hd__a31o_1
*I *1145:A3 I *D sky130_fd_sc_hd__a31o_1
*I *1149:A3 I *D sky130_fd_sc_hd__a31o_1
*I *1141:A3 I *D sky130_fd_sc_hd__a31o_1
*I *1151:A3 I *D sky130_fd_sc_hd__a31o_1
*I *956:B I *D sky130_fd_sc_hd__nor2_2
*I *1153:A3 I *D sky130_fd_sc_hd__a31o_1
*I *1155:A3 I *D sky130_fd_sc_hd__a31o_1
*I *955:Y O *D sky130_fd_sc_hd__a21oi_4
*CAP
1 *1143:A3 1.77691e-05
2 *1147:A3 0.000890627
3 *1145:A3 0
4 *1149:A3 0.000158372
5 *1141:A3 0.000150066
6 *1151:A3 0
7 *956:B 0.000686758
8 *1153:A3 3.53378e-05
9 *1155:A3 0.000253902
10 *955:Y 0.000158999
11 *268:101 0.000444975
12 *268:97 0.00117723
13 *268:95 0.00143331
14 *268:24 0.000418714
15 *268:18 0.000863993
16 *268:14 0.000414722
17 *268:8 0.00148274
18 *268:6 0.00254025
19 *956:B *269:8 5.49544e-05
20 *956:B *316:135 0.000109424
21 *1141:A3 *1184:A 9.15842e-06
22 *1141:A3 *281:10 0
23 *1141:A3 *281:33 0.000141935
24 *1147:A3 *1159:CLK 2.72545e-05
25 *1147:A3 *1163:CLK 0
26 *1153:A3 *281:33 9.34715e-05
27 *1155:A3 *1154:B 5.01064e-05
28 *1155:A3 *1162:RESET_B 1.14849e-05
29 *268:8 *926:A 1.24368e-05
30 *268:8 *281:74 0.000109935
31 *268:14 *926:A 9.90367e-05
32 *268:14 *1154:B 3.50166e-05
33 *268:18 *1154:B 0.000225995
34 *268:24 *281:33 9.58126e-05
35 *268:95 *939:A 5.80706e-06
36 *268:95 *952:A1 0.000181381
37 *268:95 *955:A1 0.000196416
38 *268:95 *295:16 0.000181796
39 *268:95 *297:16 1.98071e-05
40 *268:101 *1163:CLK 0
41 *268:101 *1166:CLK 0
42 *919:A *268:18 1.24368e-05
43 *926:D *268:14 5.71472e-05
44 *927:A *268:8 0.000245942
45 *942:A *268:95 0
46 *951:B1 *268:95 0.000779706
47 *952:A2 *268:95 7.70035e-05
48 *953:B1 *268:95 0
49 *953:C1 *268:95 1.89601e-05
50 *1102:A *1147:A3 0.000261851
51 *1102:B *1147:A3 0.000126278
52 *1103:A1 *1147:A3 9.96553e-05
53 *1129:B2 *1147:A3 0.000320031
54 *1141:A1 *1141:A3 0
55 *1141:B1 *1141:A3 0.000143633
56 *1143:A1 *1143:A3 5.52302e-05
57 *1143:A1 *268:95 0.000569794
58 *1143:A2 *1143:A3 6.05161e-06
59 *1145:A1 *1147:A3 0.00017271
60 *1145:A1 *268:101 2.49484e-05
61 *1145:B1 *1149:A3 0.000144241
62 *1147:A2 *1143:A3 1.98839e-05
63 *1147:A2 *268:95 0.000186156
64 *1149:A2 *1149:A3 0.000183683
65 *1151:A1 *268:8 1.02936e-05
66 *1151:A1 *268:14 0.000127123
67 *1151:A2 *268:14 5.49489e-05
68 *1151:A2 *268:18 5.49544e-05
69 *1153:A2 *1153:A3 5.982e-05
70 *1155:A1 *1155:A3 0.000136682
71 *1155:A2 *1155:A3 0.000184631
72 *1155:A2 *268:24 3.12359e-05
73 *1163:D *1147:A3 0.000128154
74 *1164:D *268:101 0.000100458
75 *1165:D *1147:A3 0.000101545
76 *1167:D *956:B 5.01562e-05
77 *1169:D *1155:A3 5.66472e-05
78 *190:24 *1147:A3 9.94172e-05
79 *230:10 *956:B 5.55219e-05
80 *230:12 *956:B 0.00130386
81 *230:12 *268:24 1.02504e-05
82 *230:14 *268:24 5.59013e-05
83 *230:20 *268:24 0.000129572
84 *230:37 *1153:A3 9.83442e-05
85 *230:37 *268:24 4.08637e-05
86 *230:94 *268:101 0.000508309
87 *231:23 *268:14 5.74499e-06
88 *231:23 *268:18 8.48366e-05
89 *235:70 *1147:A3 0.000161787
90 *241:12 *268:6 0.000221963
91 *241:12 *268:8 0.000437692
92 *242:14 *268:95 0
93 *252:12 *268:95 0.000105414
*RES
1 *955:Y *268:6 11.4786 
2 *268:6 *268:8 12.8571 
3 *268:8 *268:14 5.5 
4 *268:14 *268:18 6.67857 
5 *268:18 *268:24 7.39286 
6 *268:24 *1155:A3 23.5857 
7 *268:24 *1153:A3 10.9786 
8 *268:18 *956:B 31.7643 
9 *268:14 *1151:A3 9.3 
10 *268:8 *1141:A3 21.6036 
11 *268:6 *268:95 42.8571 
12 *268:95 *268:97 4.5 
13 *268:97 *268:101 11.6071 
14 *268:101 *1149:A3 13.5857 
15 *268:101 *1145:A3 9.3 
16 *268:97 *1147:A3 34.0143 
17 *268:95 *1143:A3 9.83571 
*END

*D_NET *269 0.0163113
*CONN
*I *1133:B1 I *D sky130_fd_sc_hd__a22o_1
*I *1137:B1 I *D sky130_fd_sc_hd__a22o_1
*I *1139:B1 I *D sky130_fd_sc_hd__a22o_1
*I *1130:B1 I *D sky130_fd_sc_hd__a22o_1
*I *957:B1_N I *D sky130_fd_sc_hd__o21ba_1
*I *956:Y O *D sky130_fd_sc_hd__nor2_2
*CAP
1 *1133:B1 0
2 *1137:B1 0
3 *1139:B1 0.000514672
4 *1130:B1 0.000101622
5 *957:B1_N 2.52449e-05
6 *956:Y 0.000115843
7 *269:90 0.00289188
8 *269:42 0.000679965
9 *269:36 0.00386157
10 *269:21 0.00142734
11 *269:8 0.000662405
12 *1139:B1 *1137:A2 5.17614e-05
13 *1139:B1 *1139:A2 7.83587e-05
14 *1139:B1 *1160:CLK 0
15 *1139:B1 *1161:CLK 9.90367e-05
16 *1139:B1 *282:30 0
17 *1139:B1 *298:10 0
18 *1139:B1 *315:56 0.00010597
19 *1139:B1 *315:58 4.1331e-06
20 *269:8 *316:135 3.69047e-06
21 *269:21 *1005:A 0.000289204
22 *269:21 *1024:A 7.61693e-05
23 *269:21 *282:21 6.68493e-05
24 *269:21 *294:12 0
25 *269:36 *975:A 7.58841e-05
26 *269:42 *1137:A2 2.24079e-05
27 *269:90 *295:10 8.23597e-06
28 *269:90 *315:36 0.000200935
29 *269:90 *316:22 3.93893e-05
30 *956:A *957:B1_N 5.33005e-05
31 *956:A *269:8 3.03071e-05
32 *956:B *269:8 5.49544e-05
33 *957:A2 *957:B1_N 4.60153e-05
34 *957:A2 *269:8 5.33005e-05
35 *1006:A1 *269:36 3.48235e-05
36 *1018:B *269:90 2.89114e-05
37 *1019:C_N *269:90 5.03772e-05
38 *1027:B1_N *269:21 0.000236144
39 *1029:B *269:90 2.21972e-05
40 *1046:C *269:21 0.000124083
41 *1095:A *269:90 3.18676e-05
42 *1108:B *269:90 1.04232e-05
43 *1111:A1 *269:90 2.77258e-05
44 *1112:C1 *269:90 1.39726e-05
45 *1130:B2 *269:36 7.34009e-05
46 *1132:B1 *269:90 0.000141734
47 *1138:A *1139:B1 7.6411e-05
48 *1139:A1 *1139:B1 9.60875e-05
49 *1139:B2 *1139:B1 1.32552e-05
50 *1156:D *957:B1_N 2.2351e-05
51 *1160:D *1139:B1 6.8445e-06
52 *1161:D *1139:B1 0.000345495
53 *61:95 *269:36 2.11063e-05
54 *91:29 *269:36 2.26424e-05
55 *92:12 *269:36 0.000123288
56 *101:17 *269:90 9.21604e-05
57 *112:23 *269:21 0.000104974
58 *113:16 *269:36 0.000304746
59 *113:16 *269:90 7.34455e-06
60 *164:23 *269:90 0
61 *198:12 *269:90 6.70515e-05
62 *200:30 *269:90 0.000236655
63 *220:30 *269:42 5.67624e-05
64 *220:30 *269:90 0.00108022
65 *230:10 *269:21 0.000311014
66 *232:14 *269:21 3.12359e-05
67 *232:47 *269:21 9.7285e-05
68 *232:66 *1130:B1 1.22512e-05
69 *232:66 *1139:B1 0.000394754
70 *232:66 *269:36 2.51343e-06
71 *234:6 *269:36 0.000348737
*RES
1 *956:Y *269:8 11.4964 
2 *269:8 *957:B1_N 10.2464 
3 *269:8 *269:21 22.7857 
4 *269:21 *1130:B1 10.8714 
5 *269:21 *269:36 17.7857 
6 *269:36 *269:42 6.69643 
7 *269:42 *1139:B1 31.4607 
8 *269:42 *1137:B1 9.3 
9 *269:36 *269:90 45.339 
10 *269:90 *1133:B1 9.3 
*END

*D_NET *270 0.00690942
*CONN
*I *1002:C I *D sky130_fd_sc_hd__nand3_1
*I *1003:A1 I *D sky130_fd_sc_hd__o211a_1
*I *996:A I *D sky130_fd_sc_hd__xor2_1
*I *992:A I *D sky130_fd_sc_hd__xnor2_1
*I *1014:A I *D sky130_fd_sc_hd__xnor2_1
*I *1031:B1_N I *D sky130_fd_sc_hd__a21bo_1
*I *1013:A I *D sky130_fd_sc_hd__or3b_2
*I *958:Y O *D sky130_fd_sc_hd__nand2_2
*CAP
1 *1002:C 0
2 *1003:A1 0.000158031
3 *996:A 0
4 *992:A 0
5 *1014:A 0
6 *1031:B1_N 0.000121169
7 *1013:A 1.3963e-05
8 *958:Y 0.000185217
9 *270:30 0.000226242
10 *270:28 0.00065882
11 *270:18 0.000694296
12 *270:16 0.00055408
13 *270:12 0.000705037
14 *270:6 0.00030473
15 *1031:B1_N *1021:A 7.6539e-05
16 *270:6 *958:A 8.84686e-05
17 *270:16 *285:34 7.71462e-05
18 *270:16 *316:62 9.84673e-05
19 *270:18 *285:34 0.000687686
20 *270:18 *316:62 0.000179537
21 *270:28 *285:34 5.66472e-05
22 *270:28 *316:62 2.85321e-05
23 *987:C *270:28 0
24 *992:B *270:18 0.00022367
25 *997:B *270:16 0.000314114
26 *1001:B *270:6 7.46133e-05
27 *1003:A2 *1003:A1 0.000248646
28 *1003:A2 *270:16 0.000183477
29 *1003:B1 *1003:A1 1.59373e-05
30 *1003:C1 *270:6 9.58689e-05
31 *1004:A *1003:A1 3.41517e-06
32 *1014:B *270:28 0
33 *1019:B *270:28 7.7591e-05
34 *69:12 *270:28 0
35 *73:14 *270:28 3.35781e-05
36 *82:6 *270:16 5.49995e-05
37 *99:10 *1013:A 2.84026e-05
38 *99:10 *1031:B1_N 1.74081e-05
39 *99:10 *270:30 7.57394e-05
40 *100:12 *270:28 5.20669e-05
41 *139:39 *270:28 0
42 *141:16 *270:28 0
43 *190:30 *270:12 0.000190459
44 *215:16 *1013:A 3.08664e-05
45 *215:16 *270:28 0.000138217
46 *215:16 *270:30 0.000135741
*RES
1 *958:Y *270:6 13.1214 
2 *270:6 *270:12 11.5536 
3 *270:12 *270:16 8.66071 
4 *270:16 *270:18 6.69643 
5 *270:18 *270:28 19.8393 
6 *270:28 *270:30 2.58929 
7 *270:30 *1013:A 9.83571 
8 *270:30 *1031:B1_N 20.6036 
9 *270:28 *1014:A 9.3 
10 *270:18 *992:A 9.3 
11 *270:16 *996:A 9.3 
12 *270:12 *1003:A1 12.6214 
13 *270:6 *1002:C 9.3 
*END

*D_NET *271 0.0138383
*CONN
*I *967:A1 I *D sky130_fd_sc_hd__o21ai_1
*I *966:A I *D sky130_fd_sc_hd__and3_1
*I *961:A I *D sky130_fd_sc_hd__and4_1
*I *963:B2 I *D sky130_fd_sc_hd__a22o_1
*I *964:A I *D sky130_fd_sc_hd__nand4_1
*I *974:A I *D sky130_fd_sc_hd__nand4_2
*I *979:A I *D sky130_fd_sc_hd__nand4_2
*I *1040:A I *D sky130_fd_sc_hd__nand4_1
*I *1039:A I *D sky130_fd_sc_hd__and4_1
*I *1035:A I *D sky130_fd_sc_hd__nand4_1
*I *959:X O *D sky130_fd_sc_hd__buf_2
*CAP
1 *967:A1 0.000413931
2 *966:A 9.26361e-05
3 *961:A 0
4 *963:B2 0.000238802
5 *964:A 0.000124307
6 *974:A 0.000341141
7 *979:A 7.92316e-05
8 *1040:A 7.90717e-05
9 *1039:A 5.90656e-05
10 *1035:A 0.000132415
11 *959:X 0
12 *271:126 0.000799608
13 *271:109 0.000579454
14 *271:86 0.000682608
15 *271:69 0.000928841
16 *271:14 0.000263038
17 *271:12 0.000326865
18 *271:10 0.000528294
19 *271:6 0.000745226
20 *271:4 0.0007784
21 *963:B2 *272:69 2.38651e-06
22 *963:B2 *272:86 2.29102e-05
23 *963:B2 *282:54 5.33005e-05
24 *964:A *295:16 6.87582e-05
25 *964:A *332:46 0.000146254
26 *966:A *272:107 5.71472e-05
27 *966:A *282:54 2.89016e-05
28 *967:A1 *958:A 1.80912e-05
29 *967:A1 *968:A1 1.94945e-05
30 *967:A1 *278:14 0.000242652
31 *967:A1 *278:31 5.26224e-05
32 *967:A1 *279:8 6.26774e-06
33 *967:A1 *332:81 1.25784e-05
34 *974:A *959:A 1.03904e-05
35 *974:A *305:41 0.000151848
36 *979:A *272:18 3.23641e-05
37 *1035:A *272:18 4.15469e-05
38 *1035:A *272:24 0.000134614
39 *1035:A *331:26 5.89404e-05
40 *1039:A *1039:B 3.2033e-05
41 *1040:A *331:26 0.000112036
42 *271:6 *959:A 3.4689e-05
43 *271:6 *305:41 1.99271e-05
44 *271:10 *959:A 1.35465e-05
45 *271:12 *272:18 0.000146262
46 *271:14 *272:18 7.87601e-05
47 *271:14 *331:26 1.12669e-05
48 *271:69 *305:41 3.04037e-05
49 *271:86 *963:A1 0.000148911
50 *271:86 *988:B1 0.000102545
51 *271:86 *272:69 1.31516e-05
52 *271:86 *272:86 4.45193e-05
53 *271:86 *295:16 0.000100189
54 *271:86 *332:46 6.90125e-05
55 *271:109 *277:12 9.25014e-06
56 *271:109 *277:27 6.98302e-05
57 *271:109 *332:103 1.08359e-05
58 *271:126 *970:A 0.000101011
59 *271:126 *970:B 0.000136482
60 *271:126 *272:107 0.000108569
61 *271:126 *277:27 5.33005e-05
62 *961:D *963:B2 0.00037362
63 *961:D *271:109 0.000351156
64 *961:D *271:126 9.34185e-05
65 *963:B1 *963:B2 5.49544e-05
66 *970:C *271:126 5.52238e-05
67 *970:D_N *967:A1 4.53834e-05
68 *979:B *979:A 9.67754e-05
69 *979:D *979:A 5.03772e-05
70 *981:C *974:A 0.000173797
71 *1044:B1 *271:12 4.4044e-05
72 *1045:A1 *964:A 7.77721e-06
73 *1051:A *974:A 8.47011e-05
74 *57:33 *974:A 0.000161852
75 *66:10 *974:A 0.000264614
76 *66:10 *271:10 0.000354086
77 *71:10 *974:A 9.40051e-05
78 *71:12 *974:A 2.84398e-05
79 *71:68 *271:109 3.57163e-05
80 *74:8 *271:86 7.55747e-05
81 *125:14 *271:12 0.000124019
82 *125:14 *271:14 0.000146254
83 *126:12 *1040:A 0.000112036
84 *137:14 *974:A 0.0001098
85 *152:8 *964:A 1.41743e-05
86 *164:8 *966:A 9.99989e-05
87 *164:8 *967:A1 3.13225e-05
88 *233:44 *979:A 2.14901e-05
89 *233:44 *271:12 3.90111e-05
90 *235:99 *271:69 0.000382678
91 *236:50 *1035:A 9.71197e-05
92 *237:40 *1035:A 0.000122719
93 *241:123 *966:A 7.80714e-06
94 *241:138 *966:A 0.000170654
95 *241:138 *967:A1 0.000113119
*RES
1 *959:X *271:4 9.3 
2 *271:4 *271:6 1.76786 
3 *271:6 *271:10 8.32143 
4 *271:10 *271:12 4.07143 
5 *271:12 *271:14 2.25 
6 *271:14 *1035:A 17.9071 
7 *271:14 *1039:A 14.7464 
8 *271:12 *1040:A 15.9786 
9 *271:10 *979:A 15.7821 
10 *271:6 *974:A 29.05 
11 *271:4 *271:69 12.8393 
12 *271:69 *964:A 16.4161 
13 *271:69 *271:86 9.48214 
14 *271:86 *963:B2 22.9607 
15 *271:86 *271:109 13.75 
16 *271:109 *961:A 9.3 
17 *271:109 *271:126 10.9643 
18 *271:126 *966:A 16.8893 
19 *271:126 *967:A1 23.8201 
*END

*D_NET *272 0.0180642
*CONN
*I *974:B I *D sky130_fd_sc_hd__nand4_2
*I *1039:B I *D sky130_fd_sc_hd__and4_1
*I *967:A2 I *D sky130_fd_sc_hd__o21ai_1
*I *966:C I *D sky130_fd_sc_hd__and3_1
*I *1072:A I *D sky130_fd_sc_hd__xnor2_1
*I *961:C I *D sky130_fd_sc_hd__and4_1
*I *963:A2 I *D sky130_fd_sc_hd__a22o_1
*I *964:C I *D sky130_fd_sc_hd__nand4_1
*I *1069:B2 I *D sky130_fd_sc_hd__a22o_1
*I *1057:A I *D sky130_fd_sc_hd__and4_1
*I *960:X O *D sky130_fd_sc_hd__clkbuf_4
*CAP
1 *974:B 0.000129531
2 *1039:B 2.95457e-05
3 *967:A2 0.000588461
4 *966:C 0
5 *1072:A 0.000425444
6 *961:C 0
7 *963:A2 0
8 *964:C 0
9 *1069:B2 1.17492e-05
10 *1057:A 0.000231521
11 *960:X 0.000126592
12 *272:122 0.000599494
13 *272:107 0.000915255
14 *272:86 0.00118388
15 *272:69 0.000878453
16 *272:60 0.000405356
17 *272:45 0.000560786
18 *272:24 0.00133772
19 *272:18 0.00162847
20 *272:14 0.00106588
21 *967:A2 *282:54 2.44318e-05
22 *967:A2 *332:81 3.2746e-05
23 *974:B *962:B 0.000308007
24 *1057:A *971:A 7.14196e-06
25 *1057:A *1171:A 0.000275726
26 *1057:A *293:24 0
27 *272:14 *962:B 0.000147869
28 *272:24 *331:26 0
29 *272:45 *332:35 0.000108763
30 *272:60 *332:35 0.000179215
31 *272:60 *332:46 2.35282e-05
32 *272:69 *963:A1 0.000140375
33 *272:69 *332:46 0.000216981
34 *272:86 *274:44 4.32918e-05
35 *272:86 *332:103 0.000135131
36 *272:107 *962:A 1.02504e-05
37 *272:107 *970:A 1.98839e-05
38 *272:107 *274:44 1.87955e-05
39 *272:107 *282:54 4.85178e-05
40 *272:107 *316:32 0.0003103
41 *272:107 *332:103 4.73656e-05
42 *961:D *272:69 0
43 *963:B2 *272:69 2.38651e-06
44 *963:B2 *272:86 2.29102e-05
45 *964:D *272:60 4.13122e-06
46 *964:D *272:69 0.000102027
47 *966:A *272:107 5.71472e-05
48 *970:D_N *272:107 5.33005e-05
49 *972:A *967:A2 0.000114954
50 *972:A *272:107 6.05161e-06
51 *972:A *272:122 1.05903e-05
52 *972:B *967:A2 8.9131e-05
53 *973:B1 *967:A2 8.52233e-05
54 *974:D *974:B 8.60361e-05
55 *974:D *272:14 5.33005e-05
56 *979:A *272:18 3.23641e-05
57 *1024:B *272:14 3.78688e-05
58 *1035:A *272:18 4.15469e-05
59 *1035:A *272:24 0.000134614
60 *1039:A *1039:B 3.2033e-05
61 *1051:D *272:18 7.83587e-05
62 *1056:B *272:24 0.000110621
63 *1059:B *272:45 0.000208261
64 *1059:B *272:60 3.34027e-05
65 *1061:B1 *272:60 7.24209e-05
66 *1066:A *272:60 1.0488e-05
67 *1071:B1 *1072:A 8.91505e-05
68 *1072:B *1072:A 1.32056e-05
69 *1074:B *1072:A 0.000140986
70 *1078:A1 *1072:A 0.000152718
71 *1078:B1 *1072:A 0.000151195
72 *57:8 *272:24 0.000142361
73 *57:20 *1057:A 0
74 *57:68 *272:24 1.48556e-05
75 *57:68 *272:45 0.000449823
76 *57:100 *1072:A 5.82486e-05
77 *57:121 *272:107 0.000308592
78 *61:10 *272:14 0.000147921
79 *61:10 *272:18 0
80 *121:8 *272:18 0.000347501
81 *121:8 *272:24 0.000101178
82 *121:27 *272:18 0.000259943
83 *127:8 *1039:B 9.67754e-05
84 *142:8 *272:24 1.26059e-05
85 *144:12 *1057:A 7.70035e-05
86 *164:8 *1072:A 3.25247e-05
87 *190:30 *967:A2 0
88 *233:69 *272:18 0
89 *233:125 *272:69 4.99138e-05
90 *234:21 *272:18 0
91 *234:25 *272:18 2.91887e-05
92 *234:35 *272:18 0.000182336
93 *234:37 *272:18 2.26327e-05
94 *234:39 *272:24 6.28982e-05
95 *235:20 *272:14 7.3988e-05
96 *235:20 *272:18 3.14003e-05
97 *236:16 *1072:A 0.00013255
98 *236:36 *1057:A 4.19624e-06
99 *236:50 *272:24 0.000135706
100 *236:104 *1072:A 5.51649e-05
101 *237:59 *1057:A 9.41642e-05
102 *237:72 *1069:B2 5.50052e-05
103 *238:59 *1057:A 6.54263e-05
104 *238:66 *1069:B2 5.50052e-05
105 *238:92 *1072:A 5.66971e-05
106 *241:123 *967:A2 2.8266e-06
107 *241:123 *1072:A 0.000271587
108 *271:12 *272:18 0.000146262
109 *271:14 *272:18 7.87601e-05
110 *271:86 *272:69 1.31516e-05
111 *271:86 *272:86 4.45193e-05
112 *271:126 *272:107 0.000108569
*RES
1 *960:X *272:14 22.0321 
2 *272:14 *272:18 22.5357 
3 *272:18 *272:24 16.5179 
4 *272:24 *1057:A 23.0143 
5 *272:24 *272:45 12.0179 
6 *272:45 *1069:B2 14.3357 
7 *272:45 *272:60 5.64286 
8 *272:60 *964:C 13.8 
9 *272:60 *272:69 4.98214 
10 *272:69 *963:A2 13.8 
11 *272:69 *272:86 10.786 
12 *272:86 *961:C 13.8 
13 *272:86 *272:107 22.6607 
14 *272:107 *1072:A 30.1214 
15 *272:107 *272:122 0.21875 
16 *272:122 *966:C 9.3 
17 *272:122 *967:A2 27.1348 
18 *272:18 *1039:B 14.7464 
19 *272:14 *974:B 12.7286 
*END

*D_NET *273 0.000553198
*CONN
*I *970:A I *D sky130_fd_sc_hd__or4b_1
*I *961:X O *D sky130_fd_sc_hd__and4_1
*CAP
1 *970:A 9.96288e-05
2 *961:X 9.96288e-05
3 *970:C *970:A 5.52238e-05
4 *970:D_N *970:A 0.000177821
5 *271:126 *970:A 0.000101011
6 *272:107 *970:A 1.98839e-05
*RES
1 *961:X *970:A 21.1893 
*END

*D_NET *274 0.00826291
*CONN
*I *968:B1 I *D sky130_fd_sc_hd__o21a_1
*I *969:B I *D sky130_fd_sc_hd__or3_1
*I *965:A I *D sky130_fd_sc_hd__and3_1
*I *988:B1 I *D sky130_fd_sc_hd__a21oi_1
*I *982:B1 I *D sky130_fd_sc_hd__a21o_1
*I *981:A I *D sky130_fd_sc_hd__nand3_1
*I *962:X O *D sky130_fd_sc_hd__and2_1
*CAP
1 *968:B1 0.000287657
2 *969:B 0
3 *965:A 9.43363e-05
4 *988:B1 0.000484635
5 *982:B1 2.45935e-05
6 *981:A 0.000174878
7 *962:X 0
8 *274:76 0.000632954
9 *274:44 0.000804917
10 *274:42 0.0013785
11 *274:10 0.000385902
12 *274:4 0.000993689
13 *965:A *282:54 9.92409e-05
14 *968:B1 *958:A 0
15 *968:B1 *968:A1 8.23597e-06
16 *968:B1 *1147:A1 5.33005e-05
17 *968:B1 *278:31 4.42303e-05
18 *968:B1 *278:53 5.41794e-05
19 *968:B1 *279:8 2.59355e-05
20 *968:B1 *279:23 1.08359e-05
21 *968:B1 *316:22 3.17148e-05
22 *968:B1 *316:26 8.57023e-05
23 *968:B1 *332:81 2.89114e-05
24 *981:A *293:24 5.58941e-05
25 *988:B1 *295:16 0.000100831
26 *988:B1 *305:41 0.000571124
27 *988:B1 *316:32 0.000101545
28 *988:B1 *332:54 0
29 *274:42 *962:B 5.49544e-05
30 *274:42 *989:B1 0.000175381
31 *274:44 *962:A 0
32 *274:44 *316:32 0.000353528
33 *274:44 *332:54 0
34 *274:76 *962:A 0
35 *274:76 *316:26 0.000350136
36 *274:76 *316:32 0.000108118
37 *274:76 *316:62 2.31791e-05
38 *973:B1 *968:B1 0.000140521
39 *982:A2 *981:A 1.02504e-05
40 *982:A2 *982:B1 3.4846e-06
41 *991:A *274:42 7.47337e-05
42 *1053:A *274:10 2.84109e-05
43 *56:12 *968:B1 0
44 *131:14 *982:B1 1.77011e-05
45 *131:14 *274:10 8.21191e-05
46 *139:14 *274:10 0.000142011
47 *271:86 *988:B1 0.000102545
48 *272:86 *274:44 4.32918e-05
49 *272:107 *274:44 1.87955e-05
*RES
1 *962:X *274:4 9.3 
2 *274:4 *274:10 8.21429 
3 *274:10 *981:A 16.3 
4 *274:10 *982:B1 14.5321 
5 *274:4 *274:42 15.8929 
6 *274:42 *274:44 4.67857 
7 *274:44 *988:B1 30.9429 
8 *274:44 *965:A 15.5679 
9 *274:42 *274:76 9.96429 
10 *274:76 *969:B 9.3 
11 *274:76 *968:B1 23.3536 
*END

*D_NET *275 0.00112071
*CONN
*I *988:A1 I *D sky130_fd_sc_hd__a21oi_1
*I *965:B I *D sky130_fd_sc_hd__and3_1
*I *963:X O *D sky130_fd_sc_hd__a22o_1
*CAP
1 *988:A1 0
2 *965:B 0.000193319
3 *963:X 0.000142734
4 *275:8 0.000336053
5 *965:B *1157:D 0.000227539
6 *965:B *295:16 7.88765e-05
7 *275:8 *988:A2 2.53134e-05
8 *275:8 *276:14 3.57366e-05
9 *275:8 *282:54 4.35421e-05
10 *71:68 *965:B 3.7596e-05
*RES
1 *963:X *275:8 11.3893 
2 *275:8 *965:B 21.5143 
3 *275:8 *988:A1 9.3 
*END

*D_NET *276 0.00147213
*CONN
*I *965:C I *D sky130_fd_sc_hd__and3_1
*I *988:A2 I *D sky130_fd_sc_hd__a21oi_1
*I *964:Y O *D sky130_fd_sc_hd__nand4_1
*CAP
1 *965:C 6.11668e-05
2 *988:A2 1.32931e-05
3 *964:Y 0.000266349
4 *276:14 0.000340809
5 *965:C *277:12 8.57208e-05
6 *965:C *282:54 9.2127e-05
7 *988:A2 *277:12 0
8 *276:14 *277:12 0
9 *276:14 *295:16 0.000127223
10 *1066:A *276:14 0.000139344
11 *71:68 *276:14 0.000261201
12 *152:8 *276:14 2.38501e-05
13 *275:8 *988:A2 2.53134e-05
14 *275:8 *276:14 3.57366e-05
*RES
1 *964:Y *276:14 23.9607 
2 *276:14 *988:A2 9.72857 
3 *276:14 *965:C 10.925 
*END

*D_NET *277 0.00306814
*CONN
*I *989:B1 I *D sky130_fd_sc_hd__a211oi_1
*I *990:A1 I *D sky130_fd_sc_hd__o211a_1
*I *970:B I *D sky130_fd_sc_hd__or4b_1
*I *965:X O *D sky130_fd_sc_hd__and3_1
*CAP
1 *989:B1 0.000155924
2 *990:A1 5.3835e-05
3 *970:B 0.000233005
4 *965:X 0.000232247
5 *277:27 0.00033179
6 *277:12 0.000587282
7 *989:B1 *295:16 0.00017309
8 *277:12 *282:54 2.34997e-05
9 *277:12 *332:54 7.88765e-05
10 *277:12 *332:103 6.60268e-05
11 *277:27 *332:103 7.90803e-05
12 *961:D *970:B 0.000136958
13 *961:D *990:A1 4.87953e-05
14 *961:D *277:27 0.000134539
15 *965:C *277:12 8.57208e-05
16 *988:A2 *277:12 0
17 *990:A2 *990:A1 6.05161e-06
18 *991:A *989:B1 5.62425e-05
19 *991:B *277:27 5.17614e-05
20 *71:68 *989:B1 8.91726e-05
21 *71:68 *277:12 0
22 *271:109 *277:12 9.25014e-06
23 *271:109 *277:27 6.98302e-05
24 *271:126 *970:B 0.000136482
25 *271:126 *277:27 5.33005e-05
26 *274:42 *989:B1 0.000175381
27 *276:14 *277:12 0
*RES
1 *965:X *277:12 17.8357 
2 *277:12 *970:B 16.8 
3 *277:12 *277:27 8.125 
4 *277:27 *990:A1 10.2464 
5 *277:27 *989:B1 23.0679 
*END

*D_NET *278 0.00346006
*CONN
*I *1002:B I *D sky130_fd_sc_hd__nand3_1
*I *995:A2 I *D sky130_fd_sc_hd__a21bo_1
*I *969:A I *D sky130_fd_sc_hd__or3_1
*I *973:A2 I *D sky130_fd_sc_hd__a22o_1
*I *968:A1 I *D sky130_fd_sc_hd__o21a_1
*I *966:X O *D sky130_fd_sc_hd__and3_1
*CAP
1 *1002:B 7.29572e-05
2 *995:A2 0.000111403
3 *969:A 6.16472e-05
4 *973:A2 0
5 *968:A1 2.07912e-05
6 *966:X 0.000240757
7 *278:53 0.000327607
8 *278:40 0.000247644
9 *278:31 0.000151295
10 *278:14 0.000370093
11 *968:A1 *279:8 1.03742e-05
12 *968:A1 *332:81 1.64673e-05
13 *969:A *969:C 5.52238e-05
14 *969:A *1147:A1 8.27532e-05
15 *969:A *316:26 0.000142856
16 *278:14 *968:A2 9.04704e-05
17 *278:14 *332:81 0.000101545
18 *278:31 *958:A 0
19 *278:40 *1147:A1 5.49544e-05
20 *278:53 *316:22 0.000112096
21 *967:A1 *968:A1 1.94945e-05
22 *967:A1 *278:14 0.000242652
23 *967:A1 *278:31 5.26224e-05
24 *968:B1 *968:A1 8.23597e-06
25 *968:B1 *278:31 4.42303e-05
26 *968:B1 *278:53 5.41794e-05
27 *973:A1 *969:A 4.45341e-05
28 *973:A1 *278:31 3.50166e-05
29 *973:B1 *969:A 2.59355e-05
30 *973:B1 *278:14 3.57844e-05
31 *1001:B *1002:B 1.43612e-05
32 *1002:A *995:A2 0.000308008
33 *1002:A *1002:B 5.1408e-05
34 *1003:A2 *995:A2 5.75774e-05
35 *1003:A2 *1002:B 5.65955e-05
36 *56:12 *995:A2 4.97967e-05
37 *57:142 *995:A2 5.66971e-05
38 *241:138 *278:14 3.19998e-05
*RES
1 *966:X *278:14 23.1255 
2 *278:14 *968:A1 14.2911 
3 *278:14 *278:31 6.72321 
4 *278:31 *973:A2 9.3 
5 *278:31 *278:40 0.964286 
6 *278:40 *969:A 11.4786 
7 *278:40 *278:53 11.5536 
8 *278:53 *995:A2 12.7107 
9 *278:53 *1002:B 11.0857 
*END

*D_NET *279 0.00180137
*CONN
*I *973:B2 I *D sky130_fd_sc_hd__a22o_1
*I *969:C I *D sky130_fd_sc_hd__or3_1
*I *968:A2 I *D sky130_fd_sc_hd__o21a_1
*I *967:Y O *D sky130_fd_sc_hd__o21ai_1
*CAP
1 *973:B2 0
2 *969:C 1.1624e-05
3 *968:A2 0.000149473
4 *967:Y 0.00027931
5 *279:23 8.95842e-05
6 *279:8 0.000506743
7 *968:A2 *332:81 0.000136682
8 *279:8 *332:81 8.07271e-05
9 *967:A1 *279:8 6.26774e-06
10 *968:A1 *279:8 1.03742e-05
11 *968:B1 *279:8 2.59355e-05
12 *968:B1 *279:23 1.08359e-05
13 *969:A *969:C 5.52238e-05
14 *973:A1 *969:C 5.52238e-05
15 *973:B1 *968:A2 0.000124313
16 *973:B1 *279:23 9.65217e-05
17 *56:12 *968:A2 4.6025e-06
18 *56:12 *279:23 5.74629e-05
19 *241:138 *968:A2 9.99444e-06
20 *278:14 *968:A2 9.04704e-05
*RES
1 *967:Y *279:8 17.2107 
2 *279:8 *968:A2 16.8 
3 *279:8 *279:23 6.14286 
4 *279:23 *969:C 9.83571 
5 *279:23 *973:B2 9.3 
*END

*D_NET *280 0.0045325
*CONN
*I *1172:A I *D sky130_fd_sc_hd__clkbuf_16
*I *1171:A I *D sky130_fd_sc_hd__clkbuf_16
*I *1170:X O *D sky130_fd_sc_hd__clkbuf_16
*CAP
1 *1172:A 0.000127958
2 *1171:A 0.000981728
3 *1170:X 0.000210386
4 *280:8 0.00132007
5 *1171:A *951:A1 7.7159e-06
6 *1171:A *281:74 7.57312e-05
7 *1171:A *293:24 0
8 *1172:A *282:54 7.57312e-05
9 *1172:A *293:24 0
10 *280:8 *305:41 0.00031319
11 *952:A2 *1171:A 0
12 *952:B1 *1171:A 3.00989e-05
13 *952:B2 *1171:A 5.33614e-05
14 *953:B1 *1171:A 0.000141766
15 *964:D *1171:A 0
16 *1057:A *1171:A 0.000275726
17 *1059:B *1171:A 0
18 *1061:A1 *1171:A 0.000344347
19 *1066:B *1171:A 0.000147862
20 *129:10 *1171:A 0
21 *131:14 *1171:A 0.000183737
22 *131:14 *1172:A 9.97164e-05
23 *241:12 *1171:A 0.000143375
*RES
1 *1170:X *280:8 16.8 
2 *280:8 *1171:A 33.1929 
3 *280:8 *1172:A 16.4964 
*END

*D_NET *281 0.0133036
*CONN
*I *1164:CLK I *D sky130_fd_sc_hd__dfrtp_1
*I *1163:CLK I *D sky130_fd_sc_hd__dfrtp_1
*I *1166:CLK I *D sky130_fd_sc_hd__dfrtp_1
*I *1167:CLK I *D sky130_fd_sc_hd__dfrtp_1
*I *1169:CLK I *D sky130_fd_sc_hd__dfrtp_1
*I *1168:CLK I *D sky130_fd_sc_hd__dfrtp_1
*I *1162:CLK I *D sky130_fd_sc_hd__dfrtp_1
*I *1171:X O *D sky130_fd_sc_hd__clkbuf_16
*CAP
1 *1164:CLK 4.51904e-05
2 *1163:CLK 0.00049054
3 *1166:CLK 0.000336827
4 *1167:CLK 0.000505272
5 *1169:CLK 0
6 *1168:CLK 0.000318984
7 *1162:CLK 0.000204819
8 *1171:X 0
9 *281:76 0.000827366
10 *281:74 0.0013148
11 *281:33 0.000725683
12 *281:10 0.000742771
13 *281:8 0.00069209
14 *281:4 0.00132517
15 *1162:CLK *1152:B 7.4854e-05
16 *1162:CLK *1162:RESET_B 0.000136732
17 *1162:CLK *331:26 0.000191337
18 *1164:CLK *291:20 3.23672e-05
19 *1167:CLK *926:A 1.65169e-05
20 *1167:CLK *283:14 2.51343e-06
21 *1167:CLK *331:26 0.00014576
22 *281:10 *331:26 0.000215172
23 *281:33 *1184:A 0.000181107
24 *281:74 *949:A1 3.18747e-05
25 *281:74 *291:20 4.28695e-05
26 *281:74 *332:27 5.38157e-05
27 *927:A *281:74 1.98839e-05
28 *932:B *281:74 0.000122101
29 *934:B *1167:CLK 0
30 *942:A *281:74 0.000267377
31 *943:B *281:74 7.20274e-05
32 *948:B *1166:CLK 0
33 *949:B2 *1166:CLK 0
34 *950:B1 *1163:CLK 1.67864e-05
35 *950:B1 *1166:CLK 5.37741e-06
36 *950:B2 *1163:CLK 0.000148903
37 *950:B2 *281:74 0.000271302
38 *954:A2 *281:74 0.00026432
39 *954:B1 *281:74 0.000268396
40 *955:B1 *281:74 9.60875e-05
41 *1141:A1 *281:10 0
42 *1141:A3 *281:10 0
43 *1141:A3 *281:33 0.000141935
44 *1141:B1 *281:33 0.000121838
45 *1147:A2 *1163:CLK 0.000121564
46 *1147:A3 *1163:CLK 0
47 *1150:A *1167:CLK 0.00018372
48 *1153:A1 *281:33 0.000560923
49 *1153:A3 *281:33 9.34715e-05
50 *1155:A2 *1168:CLK 3.8206e-05
51 *1162:D *1162:CLK 2.85321e-05
52 *1164:D *1166:CLK 0
53 *1168:D *1168:CLK 0.000261115
54 *1168:D *281:33 2.79421e-05
55 *1169:D *1168:CLK 7.74135e-05
56 *1171:A *281:74 7.57312e-05
57 *230:20 *281:33 2.12087e-05
58 *230:37 *281:33 9.35114e-06
59 *230:46 *281:33 5.74499e-06
60 *230:75 *1162:CLK 0.000173255
61 *230:75 *1166:CLK 2.84109e-05
62 *230:75 *281:10 4.44838e-05
63 *230:94 *1166:CLK 0
64 *232:100 *281:8 0.000135028
65 *232:100 *281:74 0.000125547
66 *234:45 *1167:CLK 0
67 *239:8 *281:8 9.41642e-05
68 *241:12 *281:74 7.17453e-05
69 *241:61 *1167:CLK 2.72859e-05
70 *241:91 *281:74 2.07491e-05
71 *242:14 *281:74 5.49544e-05
72 *247:6 *1167:CLK 9.90367e-05
73 *255:14 *281:74 0.000247478
74 *268:8 *281:74 0.000109935
75 *268:24 *281:33 9.58126e-05
76 *268:101 *1163:CLK 0
77 *268:101 *1166:CLK 0
*RES
1 *1171:X *281:4 9.3 
2 *281:4 *281:8 5.85714 
3 *281:8 *281:10 2.85714 
4 *281:10 *1162:CLK 19.7643 
5 *281:10 *281:33 15.375 
6 *281:33 *1168:CLK 24.4786 
7 *281:33 *1169:CLK 9.3 
8 *281:8 *1167:CLK 22.4786 
9 *281:4 *281:74 26.4286 
10 *281:74 *281:76 4.5 
11 *281:76 *1166:CLK 19.3179 
12 *281:76 *1163:CLK 22.675 
13 *281:74 *1164:CLK 10.2464 
*END

*D_NET *282 0.0146338
*CONN
*I *1157:CLK I *D sky130_fd_sc_hd__dfrtp_1
*I *1159:CLK I *D sky130_fd_sc_hd__dfrtp_1
*I *1165:CLK I *D sky130_fd_sc_hd__dfrtp_1
*I *1160:CLK I *D sky130_fd_sc_hd__dfrtp_1
*I *1161:CLK I *D sky130_fd_sc_hd__dfrtp_1
*I *1158:CLK I *D sky130_fd_sc_hd__dfrtp_1
*I *1156:CLK I *D sky130_fd_sc_hd__dfrtp_1
*I *1172:X O *D sky130_fd_sc_hd__clkbuf_16
*CAP
1 *1157:CLK 4.43616e-05
2 *1159:CLK 0.000727564
3 *1165:CLK 3.7311e-05
4 *1160:CLK 0.000343748
5 *1161:CLK 2.06972e-05
6 *1158:CLK 0
7 *1156:CLK 7.03326e-05
8 *1172:X 0
9 *282:58 0.00087458
10 *282:54 0.00103767
11 *282:30 0.000565547
12 *282:21 0.000794435
13 *282:8 0.000917828
14 *282:4 0.00113777
15 *1156:CLK *298:22 9.41642e-05
16 *1157:CLK *1157:D 0.000184323
17 *1160:CLK *315:56 4.93503e-05
18 *282:8 *1026:A 0.000205207
19 *282:8 *1026:D 6.87574e-05
20 *282:8 *298:22 0.000906249
21 *282:8 *305:45 0.000203316
22 *282:21 *1005:A 0.000474848
23 *282:54 *963:A1 4.87854e-05
24 *282:54 *1157:D 0.00196591
25 *282:54 *298:22 0.00033204
26 *282:54 *305:45 0.000393943
27 *963:B1 *282:54 2.36643e-05
28 *963:B2 *282:54 5.33005e-05
29 *965:A *282:54 9.92409e-05
30 *965:C *282:54 9.2127e-05
31 *966:A *282:54 2.89016e-05
32 *967:A2 *282:54 2.44318e-05
33 *972:A *282:54 0.000139913
34 *972:B *282:54 1.74352e-05
35 *982:A2 *282:54 0.00035281
36 *1001:A *1159:CLK 4.43184e-05
37 *1003:B1 *1159:CLK 9.96487e-05
38 *1022:B *282:30 4.88847e-05
39 *1027:B1_N *282:21 0.000242291
40 *1128:B *1157:CLK 1.92789e-05
41 *1129:B2 *1159:CLK 0.00028884
42 *1139:B1 *1160:CLK 0
43 *1139:B1 *1161:CLK 9.90367e-05
44 *1139:B1 *282:30 0
45 *1139:B2 *1160:CLK 9.91086e-05
46 *1139:B2 *1161:CLK 2.89016e-05
47 *1147:A2 *1159:CLK 2.00751e-05
48 *1147:A2 *282:58 6.26559e-05
49 *1147:A3 *1159:CLK 2.72545e-05
50 *1160:D *1161:CLK 1.74352e-05
51 *1161:D *1160:CLK 0
52 *1165:D *1159:CLK 0.000103253
53 *1172:A *282:54 7.57312e-05
54 *90:24 *1159:CLK 9.96487e-05
55 *112:10 *282:21 5.09156e-05
56 *112:23 *282:21 0.000103267
57 *190:24 *1157:CLK 5.49489e-05
58 *190:30 *1157:CLK 4.33899e-05
59 *190:30 *1159:CLK 0
60 *190:30 *282:54 0.000182598
61 *230:10 *282:21 9.91086e-05
62 *232:66 *282:21 2.82057e-05
63 *232:66 *282:30 0.000182076
64 *269:21 *282:21 6.68493e-05
65 *272:107 *282:54 4.85178e-05
66 *275:8 *282:54 4.35421e-05
67 *277:12 *282:54 2.34997e-05
*RES
1 *1172:X *282:4 9.3 
2 *282:4 *282:8 9.17857 
3 *282:8 *1156:CLK 10.675 
4 *282:8 *282:21 18.5893 
5 *282:21 *1158:CLK 13.8 
6 *282:21 *282:30 4.98214 
7 *282:30 *1161:CLK 14.7464 
8 *282:30 *1160:CLK 18.6571 
9 *282:4 *282:54 28.4643 
10 *282:54 *282:58 6.75 
11 *282:58 *1165:CLK 14.3357 
12 *282:58 *1159:CLK 28.2107 
13 *282:54 *1157:CLK 11.0679 
*END

*D_NET *283 0.00452578
*CONN
*I *925:A I *D sky130_fd_sc_hd__buf_2
*I *1040:D I *D sky130_fd_sc_hd__nand4_1
*I *1041:B1 I *D sky130_fd_sc_hd__a22o_1
*I *1186:X O *D sky130_fd_sc_hd__buf_1
*CAP
1 *925:A 2.65515e-05
2 *1040:D 0.000185274
3 *1041:B1 0
4 *1186:X 0.00115299
5 *283:18 0.000314513
6 *283:14 0.00130878
7 *925:A *297:16 8.27532e-05
8 *1040:D *1034:A2 6.10668e-05
9 *1040:D *1040:C 5.40778e-05
10 *1040:D *288:10 8.91963e-06
11 *1040:D *288:19 5.02194e-05
12 *1040:D *288:32 1.66495e-05
13 *283:14 *926:A 0.00012401
14 *283:14 *297:16 0.00018077
15 *283:14 *310:8 1.05947e-05
16 *283:18 *288:10 0.000192982
17 *926:C *283:18 7.80929e-05
18 *1035:B *1040:D 1.6815e-05
19 *1035:B *283:18 4.41329e-06
20 *1155:A1 *925:A 9.41642e-05
21 *1155:A1 *283:14 0.000304579
22 *1167:CLK *283:14 2.51343e-06
23 *1167:D *283:14 1.83136e-05
24 *61:16 *1040:D 9.61299e-05
25 *237:10 *283:18 5.98006e-05
26 *238:10 *283:18 8.07951e-05
*RES
1 *1186:X *283:14 33.3357 
2 *283:14 *283:18 9.17857 
3 *283:18 *1041:B1 13.8 
4 *283:18 *1040:D 18.2821 
5 *283:14 *925:A 10.2464 
*END

*D_NET *284 0.00765026
*CONN
*I *1173:A I *D sky130_fd_sc_hd__buf_4
*I *1163:RESET_B I *D sky130_fd_sc_hd__dfrtp_1
*I *1164:RESET_B I *D sky130_fd_sc_hd__dfrtp_1
*I *1166:RESET_B I *D sky130_fd_sc_hd__dfrtp_1
*I *1165:RESET_B I *D sky130_fd_sc_hd__dfrtp_1
*I *1187:X O *D sky130_fd_sc_hd__clkbuf_2
*CAP
1 *1173:A 0.000395078
2 *1163:RESET_B 3.59957e-05
3 *1164:RESET_B 3.79943e-05
4 *1166:RESET_B 0.000362237
5 *1165:RESET_B 3.59957e-05
6 *1187:X 0.000577875
7 *284:30 0.000906002
8 *284:24 0.00135719
9 *284:14 0.00141859
10 *284:8 0.00154012
11 *1164:RESET_B *291:20 5.60007e-05
12 *1166:RESET_B *1217:A 0
13 *1173:A *292:10 0
14 *1173:A *305:8 0.000254244
15 *284:8 *285:12 0.000425776
16 *284:14 *292:10 0
17 *284:14 *305:8 0.00015179
18 *284:24 *923:A 0
19 *284:24 *305:8 0
20 *284:30 *1142:B 2.79092e-05
21 *284:30 *1175:A 0
22 *1149:A1 *1166:RESET_B 0
23 *1149:A1 *284:24 0
24 *1149:A1 *284:30 0
25 *1149:B1 *1166:RESET_B 6.74651e-05
26 *232:118 *1166:RESET_B 0
27 *232:150 *284:24 0
*RES
1 *1187:X *284:8 21.7286 
2 *284:8 *284:14 14.8393 
3 *284:14 *1165:RESET_B 0.473214 
4 *284:14 *284:24 19.1964 
5 *284:24 *284:30 9.08929 
6 *284:30 *1166:RESET_B 10.7768 
7 *284:30 *1164:RESET_B 5.38393 
8 *284:24 *1163:RESET_B 4.97321 
9 *284:8 *1173:A 23.0321 
*END

*D_NET *285 0.0141264
*CONN
*I *958:B I *D sky130_fd_sc_hd__nand2_2
*I *1021:A I *D sky130_fd_sc_hd__nand2_1
*I *985:A I *D sky130_fd_sc_hd__buf_2
*I *1188:X O *D sky130_fd_sc_hd__dlymetal6s2s_1
*CAP
1 *958:B 0
2 *1021:A 0.000586443
3 *985:A 2.03225e-05
4 *1188:X 0.000409338
5 *285:34 0.00194108
6 *285:12 0.00222443
7 *285:10 0.00129945
8 *985:A *316:62 2.59355e-05
9 *1021:A *293:16 0.000249374
10 *1021:A *293:24 8.31384e-05
11 *1021:A *315:36 9.90367e-05
12 *285:10 *291:8 0.00152723
13 *285:10 *308:31 0.00128684
14 *285:34 *1157:RESET_B 4.68532e-05
15 *285:34 *316:62 0.000260149
16 *987:A *285:34 0.000137639
17 *987:B *1021:A 7.95353e-05
18 *987:C *285:34 0.000158364
19 *997:A *285:34 7.12015e-05
20 *997:B *285:34 0.000157072
21 *998:B *285:34 1.02301e-05
22 *1003:A2 *285:34 0.000112068
23 *1003:B1 *285:34 0.000181662
24 *1004:A *285:34 2.85234e-05
25 *1014:B *1021:A 0
26 *1031:B1_N *1021:A 7.6539e-05
27 *71:10 *985:A 2.85321e-05
28 *71:10 *285:34 2.12647e-05
29 *71:64 *285:34 0.000601571
30 *80:14 *285:34 0.000632408
31 *82:6 *285:34 2.85234e-05
32 *90:24 *285:34 5.64704e-06
33 *95:27 *1021:A 9.91086e-05
34 *96:10 *1021:A 0.000312574
35 *97:14 *1021:A 0
36 *99:10 *1021:A 0
37 *99:34 *1021:A 0
38 *139:39 *1021:A 0
39 *235:70 *285:34 7.70717e-05
40 *270:16 *285:34 7.71462e-05
41 *270:18 *285:34 0.000687686
42 *270:28 *285:34 5.66472e-05
43 *284:8 *285:12 0.000425776
*RES
1 *1188:X *285:10 37.55 
2 *285:10 *285:12 16.5536 
3 *285:12 *285:34 39.3393 
4 *285:34 *985:A 9.83571 
5 *285:34 *1021:A 31.8179 
6 *285:12 *958:B 9.3 
*END

*D_NET *286 0.0201546
*CONN
*I *1036:A I *D sky130_fd_sc_hd__and2_1
*I *962:B I *D sky130_fd_sc_hd__and2_1
*I *1005:A I *D sky130_fd_sc_hd__and2_1
*I *1024:A I *D sky130_fd_sc_hd__and2_1
*I *1057:B I *D sky130_fd_sc_hd__and4_1
*I *1058:A1 I *D sky130_fd_sc_hd__a22o_1
*I *971:A I *D sky130_fd_sc_hd__buf_2
*I *1189:X O *D sky130_fd_sc_hd__clkbuf_2
*CAP
1 *1036:A 8.11973e-05
2 *962:B 0.00158447
3 *1005:A 0.000392976
4 *1024:A 0.000224871
5 *1057:B 0.00025624
6 *1058:A1 0
7 *971:A 0.000111878
8 *1189:X 0.0016828
9 *286:84 0.00226316
10 *286:63 0.000826456
11 *286:57 0.000556283
12 *286:33 0.00025624
13 *286:18 0.00162366
14 *286:10 0.00335379
15 *962:B *962:A 4.43184e-05
16 *1024:A *294:12 0
17 *286:10 *1162:RESET_B 0.000158793
18 *286:10 *1220:A 0
19 *286:10 *315:72 0.000372115
20 *286:10 *315:74 0.000192964
21 *286:18 *1034:A2 0.000150901
22 *286:18 *1034:B2 0.000221015
23 *286:18 *293:24 4.15618e-05
24 *286:18 *294:14 0.000109627
25 *286:57 *294:12 0.000149113
26 *286:57 *315:72 3.88375e-05
27 *286:63 *294:12 0.000848259
28 *286:63 *298:22 0.000176226
29 *286:63 *315:68 0
30 *286:63 *315:72 0.000341695
31 *286:84 *294:12 0.000174819
32 *974:B *962:B 0.000308007
33 *987:A *962:B 5.60201e-05
34 *1022:B *1005:A 1.15615e-06
35 *1024:B *962:B 0.000125623
36 *1027:A2 *962:B 3.36276e-05
37 *1027:B1_N *962:B 2.67489e-05
38 *1027:B1_N *286:84 6.05161e-06
39 *1040:B *286:18 2.57552e-06
40 *1046:B *1024:A 0.000122993
41 *1046:C *1024:A 3.47956e-06
42 *1055:B *962:B 1.02911e-05
43 *1057:A *971:A 7.14196e-06
44 *57:20 *971:A 0.000148995
45 *57:20 *286:18 6.73181e-05
46 *69:12 *962:B 0.000246469
47 *113:16 *962:B 0.000138432
48 *126:12 *286:18 0.000597577
49 *132:12 *1024:A 2.2351e-05
50 *141:16 *962:B 0.000178503
51 *144:12 *971:A 2.34969e-05
52 *230:12 *286:10 0
53 *230:14 *286:10 0
54 *230:20 *286:10 0
55 *232:14 *286:10 0
56 *232:47 *286:63 0.00014536
57 *232:47 *286:84 8.98658e-05
58 *232:66 *1005:A 0.00010311
59 *235:115 *286:18 0.000113426
60 *236:36 *286:18 2.01732e-05
61 *236:42 *1057:B 5.49544e-05
62 *238:59 *1057:B 0.000223537
63 *269:21 *1005:A 0.000289204
64 *269:21 *1024:A 7.61693e-05
65 *272:14 *962:B 0.000147869
66 *274:42 *962:B 5.49544e-05
67 *282:21 *1005:A 0.000474848
*RES
1 *1189:X *286:10 44.9964 
2 *286:10 *286:18 29.0357 
3 *286:18 *971:A 16.4071 
4 *286:18 *286:33 4.5 
5 *286:33 *1058:A1 9.3 
6 *286:33 *1057:B 13.2643 
7 *286:10 *286:57 8.32143 
8 *286:57 *286:63 16.1964 
9 *286:63 *1024:A 26.0143 
10 *286:63 *286:84 9.75 
11 *286:84 *1005:A 26.9964 
12 *286:84 *962:B 42.6929 
13 *286:57 *1036:A 10.6571 
*END

*D_NET *287 0.00611602
*CONN
*I *1025:A1 I *D sky130_fd_sc_hd__a22o_1
*I *975:A I *D sky130_fd_sc_hd__buf_2
*I *960:A I *D sky130_fd_sc_hd__clkbuf_4
*I *1190:X O *D sky130_fd_sc_hd__buf_1
*CAP
1 *1025:A1 0
2 *975:A 0.000179842
3 *960:A 0
4 *1190:X 0.00095446
5 *287:20 0.000373672
6 *287:14 0.000932182
7 *287:12 0.00169281
8 *975:A *976:B2 9.41642e-05
9 *975:A *1025:B1 8.47008e-05
10 *975:A *316:62 1.21258e-05
11 *287:12 *1213:A 0.000283275
12 *287:12 *298:10 0.000416393
13 *287:12 *299:12 4.15914e-05
14 *287:12 *302:10 8.15939e-05
15 *287:14 *1025:A2 5.66472e-05
16 *287:20 *1025:A2 1.65914e-05
17 *287:20 *1025:B1 0.000163393
18 int4_out[0] *287:12 0.000114109
19 int4_out[3] *287:12 4.68405e-05
20 *1007:C *975:A 9.58632e-05
21 *1197:A *287:12 0
22 *61:10 *975:A 0.000171355
23 *61:95 *975:A 6.67257e-05
24 *111:10 *287:14 9.77072e-05
25 *113:16 *975:A 6.40912e-05
26 *269:36 *975:A 7.58841e-05
*RES
1 *1190:X *287:12 42.5321 
2 *287:12 *287:14 11.2143 
3 *287:14 *287:20 3.03571 
4 *287:20 *960:A 9.3 
5 *287:20 *975:A 23.3536 
6 *287:14 *1025:A1 9.3 
*END

*D_NET *288 0.0150829
*CONN
*I *1006:B2 I *D sky130_fd_sc_hd__a22o_1
*I *976:B2 I *D sky130_fd_sc_hd__a22o_1
*I *1007:A I *D sky130_fd_sc_hd__nand4_1
*I *1025:B2 I *D sky130_fd_sc_hd__a22o_1
*I *1026:A I *D sky130_fd_sc_hd__nand4_1
*I *980:B2 I *D sky130_fd_sc_hd__a22o_1
*I *959:A I *D sky130_fd_sc_hd__buf_2
*I *1034:B2 I *D sky130_fd_sc_hd__a22o_1
*I *1041:B2 I *D sky130_fd_sc_hd__a22o_1
*I *1191:X O *D sky130_fd_sc_hd__buf_2
*CAP
1 *1006:B2 8.85771e-05
2 *976:B2 9.84664e-05
3 *1007:A 0.000216406
4 *1025:B2 0
5 *1026:A 0.000114932
6 *980:B2 4.17529e-05
7 *959:A 0.000632549
8 *1034:B2 0.00011119
9 *1041:B2 0
10 *1191:X 0.0019695
11 *288:103 0.000286098
12 *288:81 0.000666494
13 *288:66 0.000567988
14 *288:55 0.000200386
15 *288:32 0.000877518
16 *288:19 0.000380607
17 *288:10 0.00205056
18 *959:A *305:41 5.71472e-05
19 *976:B2 *1007:D 5.33005e-05
20 *1006:B2 *1006:B1 0.000215266
21 *1007:A *316:79 0.000121891
22 *1026:A *1026:D 9.40105e-05
23 *1034:B2 *1034:A2 2.59355e-05
24 *1034:B2 *1040:C 2.19818e-05
25 *1034:B2 *294:14 1.83053e-05
26 *1034:B2 *294:38 1.4796e-05
27 *288:10 *926:A 0.000505167
28 *288:10 *1150:B 0.000127439
29 *288:10 *1221:A 0.00013888
30 *288:19 *926:A 0.000158407
31 *288:32 *926:A 0.000104332
32 *288:55 *1034:A2 0
33 *288:66 *1025:B1 6.8646e-06
34 *288:66 *1034:A2 4.65426e-05
35 *288:81 *1025:B1 4.43698e-05
36 *288:81 *316:123 0.000427522
37 *288:103 *1006:B1 1.00887e-05
38 *288:103 *316:79 0.00012342
39 *288:103 *316:123 5.74242e-05
40 *974:A *959:A 1.03904e-05
41 *975:A *976:B2 9.41642e-05
42 *1007:C *976:B2 6.16604e-05
43 *1026:B *1026:A 7.02941e-05
44 *1038:A1 *288:32 2.20111e-05
45 *1038:B1 *288:32 1.00887e-05
46 *1038:B1 *288:55 0.000142629
47 *1040:D *288:10 8.91963e-06
48 *1040:D *288:19 5.02194e-05
49 *1040:D *288:32 1.66495e-05
50 *1044:A1 *959:A 6.39845e-06
51 *1044:B1 *959:A 3.11088e-05
52 *1044:C1 *959:A 0.00022651
53 *1047:A2 *959:A 6.05161e-06
54 *1049:A *288:81 0.00010326
55 *1080:B *288:81 7.90803e-05
56 *1130:B2 *1007:A 1.32293e-05
57 *1141:A1 *288:10 8.26807e-05
58 *1150:A *288:10 3.32354e-05
59 *1151:B1 *288:10 0.000127439
60 *1155:A1 *288:10 2.50463e-05
61 *65:18 *959:A 1.52353e-05
62 *66:10 *959:A 8.08547e-05
63 *91:29 *1006:B2 2.59355e-05
64 *93:10 *1006:B2 1.41029e-05
65 *111:22 *288:81 4.97159e-05
66 *113:16 *1006:B2 0.000190809
67 *113:16 *288:103 7.61619e-05
68 *120:10 *288:32 0.000124012
69 *120:12 *959:A 8.43535e-06
70 *121:27 *980:B2 9.90431e-05
71 *124:14 *959:A 0.000287347
72 *124:14 *288:32 3.2923e-05
73 *124:14 *288:55 7.74135e-05
74 *129:10 *959:A 0.000390648
75 *133:8 *288:66 9.42015e-05
76 *133:8 *288:81 9.32406e-05
77 *133:23 *288:81 0.000165561
78 *231:31 *288:10 0.00028666
79 *233:44 *959:A 0
80 *234:6 *976:B2 0.000261935
81 *234:6 *1007:A 5.49995e-05
82 *238:10 *288:10 8.90684e-05
83 *271:6 *959:A 3.4689e-05
84 *271:10 *959:A 1.35465e-05
85 *282:8 *1026:A 0.000205207
86 *283:18 *288:10 0.000192982
87 *286:18 *1034:B2 0.000221015
*RES
1 *1191:X *288:10 47.3179 
2 *288:10 *1041:B2 13.8 
3 *288:10 *288:19 2.25 
4 *288:19 *1034:B2 16.7107 
5 *288:19 *288:32 3.76786 
6 *288:32 *959:A 34.8893 
7 *288:32 *288:55 1.94643 
8 *288:55 *980:B2 14.7464 
9 *288:55 *288:66 2.55357 
10 *288:66 *1026:A 16.9429 
11 *288:66 *288:81 9.53571 
12 *288:81 *1025:B2 13.8 
13 *288:81 *1007:A 17.8357 
14 *288:81 *288:103 2.55357 
15 *288:103 *976:B2 16.8179 
16 *288:103 *1006:B2 16.8893 
*END

*D_NET *289 0.00546807
*CONN
*I *947:B1 I *D sky130_fd_sc_hd__a211o_1
*I *1192:X O *D sky130_fd_sc_hd__buf_1
*CAP
1 *947:B1 0.00269232
2 *1192:X 0.00269232
3 *947:B1 *333:10 0
4 *946:A *947:B1 1.00887e-05
5 *948:B *947:B1 1.22852e-05
6 *1192:A *947:B1 6.10509e-05
*RES
1 *1192:X *947:B1 41.4549 
*END

*D_NET *290 0.00419787
*CONN
*I *947:A1 I *D sky130_fd_sc_hd__a211o_1
*I *948:A I *D sky130_fd_sc_hd__or2_1
*I *1193:X O *D sky130_fd_sc_hd__buf_1
*CAP
1 *947:A1 0
2 *948:A 8.84329e-05
3 *1193:X 0.00151092
4 *290:12 0.00159936
5 *290:12 *332:8 0.000446603
6 *946:A *948:A 0.000273043
7 *946:A *290:12 5.66943e-05
8 *947:A2 *948:A 3.50746e-05
9 *947:C1 *948:A 0.000141443
10 *948:B *948:A 3.15034e-05
11 *949:B1 *948:A 1.4796e-05
12 *3:13 *290:12 0
*RES
1 *1193:X *290:12 40.3536 
2 *290:12 *948:A 12.8714 
3 *290:12 *947:A1 9.3 
*END

*D_NET *291 0.0109808
*CONN
*I *943:A I *D sky130_fd_sc_hd__or2_1
*I *949:A1 I *D sky130_fd_sc_hd__a22o_1
*I *1194:X O *D sky130_fd_sc_hd__buf_1
*CAP
1 *943:A 0
2 *949:A1 5.11289e-05
3 *1194:X 0
4 *291:20 0.00177504
5 *291:8 0.0038659
6 *291:6 0.00214199
7 *291:8 *1216:A 6.45442e-05
8 *291:8 *308:31 0.000176163
9 *291:8 *333:10 0.000355394
10 *291:20 *1217:A 0.000184745
11 *291:20 *307:6 0.000186662
12 int4_out[1] *291:8 2.22043e-05
13 valid_out *291:8 6.27457e-05
14 *943:B *949:A1 0.000144074
15 *949:B2 *949:A1 0.00022963
16 *1164:CLK *291:20 3.23672e-05
17 *1164:RESET_B *291:20 5.60007e-05
18 *1192:A *291:8 5.80706e-06
19 *255:14 *949:A1 2.44318e-05
20 *281:74 *949:A1 3.18747e-05
21 *281:74 *291:20 4.28695e-05
22 *285:10 *291:8 0.00152723
*RES
1 *1194:X *291:6 13.8 
2 *291:6 *291:8 50.5179 
3 *291:8 *291:20 29.0357 
4 *291:20 *949:A1 11.8893 
5 *291:20 *943:A 9.3 
*END

*D_NET *292 0.00904979
*CONN
*I *940:A I *D sky130_fd_sc_hd__or2_1
*I *950:A1 I *D sky130_fd_sc_hd__a22o_1
*I *1195:X O *D sky130_fd_sc_hd__buf_1
*CAP
1 *940:A 0
2 *950:A1 7.73903e-05
3 *1195:X 0.000128975
4 *292:14 0.00118659
5 *292:10 0.00393496
6 *292:8 0.00295473
7 *292:14 *1144:B 0.00018372
8 *940:B *950:A1 5.87052e-05
9 *950:B1 *950:A1 5.49489e-05
10 *950:B2 *950:A1 5.49489e-05
11 *951:B1 *950:A1 0.000314839
12 *951:B1 *292:14 9.99853e-05
13 *1173:A *292:10 0
14 *284:14 *292:10 0
*RES
1 *1195:X *292:8 15.1571 
2 *292:8 *292:10 49.9107 
3 *292:10 *292:14 21.4643 
4 *292:14 *950:A1 12.3 
5 *292:14 *940:A 9.3 
*END

*D_NET *293 0.00866877
*CONN
*I *937:A I *D sky130_fd_sc_hd__or2_1
*I *951:A1 I *D sky130_fd_sc_hd__a22o_1
*I *1196:X O *D sky130_fd_sc_hd__buf_1
*CAP
1 *937:A 6.88304e-05
2 *951:A1 0.000208388
3 *1196:X 0.00122874
4 *293:24 0.00143131
5 *293:16 0.00238283
6 *937:A *297:16 4.73286e-05
7 *293:24 *297:16 2.28499e-05
8 *937:B *937:A 4.25176e-05
9 *937:B *951:A1 0.000163575
10 *937:B *293:24 6.35509e-05
11 *981:A *293:24 5.58941e-05
12 *982:A2 *293:24 8.66228e-05
13 *987:B *293:24 2.37944e-05
14 *1012:A1 *293:16 3.40729e-05
15 *1021:A *293:16 0.000249374
16 *1021:A *293:24 8.31384e-05
17 *1021:B *293:16 0
18 *1031:A2 *293:16 0.000197624
19 *1055:B *293:24 0
20 *1056:C *293:24 7.74068e-05
21 *1056:D *293:24 2.07809e-05
22 *1057:A *293:24 0
23 *1065:A_N *293:24 0.000150773
24 *1065:B *293:24 8.07792e-06
25 *1085:B_N *293:16 0
26 *1088:A *293:16 0.000197975
27 *1097:B *293:16 5.09564e-05
28 *1171:A *951:A1 7.7159e-06
29 *1171:A *293:24 0
30 *1172:A *293:24 0
31 *1196:A *293:16 2.89114e-05
32 *57:20 *293:24 0.000250965
33 *57:33 *293:24 0.00066588
34 *63:8 *293:16 3.56053e-05
35 *63:8 *293:24 1.88083e-05
36 *63:25 *293:16 8.82836e-05
37 *69:12 *293:24 0
38 *96:10 *293:16 0.000169927
39 *99:34 *293:16 0
40 *107:12 *293:16 0
41 *115:12 *293:16 0
42 *117:12 *293:16 9.01143e-05
43 *131:14 *293:24 0
44 *139:14 *293:24 0
45 *174:8 *293:16 5.1601e-05
46 *174:17 *293:16 1.50223e-05
47 *233:44 *293:24 0
48 *235:99 *293:24 8.09765e-05
49 *235:115 *293:24 0.000226992
50 *286:18 *293:24 4.15618e-05
*RES
1 *1196:X *293:16 39.2018 
2 *293:16 *293:24 31.2411 
3 *293:24 *951:A1 21.925 
4 *293:24 *937:A 11.0857 
*END

*D_NET *294 0.00671674
*CONN
*I *1040:C I *D sky130_fd_sc_hd__nand4_1
*I *1034:B1 I *D sky130_fd_sc_hd__a22o_1
*I *1041:A2 I *D sky130_fd_sc_hd__a22o_1
*I *924:A I *D sky130_fd_sc_hd__buf_2
*I *1197:X O *D sky130_fd_sc_hd__dlymetal6s2s_1
*CAP
1 *1040:C 0.000142863
2 *1034:B1 0
3 *1041:A2 0.000164007
4 *924:A 0
5 *1197:X 0.00135995
6 *294:38 0.000172175
7 *294:20 0.000359023
8 *294:14 0.000537282
9 *294:12 0.0016729
10 *1040:C *1034:A2 0.00010714
11 *294:12 *315:58 0
12 *294:12 *315:68 0
13 *294:12 *315:72 7.46072e-05
14 *294:20 *926:A 2.07718e-05
15 *1024:A *294:12 0
16 *1034:A1 *1041:A2 0.000291082
17 *1034:A1 *294:20 8.46197e-05
18 *1034:B2 *1040:C 2.19818e-05
19 *1034:B2 *294:14 1.83053e-05
20 *1034:B2 *294:38 1.4796e-05
21 *1040:D *1040:C 5.40778e-05
22 *1041:A1 *1041:A2 3.87621e-05
23 *1046:B *294:12 3.40128e-05
24 *1046:C *294:12 0
25 *1156:D *294:12 5.56943e-05
26 *1158:D *294:12 0
27 *232:14 *294:12 0
28 *232:47 *294:12 0.000142062
29 *232:66 *294:12 0
30 *237:10 *1041:A2 6.88108e-05
31 *269:21 *294:12 0
32 *286:18 *294:14 0.000109627
33 *286:57 *294:12 0.000149113
34 *286:63 *294:12 0.000848259
35 *286:84 *294:12 0.000174819
*RES
1 *1197:X *294:12 47.5679 
2 *294:12 *294:14 5.05357 
3 *294:14 *294:20 12.1607 
4 *294:20 *924:A 9.3 
5 *294:20 *1041:A2 13.5679 
6 *294:14 *294:38 0.535714 
7 *294:38 *1034:B1 9.3 
8 *294:38 *1040:C 11.8893 
*END

*D_NET *295 0.0103307
*CONN
*I *953:B2 I *D sky130_fd_sc_hd__o221a_1
*I *952:A1 I *D sky130_fd_sc_hd__a22o_1
*I *1198:X O *D sky130_fd_sc_hd__buf_1
*CAP
1 *953:B2 0.000236044
2 *952:A1 0.000101941
3 *1198:X 0.00123174
4 *295:16 0.00134346
5 *295:10 0.00223721
6 *953:B2 *953:A1 4.83039e-05
7 *953:B2 *955:A1 2.75947e-05
8 *953:B2 *297:16 1.62621e-05
9 *953:B2 *332:35 7.79781e-06
10 *295:10 *315:36 8.93805e-05
11 *295:16 *332:35 0.000361184
12 *295:16 *332:46 6.94441e-06
13 *945:A *295:16 0
14 *951:B1 *952:A1 0.00013238
15 *951:B1 *295:16 8.25114e-05
16 *953:A2 *953:B2 6.79185e-05
17 *953:B1 *953:B2 3.41517e-06
18 *953:C1 *953:B2 0.000156866
19 *954:A2 *953:B2 0.000125731
20 *954:B2 *953:B2 0.000334843
21 *964:A *295:16 6.87582e-05
22 *965:B *295:16 7.88765e-05
23 *988:B1 *295:16 0.000100831
24 *989:B1 *295:16 0.00017309
25 *989:C1 *295:16 0.000123295
26 *992:B *295:10 6.321e-05
27 *994:B1 *295:16 0.000124445
28 *1017:B *295:10 0
29 *1019:B *295:10 0
30 *1068:A1 *295:16 0.000424611
31 *1069:A1 *295:16 0.000170345
32 *1093:B *295:10 0.000126209
33 *1111:A2 *295:10 0
34 *1111:C1 *295:10 0
35 *1118:B *295:10 0.000194042
36 *1134:A1 *295:10 0
37 *71:68 *295:16 0.00011082
38 *71:76 *295:16 7.74068e-05
39 *74:8 *295:16 0.000192771
40 *77:10 *295:10 2.02112e-05
41 *77:10 *295:16 0.000161196
42 *78:12 *295:10 0.000166052
43 *103:8 *295:10 0
44 *103:19 *295:10 0
45 *141:16 *295:10 0.000488214
46 *171:16 *295:10 0.000129868
47 *178:12 *295:10 0
48 *202:21 *295:10 0
49 *204:14 *295:10 8.31421e-05
50 *237:85 *295:16 4.29179e-05
51 *268:95 *952:A1 0.000181381
52 *268:95 *295:16 0.000181796
53 *269:90 *295:10 8.23597e-06
54 *271:86 *295:16 0.000100189
55 *276:14 *295:16 0.000127223
*RES
1 *1198:X *295:10 40.1125 
2 *295:10 *295:16 30.5268 
3 *295:16 *952:A1 11.8893 
4 *295:16 *953:B2 25.1929 
*END

*D_NET *296 0.00451268
*CONN
*I *932:A I *D sky130_fd_sc_hd__and2_1
*I *953:A1 I *D sky130_fd_sc_hd__o221a_1
*I *1199:X O *D sky130_fd_sc_hd__buf_1
*CAP
1 *932:A 0.000112176
2 *953:A1 0.000297004
3 *1199:X 0.00126996
4 *296:18 0.00167914
5 *932:A *332:10 1.00887e-05
6 *932:A *332:27 0.000160963
7 *296:18 *332:8 0.000187612
8 *296:18 *332:10 0.000241869
9 *932:B *953:A1 0.000100082
10 *945:A *932:A 0
11 *945:B *953:A1 7.62237e-05
12 *953:A2 *953:A1 2.85234e-05
13 *953:B2 *953:A1 4.83039e-05
14 *954:B2 *953:A1 5.66971e-05
15 *230:75 *296:18 0.000244042
*RES
1 *1199:X *296:18 45.5143 
2 *296:18 *953:A1 19.7107 
3 *296:18 *932:A 16.05 
*END

*D_NET *297 0.00704852
*CONN
*I *954:A1 I *D sky130_fd_sc_hd__o22a_1
*I *955:A1 I *D sky130_fd_sc_hd__a21oi_4
*I *1200:X O *D sky130_fd_sc_hd__dlymetal6s2s_1
*CAP
1 *954:A1 0
2 *955:A1 0.000150581
3 *1200:X 0.000407962
4 *297:16 0.00191929
5 *297:10 0.00217667
6 *297:10 *1177:A 0
7 *297:16 *1177:A 0.000738696
8 *925:A *297:16 8.27532e-05
9 *933:A1 *297:16 0.000178847
10 *933:A2 *297:16 2.28499e-05
11 *937:A *297:16 4.73286e-05
12 *937:B *297:16 9.58181e-05
13 *952:B1 *297:16 9.71197e-05
14 *953:B2 *955:A1 2.75947e-05
15 *953:B2 *297:16 1.62621e-05
16 *953:C1 *955:A1 0.000143967
17 *954:A2 *955:A1 5.33005e-05
18 *1155:A1 *297:16 0.000152851
19 *1200:A *297:10 2.30389e-05
20 *235:115 *297:16 0.000218045
21 *238:36 *297:16 2.07491e-05
22 *241:12 *955:A1 5.49544e-05
23 *268:95 *955:A1 0.000196416
24 *268:95 *297:16 1.98071e-05
25 *283:14 *297:16 0.00018077
26 *293:24 *297:16 2.28499e-05
*RES
1 *1200:X *297:10 26.0143 
2 *297:10 *297:16 34.9107 
3 *297:16 *955:A1 17.8536 
4 *297:16 *954:A1 13.8 
*END

*D_NET *298 0.0150017
*CONN
*I *917:A I *D sky130_fd_sc_hd__clkbuf_4
*I *1157:D I *D sky130_fd_sc_hd__dfrtp_1
*I *1201:X O *D sky130_fd_sc_hd__buf_1
*CAP
1 *917:A 0.000108095
2 *1157:D 0.000905529
3 *1201:X 0.00133552
4 *298:22 0.00260963
5 *298:12 0.00208371
6 *298:10 0.00160703
7 *1157:D *332:58 0.000473747
8 *1157:D *332:81 4.27935e-05
9 *298:10 *1139:A2 0
10 *298:10 *1213:A 0.000537055
11 *298:10 *299:12 8.00806e-05
12 *298:10 *302:10 0.000151333
13 *298:10 *315:56 0
14 *298:10 *315:58 0
15 *298:10 *315:68 0
16 *965:B *1157:D 0.000227539
17 *982:A2 *298:22 0.000351162
18 *1128:B *1157:D 4.23728e-05
19 *1129:B2 *1157:D 9.80173e-05
20 *1139:B1 *298:10 0
21 *1156:CLK *298:22 9.41642e-05
22 *1157:CLK *1157:D 0.000184323
23 *232:47 *298:22 0.00027275
24 *282:8 *298:22 0.000906249
25 *282:54 *1157:D 0.00196591
26 *282:54 *298:22 0.00033204
27 *286:63 *298:22 0.000176226
28 *287:12 *298:10 0.000416393
*RES
1 *1201:X *298:10 48.7821 
2 *298:10 *298:12 3.82143 
3 *298:12 *298:22 33.5714 
4 *298:22 *1157:D 31.7464 
5 *298:12 *917:A 10.6571 
*END

*D_NET *299 0.000486757
*CONN
*I *1174:A I *D sky130_fd_sc_hd__dlygate4sd3_1
*I *1210:A I *D sky130_fd_sc_hd__clkbuf_4
*I *1158:Q O *D sky130_fd_sc_hd__dfrtp_1
*CAP
1 *1174:A 0.000111221
2 *1210:A 0
3 *1158:Q 7.1321e-05
4 *299:12 0.000182542
5 *287:12 *299:12 4.15914e-05
6 *298:10 *299:12 8.00806e-05
*RES
1 *1158:Q *299:12 20.0679 
2 *299:12 *1210:A 9.3 
3 *299:12 *1174:A 11.0679 
*END

*D_NET *300 0.00174602
*CONN
*I *1211:A I *D sky130_fd_sc_hd__clkbuf_4
*I *1180:A I *D sky130_fd_sc_hd__dlygate4sd3_1
*I *1159:Q O *D sky130_fd_sc_hd__dfrtp_1
*CAP
1 *1211:A 0.000673091
2 *1180:A 0
3 *1159:Q 0.000148259
4 *300:12 0.000821351
5 *1211:A *315:8 5.06983e-05
6 *300:12 *305:8 5.26184e-05
*RES
1 *1159:Q *300:12 20.7821 
2 *300:12 *1180:A 9.3 
3 *300:12 *1211:A 19.3 
*END

*D_NET *301 0.00243711
*CONN
*I *1212:A I *D sky130_fd_sc_hd__clkbuf_4
*I *1181:A I *D sky130_fd_sc_hd__dlygate4sd3_1
*I *1160:Q O *D sky130_fd_sc_hd__dfrtp_1
*CAP
1 *1212:A 0.000619834
2 *1181:A 6.68705e-05
3 *1160:Q 7.03212e-05
4 *301:8 0.000757026
5 *1181:A *315:38 0.000230482
6 *301:8 *315:38 9.71197e-05
7 *1029:A *1181:A 0.000232399
8 *1084:A2 *1212:A 0.000101178
9 *114:12 *1181:A 2.84398e-05
10 *114:12 *1212:A 5.64954e-05
11 *167:14 *1212:A 0
12 *168:8 *1212:A 0.000176941
*RES
1 *1160:Q *301:8 14.7464 
2 *301:8 *1181:A 16.7107 
3 *301:8 *1212:A 24.8536 
*END

*D_NET *302 0.00180659
*CONN
*I *1213:A I *D sky130_fd_sc_hd__clkbuf_4
*I *1179:A I *D sky130_fd_sc_hd__dlygate4sd3_1
*I *1161:Q O *D sky130_fd_sc_hd__dfrtp_1
*CAP
1 *1213:A 0.000145794
2 *1179:A 9.44459e-05
3 *1161:Q 0.000136425
4 *302:10 0.000376665
5 *287:12 *1213:A 0.000283275
6 *287:12 *302:10 8.15939e-05
7 *298:10 *1213:A 0.000537055
8 *298:10 *302:10 0.000151333
*RES
1 *1161:Q *302:10 16.6929 
2 *302:10 *1179:A 15.1571 
3 *302:10 *1213:A 20.6036 
*END

*D_NET *303 0.00090156
*CONN
*I *1214:A I *D sky130_fd_sc_hd__clkbuf_4
*I *1178:A I *D sky130_fd_sc_hd__dlygate4sd3_1
*I *1156:Q O *D sky130_fd_sc_hd__dfrtp_1
*CAP
1 *1214:A 0.00024692
2 *1178:A 0.00020386
3 *1156:Q 0
4 *303:6 0.00045078
5 *1178:A *315:68 0
6 *1214:A *315:68 0
7 is_outlier *1214:A 0
*RES
1 *1156:Q *303:6 13.8 
2 *303:6 *1178:A 17.2107 
3 *303:6 *1214:A 18.2107 
*END

*D_NET *304 0.00194471
*CONN
*I *1183:A I *D sky130_fd_sc_hd__dlygate4sd3_1
*I *1215:A I *D sky130_fd_sc_hd__clkbuf_4
*I *1162:Q O *D sky130_fd_sc_hd__dfrtp_1
*CAP
1 *1183:A 0.00016747
2 *1215:A 0.000605421
3 *1162:Q 0
4 *304:4 0.000772891
5 *1215:A *1140:B 0.000124019
6 *931:A *1183:A 0.000228592
7 *230:75 *1183:A 4.63219e-05
*RES
1 *1162:Q *304:4 9.3 
2 *304:4 *1215:A 29.3 
3 *304:4 *1183:A 13.0321 
*END

*D_NET *305 0.018801
*CONN
*I *1025:B1 I *D sky130_fd_sc_hd__a22o_1
*I *1034:A2 I *D sky130_fd_sc_hd__a22o_1
*I *1026:D I *D sky130_fd_sc_hd__nand4_1
*I *923:A I *D sky130_fd_sc_hd__clkbuf_4
*I *1202:X O *D sky130_fd_sc_hd__clkbuf_2
*CAP
1 *1025:B1 0.000414895
2 *1034:A2 0.00044384
3 *1026:D 4.81861e-05
4 *923:A 0.000560445
5 *1202:X 0.00179892
6 *305:54 0.000858735
7 *305:45 0.000384723
8 *305:41 0.00242648
9 *305:8 0.0044493
10 *923:A *1103:B1 0.000337205
11 *1025:B1 *1025:A2 6.08867e-05
12 *1025:B1 *316:62 3.97677e-05
13 *1025:B1 *316:64 2.80334e-05
14 *1025:B1 *316:123 0.000356165
15 *305:8 *308:8 0
16 *305:8 *308:31 0
17 *305:41 *332:54 0.000479652
18 *959:A *305:41 5.71472e-05
19 *972:B *305:41 0.000278806
20 *974:A *305:41 0.000151848
21 *975:A *1025:B1 8.47008e-05
22 *988:B1 *305:41 0.000571124
23 *1026:A *1026:D 9.40105e-05
24 *1026:B *1026:D 0.000222506
25 *1026:B *305:45 8.46829e-05
26 *1034:B2 *1034:A2 2.59355e-05
27 *1040:B *1034:A2 3.54697e-06
28 *1040:C *1034:A2 0.00010714
29 *1040:D *1034:A2 6.10668e-05
30 *1078:A2 *305:41 0.000487879
31 *1100:B *305:41 2.37302e-05
32 *1104:A *305:41 0.000106512
33 *1104:C *305:41 8.29063e-05
34 *1127:A2 *305:41 0.000180777
35 *1127:B1 *305:41 6.91613e-06
36 *1173:A *305:8 0.000254244
37 *3:13 *305:41 9.90367e-05
38 *57:33 *305:41 7.76152e-05
39 *61:10 *1025:B1 0.000373803
40 *61:10 *1034:A2 2.26327e-05
41 *61:12 *1034:A2 7.83892e-05
42 *61:14 *1034:A2 0.000323941
43 *61:16 *1034:A2 5.74242e-05
44 *113:16 *1025:B1 0.000120368
45 *120:10 *1034:A2 3.79254e-05
46 *124:14 *1034:A2 3.09892e-05
47 *235:99 *305:41 0.000360134
48 *271:6 *305:41 1.99271e-05
49 *271:69 *305:41 3.04037e-05
50 *280:8 *305:41 0.00031319
51 *282:8 *1026:D 6.87574e-05
52 *282:8 *305:45 0.000203316
53 *282:54 *305:45 0.000393943
54 *284:14 *305:8 0.00015179
55 *284:24 *923:A 0
56 *284:24 *305:8 0
57 *286:18 *1034:A2 0.000150901
58 *287:20 *1025:B1 0.000163393
59 *288:55 *1034:A2 0
60 *288:66 *1025:B1 6.8646e-06
61 *288:66 *1034:A2 4.65426e-05
62 *288:81 *1025:B1 4.43698e-05
63 *300:12 *305:8 5.26184e-05
*RES
1 *1202:X *305:8 49.4429 
2 *305:8 *923:A 24.6571 
3 *305:8 *305:41 48.8929 
4 *305:41 *305:45 12.0179 
5 *305:45 *1026:D 11.4473 
6 *305:45 *305:54 4.5 
7 *305:54 *1034:A2 25.3357 
8 *305:54 *1025:B1 26.3714 
*END

*D_NET *306 0.00257215
*CONN
*I *1216:A I *D sky130_fd_sc_hd__buf_2
*I *1185:A I *D sky130_fd_sc_hd__dlygate4sd3_1
*I *1163:Q O *D sky130_fd_sc_hd__dfrtp_1
*CAP
1 *1216:A 0.000904521
2 *1185:A 3.77047e-05
3 *1163:Q 0.000295377
4 *306:6 0.0012376
5 sideband_out[1] *1216:A 3.24007e-05
6 *291:8 *1216:A 6.45442e-05
*RES
1 *1163:Q *306:6 12.7107 
2 *306:6 *1185:A 10.0321 
3 *306:6 *1216:A 29.5143 
*END

*D_NET *307 0.00278971
*CONN
*I *1217:A I *D sky130_fd_sc_hd__clkbuf_4
*I *1175:A I *D sky130_fd_sc_hd__dlygate4sd3_1
*I *1164:Q O *D sky130_fd_sc_hd__dfrtp_1
*CAP
1 *1217:A 0.000907782
2 *1175:A 0.000183908
3 *1164:Q 0.00011746
4 *307:6 0.00120915
5 *1166:RESET_B *1217:A 0
6 *284:30 *1175:A 0
7 *291:20 *1217:A 0.000184745
8 *291:20 *307:6 0.000186662
*RES
1 *1164:Q *307:6 11.0679 
2 *307:6 *1175:A 21.4607 
3 *307:6 *1217:A 34.1571 
*END

*D_NET *308 0.00674368
*CONN
*I *1218:A I *D sky130_fd_sc_hd__clkbuf_4
*I *1146:B I *D sky130_fd_sc_hd__and2_1
*I *1165:Q O *D sky130_fd_sc_hd__dfrtp_1
*CAP
1 *1218:A 0
2 *1146:B 0.000291267
3 *1165:Q 0.000101739
4 *308:31 0.00224733
5 *308:8 0.00264034
6 *1146:B *1147:A1 0
7 *1133:A1 *308:8 0
8 *1133:A1 *308:31 0
9 *1194:A *308:31 0
10 *232:150 *308:8 0
11 *285:10 *308:31 0.00128684
12 *291:8 *308:31 0.000176163
13 *305:8 *308:8 0
14 *305:8 *308:31 0
*RES
1 *1165:Q *308:8 15.4429 
2 *308:8 *1146:B 18.4786 
3 *308:8 *308:31 49.3036 
4 *308:31 *1218:A 13.8 
*END

*D_NET *309 0.00235319
*CONN
*I *1176:A I *D sky130_fd_sc_hd__dlygate4sd3_1
*I *1219:A I *D sky130_fd_sc_hd__buf_2
*I *1166:Q O *D sky130_fd_sc_hd__dfrtp_1
*CAP
1 *1176:A 0
2 *1219:A 0.000904665
3 *1166:Q 0.000271931
4 *309:10 0.0011766
*RES
1 *1166:Q *309:10 17.5143 
2 *309:10 *1219:A 28.8 
3 *309:10 *1176:A 13.8 
*END

*D_NET *310 0.00369314
*CONN
*I *1177:A I *D sky130_fd_sc_hd__dlygate4sd3_1
*I *1220:A I *D sky130_fd_sc_hd__clkbuf_4
*I *1167:Q O *D sky130_fd_sc_hd__dfrtp_1
*CAP
1 *1177:A 0.000478816
2 *1220:A 0.000912403
3 *1167:Q 8.0707e-05
4 *310:8 0.00147193
5 *1177:A *315:72 0
6 *1177:A *315:74 0
7 *1220:A *1182:A 0
8 *1220:A *315:74 0
9 *1191:A *1220:A 0
10 *283:14 *310:8 1.05947e-05
11 *286:10 *1220:A 0
12 *297:10 *1177:A 0
13 *297:16 *1177:A 0.000738696
*RES
1 *1167:Q *310:8 14.7464 
2 *310:8 *1220:A 30.3179 
3 *310:8 *1177:A 24.0679 
*END

*D_NET *311 0.00285594
*CONN
*I *1184:A I *D sky130_fd_sc_hd__dlygate4sd3_1
*I *1221:A I *D sky130_fd_sc_hd__clkbuf_4
*I *1168:Q O *D sky130_fd_sc_hd__dfrtp_1
*CAP
1 *1184:A 0.000386258
2 *1221:A 0.000649886
3 *1168:Q 0
4 *311:4 0.00103614
5 *1184:A *1152:B 7.74135e-05
6 *1184:A *1168:RESET_B 1.29901e-05
7 *1221:A *1168:RESET_B 3.67365e-05
8 *1141:A3 *1184:A 9.15842e-06
9 *1141:B1 *1184:A 0.00022197
10 *1153:A1 *1184:A 1.98839e-05
11 *1162:D *1184:A 4.75888e-05
12 *230:75 *1184:A 3.79254e-05
13 *281:33 *1184:A 0.000181107
14 *288:10 *1221:A 0.00013888
*RES
1 *1168:Q *311:4 9.3 
2 *311:4 *1221:A 28.925 
3 *311:4 *1184:A 26.6036 
*END

*D_NET *312 0.00123464
*CONN
*I *1182:A I *D sky130_fd_sc_hd__dlygate4sd3_1
*I *1222:A I *D sky130_fd_sc_hd__clkbuf_4
*I *1169:Q O *D sky130_fd_sc_hd__dfrtp_1
*CAP
1 *1182:A 0.000347065
2 *1222:A 0.000216515
3 *1169:Q 0
4 *312:6 0.00056358
5 *919:A *1182:A 5.33334e-05
6 *1220:A *1182:A 0
7 *232:6 *1182:A 5.41494e-05
*RES
1 *1169:Q *312:6 13.8 
2 *312:6 *1222:A 17.8 
3 *312:6 *1182:A 20.0857 
*END

*D_NET *313 0.00158191
*CONN
*I *1223:A I *D sky130_fd_sc_hd__clkbuf_4
*I *1157:Q O *D sky130_fd_sc_hd__dfrtp_1
*CAP
1 *1223:A 0.000790955
2 *1157:Q 0.000790955
*RES
1 *1157:Q *1223:A 30.2429 
*END

*D_NET *314 0.00134759
*CONN
*I *1113:B I *D sky130_fd_sc_hd__nand3_2
*I *1115:A2 I *D sky130_fd_sc_hd__a21oi_2
*I *1209:X O *D sky130_fd_sc_hd__buf_1
*CAP
1 *1113:B 0.000298339
2 *1115:A2 7.10884e-05
3 *1209:X 0
4 *314:4 0.000369427
5 *1115:A2 *316:22 0.000127446
6 *1113:A *1113:B 6.68086e-05
7 *1123:A0 *1113:B 5.65955e-05
8 *1124:C1 *1113:B 9.55684e-05
9 *1209:A *1113:B 0.000182002
10 *164:23 *1115:A2 0
11 *181:32 *1113:B 3.96825e-05
12 *193:14 *1113:B 4.06286e-05
*RES
1 *1209:X *314:4 9.3 
2 *314:4 *1115:A2 19.9429 
3 *314:4 *1113:B 15.2107 
*END

*D_NET *315 0.0230239
*CONN
*I *1159:RESET_B I *D sky130_fd_sc_hd__dfrtp_1
*I *1157:RESET_B I *D sky130_fd_sc_hd__dfrtp_1
*I *1161:RESET_B I *D sky130_fd_sc_hd__dfrtp_1
*I *1158:RESET_B I *D sky130_fd_sc_hd__dfrtp_1
*I *1156:RESET_B I *D sky130_fd_sc_hd__dfrtp_1
*I *1167:RESET_B I *D sky130_fd_sc_hd__dfrtp_1
*I *1169:RESET_B I *D sky130_fd_sc_hd__dfrtp_1
*I *1168:RESET_B I *D sky130_fd_sc_hd__dfrtp_1
*I *1162:RESET_B I *D sky130_fd_sc_hd__dfrtp_1
*I *1160:RESET_B I *D sky130_fd_sc_hd__dfrtp_1
*I *1173:X O *D sky130_fd_sc_hd__buf_4
*CAP
1 *1159:RESET_B 0
2 *1157:RESET_B 0.000641473
3 *1161:RESET_B 0
4 *1158:RESET_B 0
5 *1156:RESET_B 2.85004e-05
6 *1167:RESET_B 3.02144e-05
7 *1169:RESET_B 0
8 *1168:RESET_B 0.000287643
9 *1162:RESET_B 0.00136247
10 *1160:RESET_B 6.7761e-06
11 *1173:X 0.000389534
12 *315:134 0.000696793
13 *315:74 0.00128795
14 *315:72 0.000896766
15 *315:68 0.00173074
16 *315:58 0.00131986
17 *315:56 0.00117818
18 *315:38 0.00109048
19 *315:36 0.0020783
20 *315:8 0.00234657
21 *1157:RESET_B *327:20 1.27e-05
22 *1162:RESET_B *1152:B 7.34285e-06
23 *1168:RESET_B *331:26 0.000101771
24 *315:8 *1133:A2 9.61553e-05
25 *315:134 *327:20 2.18827e-05
26 *1019:B *315:36 0.000216448
27 *1021:A *315:36 9.90367e-05
28 *1021:B *315:36 0.000139907
29 *1029:A *315:36 2.83919e-05
30 *1029:A *315:38 9.02232e-05
31 *1029:B *315:36 5.74499e-06
32 *1029:C *315:36 6.04072e-05
33 *1093:B *315:36 3.17148e-05
34 *1108:B *315:36 4.58976e-05
35 *1109:A *315:36 0.000130419
36 *1110:B1 *315:36 0.00022459
37 *1112:B1 *315:36 1.21258e-05
38 *1129:B1 *315:36 2.89016e-05
39 *1132:A3 *1157:RESET_B 0.00010326
40 *1132:B1 *315:36 6.22106e-05
41 *1133:A1 *1157:RESET_B 0.000726343
42 *1133:A1 *315:8 5.33005e-05
43 *1133:A1 *315:36 0.00018372
44 *1133:A1 *315:134 0.000202835
45 *1139:B1 *315:56 0.00010597
46 *1139:B1 *315:58 4.1331e-06
47 *1152:A *1162:RESET_B 0.000141036
48 *1154:A *1162:RESET_B 1.62025e-05
49 *1155:A1 *1162:RESET_B 4.64076e-05
50 *1155:A2 *1162:RESET_B 0.000138182
51 *1155:A3 *1162:RESET_B 1.14849e-05
52 *1155:B1 *1162:RESET_B 4.5632e-05
53 *1159:D *315:134 0.000128161
54 *1160:CLK *315:56 4.93503e-05
55 *1162:CLK *1162:RESET_B 0.000136732
56 *1162:D *1162:RESET_B 5.66971e-05
57 *1169:D *1162:RESET_B 8.47289e-06
58 *1177:A *315:72 0
59 *1177:A *315:74 0
60 *1178:A *315:68 0
61 *1181:A *315:38 0.000230482
62 *1184:A *1168:RESET_B 1.29901e-05
63 *1211:A *315:8 5.06983e-05
64 *1214:A *315:68 0
65 *1220:A *315:74 0
66 *1221:A *1168:RESET_B 3.67365e-05
67 *79:25 *315:36 0.000184745
68 *106:8 *315:36 3.08664e-05
69 *107:12 *315:36 7.69324e-05
70 *108:14 *1160:RESET_B 2.81497e-05
71 *108:14 *315:38 2.14658e-05
72 *108:14 *315:56 3.40725e-05
73 *200:30 *315:36 5.14628e-05
74 *200:75 *315:36 0.000397728
75 *215:16 *315:36 0.00070899
76 *232:47 *1156:RESET_B 2.81497e-05
77 *232:47 *315:68 0.00015149
78 *232:66 *315:58 0
79 *232:150 *1157:RESET_B 0.000419598
80 *235:70 *1157:RESET_B 0
81 *269:90 *315:36 0.000200935
82 *285:34 *1157:RESET_B 4.68532e-05
83 *286:10 *1162:RESET_B 0.000158793
84 *286:10 *315:72 0.000372115
85 *286:10 *315:74 0.000192964
86 *286:57 *315:72 3.88375e-05
87 *286:63 *315:68 0
88 *286:63 *315:72 0.000341695
89 *294:12 *315:58 0
90 *294:12 *315:68 0
91 *294:12 *315:72 7.46072e-05
92 *295:10 *315:36 8.93805e-05
93 *298:10 *315:56 0
94 *298:10 *315:58 0
95 *298:10 *315:68 0
96 *301:8 *315:38 9.71197e-05
*RES
1 *1173:X *315:8 16.0143 
2 *315:8 *315:36 49.7321 
3 *315:36 *315:38 4.23214 
4 *315:38 *1160:RESET_B 0.473214 
5 *315:38 *315:56 18.5179 
6 *315:56 *315:58 4.98214 
7 *315:58 *315:68 23.1607 
8 *315:68 *315:72 20.7143 
9 *315:72 *315:74 4.67857 
10 *315:74 *1162:RESET_B 21.2054 
11 *1162:RESET_B *1168:RESET_B 14.1161 
12 *315:74 *1169:RESET_B 4.5 
13 *315:72 *1167:RESET_B 5.03571 
14 *315:68 *1156:RESET_B 0.901786 
15 *315:58 *1158:RESET_B 4.5 
16 *315:56 *1161:RESET_B 4.5 
17 *315:8 *315:134 7.05357 
18 *315:134 *1157:RESET_B 21.2768 
19 *315:134 *1159:RESET_B 4.5 
*END

*D_NET *316 0.0265689
*CONN
*I *1147:A1 I *D sky130_fd_sc_hd__a31o_1
*I *1026:C I *D sky130_fd_sc_hd__nand4_1
*I *926:A I *D sky130_fd_sc_hd__or4_1
*I *1036:B I *D sky130_fd_sc_hd__and2_1
*I *1006:B1 I *D sky130_fd_sc_hd__a22o_1
*I *1007:D I *D sky130_fd_sc_hd__nand4_1
*I *1025:A2 I *D sky130_fd_sc_hd__a22o_1
*I *939:A I *D sky130_fd_sc_hd__xnor2_1
*I *1060:B I *D sky130_fd_sc_hd__nand2_1
*I *1203:X O *D sky130_fd_sc_hd__clkbuf_4
*CAP
1 *1147:A1 0.000382307
2 *1026:C 0
3 *926:A 0.00106075
4 *1036:B 8.75725e-05
5 *1006:B1 0.000200469
6 *1007:D 5.48126e-05
7 *1025:A2 8.82312e-05
8 *939:A 0.000550756
9 *1060:B 0.00010319
10 *1203:X 0.00153702
11 *316:135 0.00149681
12 *316:123 0.000940812
13 *316:79 0.000334791
14 *316:64 0.00022891
15 *316:62 0.00225677
16 *316:32 0.00106625
17 *316:26 0.00214003
18 *316:22 0.00204376
19 *316:22 *327:36 7.6997e-05
20 *316:62 *962:A 0
21 *926:B *926:A 0.000198698
22 *926:C *926:A 0.000246064
23 *927:A *926:A 1.04232e-05
24 *956:B *316:135 0.000109424
25 *968:B1 *1147:A1 5.33005e-05
26 *968:B1 *316:22 3.17148e-05
27 *968:B1 *316:26 8.57023e-05
28 *969:A *1147:A1 8.27532e-05
29 *969:A *316:26 0.000142856
30 *973:A1 *316:26 7.12595e-05
31 *975:A *316:62 1.21258e-05
32 *976:B2 *1007:D 5.33005e-05
33 *985:A *316:62 2.59355e-05
34 *987:B *316:62 0.000394502
35 *987:C *316:62 9.41642e-05
36 *988:B1 *316:32 0.000101545
37 *992:B *316:62 0.000133564
38 *996:B *316:62 0.000146398
39 *1001:A *1147:A1 0.000268923
40 *1001:B *316:22 0.000279164
41 *1003:A2 *316:22 7.49346e-05
42 *1006:B2 *1006:B1 0.000215266
43 *1007:A *316:79 0.000121891
44 *1007:B *1007:D 1.98839e-05
45 *1007:C *1007:D 5.33005e-05
46 *1009:A1 *316:62 9.58689e-05
47 *1025:B1 *1025:A2 6.08867e-05
48 *1025:B1 *316:62 3.97677e-05
49 *1025:B1 *316:64 2.80334e-05
50 *1025:B1 *316:123 0.000356165
51 *1034:A1 *926:A 0.000170762
52 *1037:B *316:135 6.69975e-05
53 *1037:C *926:A 1.02132e-05
54 *1049:A *316:123 0.00010326
55 *1049:B *316:123 7.02611e-05
56 *1071:A2 *1060:B 1.21258e-05
57 *1071:B1 *939:A 0.000122591
58 *1075:A *1060:B 5.50052e-05
59 *1075:C *939:A 5.33005e-05
60 *1075:C *1060:B 3.9087e-05
61 *1096:A *316:22 0
62 *1115:A2 *316:22 0.000127446
63 *1122:A3 *316:22 0.000220636
64 *1123:A0 *316:22 0
65 *1130:B2 *1007:D 5.46383e-06
66 *1134:A2 *316:22 0
67 *1135:B *316:22 0
68 *1146:B *1147:A1 0
69 *1147:A2 *939:A 0
70 *1147:A2 *1147:A1 0.000355363
71 *1150:A *926:A 6.28241e-05
72 *1151:A1 *926:A 9.00853e-05
73 *1167:CLK *926:A 1.65169e-05
74 *3:13 *316:32 0.000389583
75 *56:12 *316:22 2.75153e-05
76 *57:100 *316:32 0.000111285
77 *57:121 *316:32 7.89037e-05
78 *57:142 *316:32 4.00025e-05
79 *57:142 *316:62 7.41402e-05
80 *71:10 *316:62 3.71754e-05
81 *71:68 *316:62 0
82 *71:89 *1060:B 5.49995e-05
83 *73:14 *316:62 0.000227843
84 *78:12 *316:62 5.33005e-05
85 *83:10 *316:22 8.08608e-06
86 *85:17 *316:22 0
87 *91:29 *1006:B1 4.16984e-05
88 *93:10 *1006:B1 0.000104974
89 *111:22 *316:123 1.33343e-05
90 *112:10 *316:123 5.38268e-05
91 *112:10 *316:135 2.83284e-06
92 *113:16 *316:123 0.000166973
93 *121:27 *316:135 5.68722e-05
94 *122:6 *926:A 1.47972e-05
95 *122:6 *1036:B 5.49489e-05
96 *122:15 *926:A 2.78579e-05
97 *123:10 *926:A 0
98 *133:8 *316:123 0.000192404
99 *133:8 *316:135 7.83659e-05
100 *135:10 *316:123 0
101 *149:12 *316:32 5.49657e-05
102 *154:8 *1060:B 0.000116003
103 *156:12 *316:32 5.51649e-05
104 *161:6 *939:A 0.000196939
105 *164:8 *316:62 7.94526e-05
106 *164:23 *316:22 0
107 *181:21 *316:22 8.99065e-05
108 *207:10 *316:22 0
109 *208:12 *316:22 6.75012e-05
110 *230:10 *316:135 1.69115e-05
111 *233:69 *316:62 7.78186e-05
112 *234:6 *1007:D 1.98839e-05
113 *234:45 *926:A 2.16719e-05
114 *236:14 *939:A 4.79864e-05
115 *238:10 *926:A 2.26424e-05
116 *241:123 *939:A 0.000306611
117 *268:8 *926:A 1.24368e-05
118 *268:14 *926:A 9.90367e-05
119 *268:95 *939:A 5.80706e-06
120 *269:8 *316:135 3.69047e-06
121 *269:90 *316:22 3.93893e-05
122 *270:16 *316:62 9.84673e-05
123 *270:18 *316:62 0.000179537
124 *270:28 *316:62 2.85321e-05
125 *272:107 *316:32 0.0003103
126 *274:44 *316:32 0.000353528
127 *274:76 *316:26 0.000350136
128 *274:76 *316:32 0.000108118
129 *274:76 *316:62 2.31791e-05
130 *278:40 *1147:A1 5.49544e-05
131 *278:53 *316:22 0.000112096
132 *283:14 *926:A 0.00012401
133 *285:34 *316:62 0.000260149
134 *287:14 *1025:A2 5.66472e-05
135 *287:20 *1025:A2 1.65914e-05
136 *288:10 *926:A 0.000505167
137 *288:19 *926:A 0.000158407
138 *288:32 *926:A 0.000104332
139 *288:81 *316:123 0.000427522
140 *288:103 *1006:B1 1.00887e-05
141 *288:103 *316:79 0.00012342
142 *288:103 *316:123 5.74242e-05
143 *294:20 *926:A 2.07718e-05
*RES
1 *1203:X *316:22 48.3357 
2 *316:22 *316:26 8.73214 
3 *316:26 *316:32 17.8036 
4 *316:32 *1060:B 11.8893 
5 *316:32 *939:A 30.2464 
6 *316:26 *316:62 34.2857 
7 *316:62 *316:64 0.946429 
8 *316:64 *1025:A2 11.3893 
9 *316:64 *316:79 6.57143 
10 *316:79 *1007:D 15.175 
11 *316:79 *1006:B1 17.8179 
12 *316:62 *316:123 27.8929 
13 *316:123 *316:135 19.7679 
14 *316:135 *1036:B 10.6571 
15 *316:135 *926:A 49.3536 
16 *316:123 *1026:C 13.8 
17 *316:22 *1147:A1 17.2464 
*END

*D_NET *317 0.000265493
*CONN
*I *1130:A2 I *D sky130_fd_sc_hd__a22o_1
*I *1174:X O *D sky130_fd_sc_hd__dlygate4sd3_1
*CAP
1 *1130:A2 6.2293e-05
2 *1174:X 6.2293e-05
3 *232:47 *1130:A2 0.000140907
*RES
1 *1174:X *1130:A2 19.9571 
*END

*D_NET *318 7.40818e-05
*CONN
*I *957:A1 I *D sky130_fd_sc_hd__o21ba_1
*I *1178:X O *D sky130_fd_sc_hd__dlygate4sd3_1
*CAP
1 *957:A1 3.70409e-05
2 *1178:X 3.70409e-05
*RES
1 *1178:X *957:A1 19.1357 
*END

*D_NET *319 0.000238648
*CONN
*I *1139:A2 I *D sky130_fd_sc_hd__a22o_1
*I *1179:X O *D sky130_fd_sc_hd__dlygate4sd3_1
*CAP
1 *1139:A2 8.01445e-05
2 *1179:X 8.01445e-05
3 *1139:B1 *1139:A2 7.83587e-05
4 *1139:B2 *1139:A2 0
5 *298:10 *1139:A2 0
*RES
1 *1179:X *1139:A2 29.2429 
*END

*D_NET *320 0.000571944
*CONN
*I *1133:A2 I *D sky130_fd_sc_hd__a22o_1
*I *1180:X O *D sky130_fd_sc_hd__dlygate4sd3_1
*CAP
1 *1133:A2 0.000146993
2 *1180:X 0.000146993
3 *1133:A1 *1133:A2 0.000181803
4 *315:8 *1133:A2 9.61553e-05
*RES
1 *1180:X *1133:A2 22.0107 
*END

*D_NET *321 0.00115068
*CONN
*I *1137:A2 I *D sky130_fd_sc_hd__a22o_1
*I *1181:X O *D sky130_fd_sc_hd__dlygate4sd3_1
*CAP
1 *1137:A2 0.000193751
2 *1181:X 0.000193751
3 *1028:A1 *1137:A2 2.16719e-05
4 *1028:A2 *1137:A2 5.71472e-05
5 *1138:A *1137:A2 0.000393956
6 *1139:B1 *1137:A2 5.17614e-05
7 *114:12 *1137:A2 7.83659e-05
8 *167:14 *1137:A2 0
9 *220:30 *1137:A2 0.000137873
10 *269:42 *1137:A2 2.24079e-05
*RES
1 *1181:X *1137:A2 33.4929 
*END

*D_NET *322 0.00159248
*CONN
*I *1154:B I *D sky130_fd_sc_hd__and2_1
*I *1182:X O *D sky130_fd_sc_hd__dlygate4sd3_1
*CAP
1 *1154:B 0.000347732
2 *1182:X 0.000347732
3 *919:A *1154:B 4.27338e-05
4 *1151:A2 *1154:B 0.000231867
5 *1155:A1 *1154:B 0.000311293
6 *1155:A2 *1154:B 0
7 *1155:A3 *1154:B 5.01064e-05
8 *268:14 *1154:B 3.50166e-05
9 *268:18 *1154:B 0.000225995
*RES
1 *1182:X *1154:B 35.4036 
*END

*D_NET *323 0.00108811
*CONN
*I *1140:B I *D sky130_fd_sc_hd__and2_1
*I *1183:X O *D sky130_fd_sc_hd__dlygate4sd3_1
*CAP
1 *1140:B 0.000130669
2 *1183:X 0.000130669
3 *1140:B *331:26 0.000354073
4 *1215:A *1140:B 0.000124019
5 *232:107 *1140:B 0.000269747
6 *233:8 *1140:B 7.89362e-05
*RES
1 *1183:X *1140:B 32.6536 
*END

*D_NET *324 0.000818267
*CONN
*I *1152:B I *D sky130_fd_sc_hd__and2_1
*I *1184:X O *D sky130_fd_sc_hd__dlygate4sd3_1
*CAP
1 *1152:B 0.000268539
2 *1184:X 0.000268539
3 *1152:A *1152:B 4.41645e-05
4 *1162:CLK *1152:B 7.4854e-05
5 *1162:D *1152:B 7.74135e-05
6 *1162:RESET_B *1152:B 7.34285e-06
7 *1184:A *1152:B 7.74135e-05
*RES
1 *1184:X *1152:B 32.2607 
*END

*D_NET *325 0.000823576
*CONN
*I *1142:B I *D sky130_fd_sc_hd__and2_1
*I *1185:X O *D sky130_fd_sc_hd__dlygate4sd3_1
*CAP
1 *1142:B 0.000379654
2 *1185:X 0.000379654
3 *1142:A *1142:B 3.63587e-05
4 *1143:A2 *1142:B 0
5 *284:30 *1142:B 2.79092e-05
*RES
1 *1185:X *1142:B 34.0286 
*END

*D_NET *326 0.000384653
*CONN
*I *1144:B I *D sky130_fd_sc_hd__and2_1
*I *1175:X O *D sky130_fd_sc_hd__dlygate4sd3_1
*CAP
1 *1144:B 5.24198e-05
2 *1175:X 5.24198e-05
3 *1144:A *1144:B 9.60939e-05
4 *292:14 *1144:B 0.00018372
*RES
1 *1175:X *1144:B 20.3679 
*END

*D_NET *327 0.0101571
*CONN
*I *922:A I *D sky130_fd_sc_hd__clkbuf_4
*I *1006:A2 I *D sky130_fd_sc_hd__a22o_1
*I *1204:X O *D sky130_fd_sc_hd__buf_1
*CAP
1 *922:A 1.9897e-05
2 *1006:A2 0
3 *1204:X 0.00151132
4 *327:36 0.00264752
5 *327:20 0.00417874
6 *1006:A1 *327:36 2.286e-05
7 *1010:A *327:36 6.16649e-05
8 *1010:C *327:36 4.25176e-05
9 *1011:C *327:36 0.000208453
10 *1017:A *327:36 0.000102197
11 *1105:A *327:36 5.04705e-05
12 *1106:A *327:36 1.9774e-05
13 *1126:A3 *327:20 0
14 *1126:B1 *327:20 0.000179656
15 *1129:B2 *327:20 0
16 *1131:A *327:20 7.45464e-05
17 *1131:A *327:36 0.000122705
18 *1131:B *327:20 3.17389e-05
19 *1132:A3 *327:20 0.000101545
20 *1133:A1 *327:20 9.87983e-06
21 *1133:B2 *327:20 0
22 *1136:B2 *327:20 0
23 *1157:RESET_B *327:20 1.27e-05
24 *1159:D *327:20 6.75007e-05
25 *1204:A *327:20 5.62995e-05
26 *91:29 *327:36 5.30637e-06
27 *92:12 *327:36 2.65105e-05
28 *94:16 *327:36 2.44239e-05
29 *97:14 *327:36 4.10026e-05
30 *139:39 *327:36 3.14163e-05
31 *141:16 *327:36 0.000160294
32 *191:8 *327:36 0.000113283
33 *192:33 *327:20 0
34 *200:10 *327:20 2.26424e-05
35 *200:16 *327:20 8.68569e-05
36 *200:30 *327:20 5.14407e-06
37 *235:16 *327:36 1.9354e-05
38 *315:134 *327:20 2.18827e-05
39 *316:22 *327:36 7.6997e-05
*RES
1 *1204:X *327:20 44.925 
2 *327:20 *327:36 44.125 
3 *327:36 *1006:A2 9.3 
4 *327:20 *922:A 9.72857 
*END

*D_NET *328 0.000347606
*CONN
*I *1148:B I *D sky130_fd_sc_hd__and2_1
*I *1176:X O *D sky130_fd_sc_hd__dlygate4sd3_1
*CAP
1 *1148:B 5.40515e-05
2 *1176:X 5.40515e-05
3 *1148:B *331:12 0.000184503
4 *232:118 *1148:B 5.49995e-05
*RES
1 *1176:X *1148:B 20.3679 
*END

*D_NET *329 0.000308221
*CONN
*I *1150:B I *D sky130_fd_sc_hd__and2_1
*I *1177:X O *D sky130_fd_sc_hd__dlygate4sd3_1
*CAP
1 *1150:B 5.71258e-05
2 *1177:X 5.71258e-05
3 *934:B *1150:B 0
4 *238:10 *1150:B 6.65302e-05
5 *288:10 *1150:B 0.000127439
*RES
1 *1177:X *1150:B 29.3768 
*END

*D_NET *330 0.00403646
*CONN
*I *1005:B I *D sky130_fd_sc_hd__and2_1
*I *921:A I *D sky130_fd_sc_hd__clkbuf_4
*I *1205:X O *D sky130_fd_sc_hd__clkbuf_1
*CAP
1 *1005:B 0
2 *921:A 0.000173413
3 *1205:X 0.00143801
4 *330:10 0.00161142
5 *1022:B *330:10 7.55152e-05
6 *1130:B2 *921:A 0.000349028
7 *1130:B2 *330:10 0.000149372
8 *1139:A1 *330:10 0.000175354
9 *1139:B2 *330:10 0
10 *93:10 *330:10 2.30245e-05
11 *93:21 *330:10 1.50179e-05
12 *232:66 *330:10 2.6304e-05
*RES
1 *1205:X *330:10 37.8 
2 *330:10 *921:A 17.6393 
3 *330:10 *1005:B 13.8 
*END

*D_NET *331 0.0134213
*CONN
*I *920:A I *D sky130_fd_sc_hd__clkbuf_4
*I *980:A2 I *D sky130_fd_sc_hd__a22o_1
*I *1206:X O *D sky130_fd_sc_hd__buf_1
*CAP
1 *920:A 0
2 *980:A2 0
3 *1206:X 0.0003058
4 *331:26 0.00134146
5 *331:12 0.00368165
6 *331:10 0.00264598
7 *331:10 *333:10 0.000198847
8 *927:C *331:26 0.00023916
9 *933:A2 *331:26 0.000185297
10 *1035:A *331:26 5.89404e-05
11 *1040:A *331:26 0.000112036
12 *1140:B *331:26 0.000354073
13 *1141:B1 *331:26 0.000313706
14 *1148:B *331:12 0.000184503
15 *1149:B1 *331:12 5.66971e-05
16 *1162:CLK *331:26 0.000191337
17 *1167:CLK *331:26 0.00014576
18 *1168:RESET_B *331:26 0.000101771
19 *61:12 *331:26 1.02504e-05
20 *61:14 *331:26 0.00032879
21 *61:16 *331:26 9.15842e-06
22 *125:14 *331:26 0.000193734
23 *126:12 *331:26 1.65169e-05
24 *232:107 *331:12 0.00148284
25 *232:107 *331:26 4.77002e-05
26 *232:118 *331:12 4.77002e-05
27 *233:44 *331:26 0.000305711
28 *234:37 *331:26 4.63635e-05
29 *234:39 *331:26 0.000282426
30 *234:45 *331:26 0
31 *237:40 *331:26 0.000122719
32 *239:21 *331:26 0.000141368
33 *241:61 *331:26 4.25809e-05
34 *271:14 *331:26 1.12669e-05
35 *272:24 *331:26 0
36 *281:10 *331:26 0.000215172
*RES
1 *1206:X *331:10 25.4071 
2 *331:10 *331:12 42.8393 
3 *331:12 *331:26 46.1964 
4 *331:26 *980:A2 13.8 
5 *331:12 *920:A 9.3 
*END

*D_NET *332 0.0190035
*CONN
*I *928:A I *D sky130_fd_sc_hd__buf_2
*I *963:A1 I *D sky130_fd_sc_hd__a22o_1
*I *962:A I *D sky130_fd_sc_hd__and2_1
*I *961:B I *D sky130_fd_sc_hd__and4_1
*I *967:B1 I *D sky130_fd_sc_hd__o21ai_1
*I *958:A I *D sky130_fd_sc_hd__nand2_2
*I *966:B I *D sky130_fd_sc_hd__and3_1
*I *964:B I *D sky130_fd_sc_hd__nand4_1
*I *944:A I *D sky130_fd_sc_hd__nand2_1
*I *1207:X O *D sky130_fd_sc_hd__buf_2
*CAP
1 *928:A 0
2 *963:A1 0.000106677
3 *962:A 0.000790932
4 *961:B 0
5 *967:B1 0
6 *958:A 0.000502715
7 *966:B 0
8 *964:B 8.00667e-06
9 *944:A 0
10 *1207:X 0.00163376
11 *332:103 0.000875838
12 *332:81 0.000802943
13 *332:58 0.000651308
14 *332:54 0.000769747
15 *332:46 0.000523872
16 *332:35 0.000705119
17 *332:27 0.000834751
18 *332:10 0.000717937
19 *332:8 0.00213063
20 sideband_out[2] *332:8 9.35729e-05
21 *932:A *332:10 1.00887e-05
22 *932:A *332:27 0.000160963
23 *932:B *332:27 0.000227539
24 *932:B *332:35 5.80706e-06
25 *942:A *332:27 5.7661e-06
26 *945:A *332:35 0
27 *953:B2 *332:35 7.79781e-06
28 *954:B1 *332:35 0.000148196
29 *954:B2 *332:35 3.90513e-05
30 *955:B1 *332:27 4.22908e-05
31 *955:B1 *332:35 0.000123295
32 *962:B *962:A 4.43184e-05
33 *964:A *332:46 0.000146254
34 *967:A1 *958:A 1.80912e-05
35 *967:A1 *332:81 1.25784e-05
36 *967:A2 *332:81 3.2746e-05
37 *968:A1 *332:81 1.64673e-05
38 *968:A2 *332:81 0.000136682
39 *968:B1 *958:A 0
40 *968:B1 *332:81 2.89114e-05
41 *970:C *332:81 5.33005e-05
42 *973:B1 *958:A 0
43 *987:A *962:A 0.000356203
44 *988:B1 *332:54 0
45 *991:B *962:A 0
46 *1001:B *958:A 0.000139287
47 *1045:A1 *964:B 2.0876e-05
48 *1059:B *332:35 7.65336e-06
49 *1069:A1 *332:35 6.79404e-05
50 *1157:D *332:58 0.000473747
51 *1157:D *332:81 4.27935e-05
52 *1199:A *332:8 7.8195e-05
53 *3:13 *332:10 0.000314075
54 *3:13 *332:27 5.79561e-05
55 *3:13 *332:54 2.8266e-06
56 *71:68 *962:A 0
57 *71:68 *332:54 0
58 *71:68 *332:103 0
59 *152:8 *964:B 1.01581e-05
60 *190:30 *958:A 0.000356268
61 *235:99 *332:54 0.000303705
62 *238:92 *332:35 4.37982e-05
63 *241:12 *332:27 0.00010946
64 *241:91 *332:27 0.000354105
65 *241:138 *962:A 0.000341668
66 *241:138 *332:81 0.00010326
67 *255:14 *332:27 0
68 *270:6 *958:A 8.84686e-05
69 *271:86 *963:A1 0.000148911
70 *271:86 *332:46 6.90125e-05
71 *271:109 *332:103 1.08359e-05
72 *272:45 *332:35 0.000108763
73 *272:60 *332:35 0.000179215
74 *272:60 *332:46 2.35282e-05
75 *272:69 *963:A1 0.000140375
76 *272:69 *332:46 0.000216981
77 *272:86 *332:103 0.000135131
78 *272:107 *962:A 1.02504e-05
79 *272:107 *332:103 4.73656e-05
80 *274:44 *962:A 0
81 *274:44 *332:54 0
82 *274:76 *962:A 0
83 *277:12 *332:54 7.88765e-05
84 *277:12 *332:103 6.60268e-05
85 *277:27 *332:103 7.90803e-05
86 *278:14 *332:81 0.000101545
87 *278:31 *958:A 0
88 *279:8 *332:81 8.07271e-05
89 *281:74 *332:27 5.38157e-05
90 *282:54 *963:A1 4.87854e-05
91 *290:12 *332:8 0.000446603
92 *295:16 *332:35 0.000361184
93 *295:16 *332:46 6.94441e-06
94 *296:18 *332:8 0.000187612
95 *296:18 *332:10 0.000241869
96 *305:41 *332:54 0.000479652
97 *316:62 *962:A 0
*RES
1 *1207:X *332:8 42.2643 
2 *332:8 *332:10 11.9643 
3 *332:10 *944:A 13.8 
4 *332:10 *332:27 11.8393 
5 *332:27 *332:35 19.9643 
6 *332:35 *964:B 14.0098 
7 *332:35 *332:46 3.16071 
8 *332:46 *332:54 16.8036 
9 *332:54 *332:58 9.14286 
10 *332:58 *966:B 9.3 
11 *332:58 *332:81 15.9107 
12 *332:81 *958:A 27.9429 
13 *332:81 *967:B1 9.3 
14 *332:54 *332:103 2.55357 
15 *332:103 *961:B 13.8 
16 *332:103 *962:A 34.9071 
17 *332:46 *963:A1 16.6929 
18 *332:27 *928:A 9.3 
*END

*D_NET *333 0.00516875
*CONN
*I *1103:B1 I *D sky130_fd_sc_hd__o21a_1
*I *1208:X O *D sky130_fd_sc_hd__buf_1
*CAP
1 *1103:B1 0.000884115
2 *1208:X 0.00120048
3 *333:10 0.00208459
4 *923:A *1103:B1 0.000337205
5 *947:B1 *333:10 0
6 *1103:A1 *1103:B1 5.46383e-06
7 *1192:A *333:10 0
8 *236:6 *1103:B1 0.000102659
9 *291:8 *333:10 0.000355394
10 *331:10 *333:10 0.000198847
*RES
1 *1208:X *333:10 44.2286 
2 *333:10 *1103:B1 26.2821 
*END
