*SPEF "ieee 1481-1999"
*DESIGN "gear_quantizer"
*DATE "11:11:11 Fri 11 11, 1111"
*VENDOR "OpenRCX"
*PROGRAM "Parallel Extraction"
*VERSION "1.0"
*DESIGN_FLOW "NAME_SCOPE LOCAL" "PIN_CAP NONE"
*DIVIDER /
*DELIMITER :
*BUS_DELIMITER []
*T_UNIT 1 NS
*C_UNIT 1 PF
*R_UNIT 1 OHM
*L_UNIT 1 HENRY

*NAME_MAP
*3 clk
*4 data_in[0]
*5 data_in[1]
*6 data_in[2]
*7 data_in[3]
*8 data_in[4]
*9 data_in[5]
*10 data_in[6]
*11 data_in[7]
*12 int4_out[0]
*13 int4_out[1]
*14 int4_out[2]
*15 int4_out[3]
*16 is_outlier
*17 round_mode
*18 rst_n
*19 scale[0]
*20 scale[1]
*21 scale[2]
*22 scale[3]
*23 sideband_out[0]
*24 sideband_out[1]
*25 sideband_out[2]
*26 sideband_out[3]
*27 sideband_out[4]
*28 sideband_out[5]
*29 sideband_out[6]
*30 sideband_out[7]
*31 threshold[0]
*32 threshold[1]
*33 threshold[2]
*34 threshold[3]
*35 threshold[4]
*36 threshold[5]
*37 threshold[6]
*38 threshold[7]
*39 valid_in
*40 valid_out
*41 _000_
*42 _001_
*43 _002_
*44 _003_
*45 _004_
*46 _005_
*47 _006_
*48 _007_
*49 _008_
*50 _009_
*51 _010_
*52 _011_
*53 _012_
*54 _013_
*55 _014_
*56 _015_
*57 _016_
*58 _017_
*59 _018_
*60 _019_
*61 _020_
*62 _021_
*63 _022_
*64 _023_
*65 _024_
*66 _025_
*67 _026_
*68 _027_
*69 _028_
*70 _029_
*71 _030_
*72 _031_
*73 _032_
*74 _033_
*75 _034_
*76 _035_
*77 _036_
*78 _037_
*79 _038_
*80 _039_
*81 _040_
*82 _041_
*83 _042_
*84 _043_
*85 _044_
*86 _045_
*87 _046_
*88 _047_
*89 _048_
*90 _049_
*91 _050_
*92 _051_
*93 _052_
*94 _053_
*95 _054_
*96 _055_
*97 _056_
*98 _057_
*99 _058_
*100 _059_
*101 _060_
*102 _061_
*103 _062_
*104 _063_
*105 _064_
*106 _065_
*107 _066_
*108 _067_
*109 _068_
*110 _069_
*111 _070_
*112 _071_
*113 _072_
*114 _073_
*115 _074_
*116 _075_
*117 _076_
*118 _077_
*119 _078_
*120 _079_
*121 _080_
*122 _081_
*123 _082_
*124 _083_
*125 _084_
*126 _085_
*127 _086_
*128 _087_
*129 _088_
*130 _089_
*131 _090_
*132 _091_
*133 _092_
*134 _093_
*135 _094_
*136 _095_
*137 _096_
*138 _097_
*139 _098_
*140 _099_
*141 _100_
*142 _101_
*143 _102_
*144 _103_
*145 _104_
*146 _105_
*147 _106_
*148 _107_
*149 _108_
*150 _109_
*151 _110_
*152 _111_
*153 _112_
*154 _113_
*155 _114_
*156 _115_
*157 _116_
*158 _117_
*159 _118_
*160 _119_
*161 _120_
*162 _121_
*163 _122_
*164 _123_
*165 _124_
*166 _125_
*167 _126_
*168 _127_
*169 _128_
*170 _129_
*171 _130_
*172 _131_
*173 _132_
*174 _133_
*175 _134_
*176 _135_
*177 _136_
*178 _137_
*179 _138_
*180 _139_
*181 _140_
*182 _141_
*183 _142_
*184 _143_
*185 _144_
*186 _145_
*187 _146_
*188 _147_
*189 _148_
*190 _149_
*191 _150_
*192 _151_
*193 _152_
*194 _153_
*195 _154_
*196 _155_
*197 _156_
*198 _157_
*199 _158_
*200 _159_
*201 _160_
*202 _161_
*203 _162_
*204 _163_
*205 _164_
*206 _165_
*207 _166_
*208 _167_
*209 _168_
*210 _169_
*211 _170_
*212 _171_
*213 _172_
*214 _173_
*215 _174_
*216 _175_
*217 _176_
*218 _177_
*219 _178_
*220 _179_
*221 _180_
*222 _181_
*223 _182_
*224 _183_
*225 _184_
*226 _185_
*227 _186_
*228 _187_
*229 _188_
*230 _189_
*231 _190_
*232 _191_
*233 _192_
*234 _193_
*235 _194_
*236 _195_
*237 _196_
*238 _197_
*239 _198_
*240 _199_
*241 _200_
*242 _201_
*243 _202_
*244 _203_
*245 _204_
*246 _205_
*247 _206_
*248 _207_
*249 _208_
*250 _209_
*251 _210_
*252 _211_
*253 _212_
*254 _213_
*255 _214_
*256 _215_
*257 _216_
*258 _217_
*259 _218_
*260 clknet_0_clk
*261 clknet_1_0__leaf_clk
*262 clknet_1_1__leaf_clk
*263 net1
*264 net10
*265 net11
*266 net12
*267 net13
*268 net14
*269 net15
*270 net16
*271 net17
*272 net18
*273 net19
*274 net2
*275 net20
*276 net21
*277 net22
*278 net23
*279 net24
*280 net25
*281 net26
*282 net27
*283 net28
*284 net29
*285 net3
*286 net30
*287 net31
*288 net32
*289 net33
*290 net34
*291 net35
*292 net36
*293 net37
*294 net38
*295 net39
*296 net4
*297 net40
*298 net41
*299 net42
*300 net5
*301 net6
*302 net7
*303 net8
*304 net9
*305 FILLER_0_0_109
*306 FILLER_0_0_113
*307 FILLER_0_0_119
*308 FILLER_0_0_126
*309 FILLER_0_0_138
*310 FILLER_0_0_141
*311 FILLER_0_0_153
*312 FILLER_0_0_161
*313 FILLER_0_0_167
*314 FILLER_0_0_169
*315 FILLER_0_0_181
*316 FILLER_0_0_19
*317 FILLER_0_0_193
*318 FILLER_0_0_197
*319 FILLER_0_0_209
*320 FILLER_0_0_221
*321 FILLER_0_0_225
*322 FILLER_0_0_237
*323 FILLER_0_0_249
*324 FILLER_0_0_253
*325 FILLER_0_0_258
*326 FILLER_0_0_27
*327 FILLER_0_0_270
*328 FILLER_0_0_278
*329 FILLER_0_0_281
*330 FILLER_0_0_293
*331 FILLER_0_0_303
*332 FILLER_0_0_307
*333 FILLER_0_0_309
*334 FILLER_0_0_321
*335 FILLER_0_0_333
*336 FILLER_0_0_337
*337 FILLER_0_0_343
*338 FILLER_0_0_35
*339 FILLER_0_0_355
*340 FILLER_0_0_363
*341 FILLER_0_0_365
*342 FILLER_0_0_377
*343 FILLER_0_0_389
*344 FILLER_0_0_399
*345 FILLER_0_0_47
*346 FILLER_0_0_55
*347 FILLER_0_0_57
*348 FILLER_0_0_69
*349 FILLER_0_0_7
*350 FILLER_0_0_77
*351 FILLER_0_0_83
*352 FILLER_0_0_85
*353 FILLER_0_0_97
*354 FILLER_0_10_109
*355 FILLER_0_10_121
*356 FILLER_0_10_133
*357 FILLER_0_10_139
*358 FILLER_0_10_141
*359 FILLER_0_10_15
*360 FILLER_0_10_153
*361 FILLER_0_10_165
*362 FILLER_0_10_177
*363 FILLER_0_10_189
*364 FILLER_0_10_195
*365 FILLER_0_10_197
*366 FILLER_0_10_209
*367 FILLER_0_10_221
*368 FILLER_0_10_233
*369 FILLER_0_10_245
*370 FILLER_0_10_251
*371 FILLER_0_10_253
*372 FILLER_0_10_265
*373 FILLER_0_10_27
*374 FILLER_0_10_277
*375 FILLER_0_10_289
*376 FILLER_0_10_29
*377 FILLER_0_10_3
*378 FILLER_0_10_301
*379 FILLER_0_10_307
*380 FILLER_0_10_309
*381 FILLER_0_10_321
*382 FILLER_0_10_333
*383 FILLER_0_10_345
*384 FILLER_0_10_357
*385 FILLER_0_10_363
*386 FILLER_0_10_365
*387 FILLER_0_10_377
*388 FILLER_0_10_389
*389 FILLER_0_10_401
*390 FILLER_0_10_41
*391 FILLER_0_10_53
*392 FILLER_0_10_65
*393 FILLER_0_10_77
*394 FILLER_0_10_83
*395 FILLER_0_10_85
*396 FILLER_0_10_97
*397 FILLER_0_11_105
*398 FILLER_0_11_111
*399 FILLER_0_11_113
*400 FILLER_0_11_125
*401 FILLER_0_11_137
*402 FILLER_0_11_149
*403 FILLER_0_11_161
*404 FILLER_0_11_167
*405 FILLER_0_11_169
*406 FILLER_0_11_181
*407 FILLER_0_11_193
*408 FILLER_0_11_205
*409 FILLER_0_11_21
*410 FILLER_0_11_217
*411 FILLER_0_11_223
*412 FILLER_0_11_225
*413 FILLER_0_11_237
*414 FILLER_0_11_249
*415 FILLER_0_11_261
*416 FILLER_0_11_273
*417 FILLER_0_11_279
*418 FILLER_0_11_281
*419 FILLER_0_11_293
*420 FILLER_0_11_305
*421 FILLER_0_11_317
*422 FILLER_0_11_329
*423 FILLER_0_11_33
*424 FILLER_0_11_335
*425 FILLER_0_11_337
*426 FILLER_0_11_349
*427 FILLER_0_11_361
*428 FILLER_0_11_373
*429 FILLER_0_11_385
*430 FILLER_0_11_391
*431 FILLER_0_11_393
*432 FILLER_0_11_405
*433 FILLER_0_11_45
*434 FILLER_0_11_53
*435 FILLER_0_11_57
*436 FILLER_0_11_69
*437 FILLER_0_11_81
*438 FILLER_0_11_9
*439 FILLER_0_11_93
*440 FILLER_0_12_109
*441 FILLER_0_12_121
*442 FILLER_0_12_133
*443 FILLER_0_12_139
*444 FILLER_0_12_141
*445 FILLER_0_12_15
*446 FILLER_0_12_153
*447 FILLER_0_12_165
*448 FILLER_0_12_177
*449 FILLER_0_12_189
*450 FILLER_0_12_195
*451 FILLER_0_12_197
*452 FILLER_0_12_209
*453 FILLER_0_12_221
*454 FILLER_0_12_233
*455 FILLER_0_12_245
*456 FILLER_0_12_251
*457 FILLER_0_12_253
*458 FILLER_0_12_265
*459 FILLER_0_12_27
*460 FILLER_0_12_277
*461 FILLER_0_12_289
*462 FILLER_0_12_29
*463 FILLER_0_12_3
*464 FILLER_0_12_301
*465 FILLER_0_12_307
*466 FILLER_0_12_309
*467 FILLER_0_12_321
*468 FILLER_0_12_333
*469 FILLER_0_12_345
*470 FILLER_0_12_357
*471 FILLER_0_12_363
*472 FILLER_0_12_365
*473 FILLER_0_12_377
*474 FILLER_0_12_389
*475 FILLER_0_12_401
*476 FILLER_0_12_41
*477 FILLER_0_12_53
*478 FILLER_0_12_65
*479 FILLER_0_12_77
*480 FILLER_0_12_83
*481 FILLER_0_12_85
*482 FILLER_0_12_97
*483 FILLER_0_13_105
*484 FILLER_0_13_111
*485 FILLER_0_13_113
*486 FILLER_0_13_125
*487 FILLER_0_13_137
*488 FILLER_0_13_149
*489 FILLER_0_13_15
*490 FILLER_0_13_161
*491 FILLER_0_13_167
*492 FILLER_0_13_169
*493 FILLER_0_13_181
*494 FILLER_0_13_193
*495 FILLER_0_13_205
*496 FILLER_0_13_217
*497 FILLER_0_13_223
*498 FILLER_0_13_225
*499 FILLER_0_13_237
*500 FILLER_0_13_249
*501 FILLER_0_13_261
*502 FILLER_0_13_27
*503 FILLER_0_13_273
*504 FILLER_0_13_279
*505 FILLER_0_13_281
*506 FILLER_0_13_293
*507 FILLER_0_13_3
*508 FILLER_0_13_305
*509 FILLER_0_13_317
*510 FILLER_0_13_329
*511 FILLER_0_13_335
*512 FILLER_0_13_337
*513 FILLER_0_13_349
*514 FILLER_0_13_361
*515 FILLER_0_13_373
*516 FILLER_0_13_385
*517 FILLER_0_13_39
*518 FILLER_0_13_391
*519 FILLER_0_13_393
*520 FILLER_0_13_405
*521 FILLER_0_13_51
*522 FILLER_0_13_55
*523 FILLER_0_13_57
*524 FILLER_0_13_69
*525 FILLER_0_13_81
*526 FILLER_0_13_93
*527 FILLER_0_14_109
*528 FILLER_0_14_121
*529 FILLER_0_14_133
*530 FILLER_0_14_139
*531 FILLER_0_14_141
*532 FILLER_0_14_15
*533 FILLER_0_14_153
*534 FILLER_0_14_165
*535 FILLER_0_14_177
*536 FILLER_0_14_189
*537 FILLER_0_14_195
*538 FILLER_0_14_197
*539 FILLER_0_14_209
*540 FILLER_0_14_221
*541 FILLER_0_14_233
*542 FILLER_0_14_245
*543 FILLER_0_14_251
*544 FILLER_0_14_253
*545 FILLER_0_14_265
*546 FILLER_0_14_27
*547 FILLER_0_14_277
*548 FILLER_0_14_289
*549 FILLER_0_14_29
*550 FILLER_0_14_3
*551 FILLER_0_14_301
*552 FILLER_0_14_307
*553 FILLER_0_14_309
*554 FILLER_0_14_321
*555 FILLER_0_14_333
*556 FILLER_0_14_345
*557 FILLER_0_14_357
*558 FILLER_0_14_363
*559 FILLER_0_14_365
*560 FILLER_0_14_377
*561 FILLER_0_14_389
*562 FILLER_0_14_401
*563 FILLER_0_14_41
*564 FILLER_0_14_53
*565 FILLER_0_14_65
*566 FILLER_0_14_77
*567 FILLER_0_14_83
*568 FILLER_0_14_85
*569 FILLER_0_14_97
*570 FILLER_0_15_105
*571 FILLER_0_15_111
*572 FILLER_0_15_113
*573 FILLER_0_15_125
*574 FILLER_0_15_137
*575 FILLER_0_15_149
*576 FILLER_0_15_15
*577 FILLER_0_15_161
*578 FILLER_0_15_167
*579 FILLER_0_15_169
*580 FILLER_0_15_181
*581 FILLER_0_15_193
*582 FILLER_0_15_205
*583 FILLER_0_15_217
*584 FILLER_0_15_223
*585 FILLER_0_15_225
*586 FILLER_0_15_237
*587 FILLER_0_15_249
*588 FILLER_0_15_261
*589 FILLER_0_15_27
*590 FILLER_0_15_273
*591 FILLER_0_15_279
*592 FILLER_0_15_281
*593 FILLER_0_15_293
*594 FILLER_0_15_3
*595 FILLER_0_15_305
*596 FILLER_0_15_317
*597 FILLER_0_15_329
*598 FILLER_0_15_335
*599 FILLER_0_15_337
*600 FILLER_0_15_349
*601 FILLER_0_15_361
*602 FILLER_0_15_373
*603 FILLER_0_15_385
*604 FILLER_0_15_39
*605 FILLER_0_15_391
*606 FILLER_0_15_393
*607 FILLER_0_15_405
*608 FILLER_0_15_51
*609 FILLER_0_15_55
*610 FILLER_0_15_57
*611 FILLER_0_15_69
*612 FILLER_0_15_81
*613 FILLER_0_15_93
*614 FILLER_0_16_109
*615 FILLER_0_16_121
*616 FILLER_0_16_133
*617 FILLER_0_16_139
*618 FILLER_0_16_141
*619 FILLER_0_16_15
*620 FILLER_0_16_153
*621 FILLER_0_16_165
*622 FILLER_0_16_177
*623 FILLER_0_16_189
*624 FILLER_0_16_195
*625 FILLER_0_16_197
*626 FILLER_0_16_209
*627 FILLER_0_16_221
*628 FILLER_0_16_233
*629 FILLER_0_16_245
*630 FILLER_0_16_251
*631 FILLER_0_16_253
*632 FILLER_0_16_265
*633 FILLER_0_16_27
*634 FILLER_0_16_277
*635 FILLER_0_16_289
*636 FILLER_0_16_29
*637 FILLER_0_16_3
*638 FILLER_0_16_301
*639 FILLER_0_16_307
*640 FILLER_0_16_309
*641 FILLER_0_16_321
*642 FILLER_0_16_333
*643 FILLER_0_16_345
*644 FILLER_0_16_357
*645 FILLER_0_16_363
*646 FILLER_0_16_365
*647 FILLER_0_16_377
*648 FILLER_0_16_389
*649 FILLER_0_16_401
*650 FILLER_0_16_41
*651 FILLER_0_16_53
*652 FILLER_0_16_65
*653 FILLER_0_16_77
*654 FILLER_0_16_83
*655 FILLER_0_16_85
*656 FILLER_0_16_97
*657 FILLER_0_17_105
*658 FILLER_0_17_111
*659 FILLER_0_17_113
*660 FILLER_0_17_125
*661 FILLER_0_17_137
*662 FILLER_0_17_149
*663 FILLER_0_17_15
*664 FILLER_0_17_161
*665 FILLER_0_17_167
*666 FILLER_0_17_169
*667 FILLER_0_17_181
*668 FILLER_0_17_193
*669 FILLER_0_17_205
*670 FILLER_0_17_217
*671 FILLER_0_17_223
*672 FILLER_0_17_225
*673 FILLER_0_17_237
*674 FILLER_0_17_249
*675 FILLER_0_17_261
*676 FILLER_0_17_27
*677 FILLER_0_17_273
*678 FILLER_0_17_279
*679 FILLER_0_17_281
*680 FILLER_0_17_293
*681 FILLER_0_17_3
*682 FILLER_0_17_305
*683 FILLER_0_17_317
*684 FILLER_0_17_329
*685 FILLER_0_17_335
*686 FILLER_0_17_337
*687 FILLER_0_17_349
*688 FILLER_0_17_361
*689 FILLER_0_17_373
*690 FILLER_0_17_385
*691 FILLER_0_17_39
*692 FILLER_0_17_391
*693 FILLER_0_17_393
*694 FILLER_0_17_405
*695 FILLER_0_17_51
*696 FILLER_0_17_55
*697 FILLER_0_17_57
*698 FILLER_0_17_69
*699 FILLER_0_17_81
*700 FILLER_0_17_93
*701 FILLER_0_18_109
*702 FILLER_0_18_121
*703 FILLER_0_18_133
*704 FILLER_0_18_139
*705 FILLER_0_18_141
*706 FILLER_0_18_15
*707 FILLER_0_18_153
*708 FILLER_0_18_165
*709 FILLER_0_18_177
*710 FILLER_0_18_189
*711 FILLER_0_18_195
*712 FILLER_0_18_197
*713 FILLER_0_18_209
*714 FILLER_0_18_221
*715 FILLER_0_18_233
*716 FILLER_0_18_245
*717 FILLER_0_18_251
*718 FILLER_0_18_253
*719 FILLER_0_18_265
*720 FILLER_0_18_27
*721 FILLER_0_18_277
*722 FILLER_0_18_289
*723 FILLER_0_18_29
*724 FILLER_0_18_3
*725 FILLER_0_18_301
*726 FILLER_0_18_307
*727 FILLER_0_18_309
*728 FILLER_0_18_321
*729 FILLER_0_18_333
*730 FILLER_0_18_345
*731 FILLER_0_18_357
*732 FILLER_0_18_363
*733 FILLER_0_18_365
*734 FILLER_0_18_377
*735 FILLER_0_18_389
*736 FILLER_0_18_401
*737 FILLER_0_18_41
*738 FILLER_0_18_53
*739 FILLER_0_18_65
*740 FILLER_0_18_77
*741 FILLER_0_18_83
*742 FILLER_0_18_85
*743 FILLER_0_18_97
*744 FILLER_0_19_105
*745 FILLER_0_19_111
*746 FILLER_0_19_113
*747 FILLER_0_19_125
*748 FILLER_0_19_137
*749 FILLER_0_19_149
*750 FILLER_0_19_15
*751 FILLER_0_19_161
*752 FILLER_0_19_167
*753 FILLER_0_19_169
*754 FILLER_0_19_181
*755 FILLER_0_19_193
*756 FILLER_0_19_205
*757 FILLER_0_19_217
*758 FILLER_0_19_223
*759 FILLER_0_19_225
*760 FILLER_0_19_237
*761 FILLER_0_19_249
*762 FILLER_0_19_261
*763 FILLER_0_19_27
*764 FILLER_0_19_273
*765 FILLER_0_19_279
*766 FILLER_0_19_281
*767 FILLER_0_19_293
*768 FILLER_0_19_3
*769 FILLER_0_19_305
*770 FILLER_0_19_317
*771 FILLER_0_19_329
*772 FILLER_0_19_335
*773 FILLER_0_19_337
*774 FILLER_0_19_349
*775 FILLER_0_19_361
*776 FILLER_0_19_373
*777 FILLER_0_19_385
*778 FILLER_0_19_39
*779 FILLER_0_19_391
*780 FILLER_0_19_393
*781 FILLER_0_19_405
*782 FILLER_0_19_51
*783 FILLER_0_19_55
*784 FILLER_0_19_57
*785 FILLER_0_19_69
*786 FILLER_0_19_81
*787 FILLER_0_19_93
*788 FILLER_0_1_105
*789 FILLER_0_1_111
*790 FILLER_0_1_113
*791 FILLER_0_1_125
*792 FILLER_0_1_137
*793 FILLER_0_1_149
*794 FILLER_0_1_15
*795 FILLER_0_1_161
*796 FILLER_0_1_167
*797 FILLER_0_1_169
*798 FILLER_0_1_181
*799 FILLER_0_1_193
*800 FILLER_0_1_205
*801 FILLER_0_1_217
*802 FILLER_0_1_223
*803 FILLER_0_1_225
*804 FILLER_0_1_237
*805 FILLER_0_1_249
*806 FILLER_0_1_261
*807 FILLER_0_1_27
*808 FILLER_0_1_273
*809 FILLER_0_1_279
*810 FILLER_0_1_281
*811 FILLER_0_1_293
*812 FILLER_0_1_3
*813 FILLER_0_1_305
*814 FILLER_0_1_317
*815 FILLER_0_1_329
*816 FILLER_0_1_335
*817 FILLER_0_1_337
*818 FILLER_0_1_349
*819 FILLER_0_1_361
*820 FILLER_0_1_373
*821 FILLER_0_1_385
*822 FILLER_0_1_39
*823 FILLER_0_1_391
*824 FILLER_0_1_393
*825 FILLER_0_1_405
*826 FILLER_0_1_51
*827 FILLER_0_1_55
*828 FILLER_0_1_57
*829 FILLER_0_1_69
*830 FILLER_0_1_81
*831 FILLER_0_1_93
*832 FILLER_0_20_109
*833 FILLER_0_20_121
*834 FILLER_0_20_133
*835 FILLER_0_20_139
*836 FILLER_0_20_141
*837 FILLER_0_20_153
*838 FILLER_0_20_165
*839 FILLER_0_20_177
*840 FILLER_0_20_189
*841 FILLER_0_20_19
*842 FILLER_0_20_195
*843 FILLER_0_20_197
*844 FILLER_0_20_209
*845 FILLER_0_20_221
*846 FILLER_0_20_233
*847 FILLER_0_20_245
*848 FILLER_0_20_251
*849 FILLER_0_20_253
*850 FILLER_0_20_265
*851 FILLER_0_20_27
*852 FILLER_0_20_277
*853 FILLER_0_20_289
*854 FILLER_0_20_29
*855 FILLER_0_20_301
*856 FILLER_0_20_307
*857 FILLER_0_20_309
*858 FILLER_0_20_321
*859 FILLER_0_20_333
*860 FILLER_0_20_345
*861 FILLER_0_20_357
*862 FILLER_0_20_363
*863 FILLER_0_20_365
*864 FILLER_0_20_377
*865 FILLER_0_20_389
*866 FILLER_0_20_401
*867 FILLER_0_20_41
*868 FILLER_0_20_53
*869 FILLER_0_20_65
*870 FILLER_0_20_7
*871 FILLER_0_20_77
*872 FILLER_0_20_83
*873 FILLER_0_20_85
*874 FILLER_0_20_97
*875 FILLER_0_21_105
*876 FILLER_0_21_111
*877 FILLER_0_21_113
*878 FILLER_0_21_125
*879 FILLER_0_21_137
*880 FILLER_0_21_149
*881 FILLER_0_21_15
*882 FILLER_0_21_161
*883 FILLER_0_21_167
*884 FILLER_0_21_169
*885 FILLER_0_21_181
*886 FILLER_0_21_193
*887 FILLER_0_21_205
*888 FILLER_0_21_217
*889 FILLER_0_21_223
*890 FILLER_0_21_225
*891 FILLER_0_21_237
*892 FILLER_0_21_249
*893 FILLER_0_21_261
*894 FILLER_0_21_27
*895 FILLER_0_21_273
*896 FILLER_0_21_279
*897 FILLER_0_21_281
*898 FILLER_0_21_293
*899 FILLER_0_21_3
*900 FILLER_0_21_305
*901 FILLER_0_21_317
*902 FILLER_0_21_329
*903 FILLER_0_21_335
*904 FILLER_0_21_337
*905 FILLER_0_21_349
*906 FILLER_0_21_361
*907 FILLER_0_21_373
*908 FILLER_0_21_385
*909 FILLER_0_21_39
*910 FILLER_0_21_391
*911 FILLER_0_21_393
*912 FILLER_0_21_51
*913 FILLER_0_21_55
*914 FILLER_0_21_57
*915 FILLER_0_21_69
*916 FILLER_0_21_81
*917 FILLER_0_21_93
*918 FILLER_0_22_109
*919 FILLER_0_22_121
*920 FILLER_0_22_133
*921 FILLER_0_22_139
*922 FILLER_0_22_141
*923 FILLER_0_22_15
*924 FILLER_0_22_153
*925 FILLER_0_22_165
*926 FILLER_0_22_177
*927 FILLER_0_22_189
*928 FILLER_0_22_195
*929 FILLER_0_22_197
*930 FILLER_0_22_209
*931 FILLER_0_22_221
*932 FILLER_0_22_233
*933 FILLER_0_22_245
*934 FILLER_0_22_251
*935 FILLER_0_22_253
*936 FILLER_0_22_265
*937 FILLER_0_22_27
*938 FILLER_0_22_277
*939 FILLER_0_22_289
*940 FILLER_0_22_29
*941 FILLER_0_22_3
*942 FILLER_0_22_301
*943 FILLER_0_22_307
*944 FILLER_0_22_309
*945 FILLER_0_22_321
*946 FILLER_0_22_333
*947 FILLER_0_22_345
*948 FILLER_0_22_357
*949 FILLER_0_22_363
*950 FILLER_0_22_365
*951 FILLER_0_22_377
*952 FILLER_0_22_389
*953 FILLER_0_22_401
*954 FILLER_0_22_41
*955 FILLER_0_22_53
*956 FILLER_0_22_65
*957 FILLER_0_22_77
*958 FILLER_0_22_83
*959 FILLER_0_22_85
*960 FILLER_0_22_97
*961 FILLER_0_23_105
*962 FILLER_0_23_111
*963 FILLER_0_23_113
*964 FILLER_0_23_125
*965 FILLER_0_23_137
*966 FILLER_0_23_149
*967 FILLER_0_23_15
*968 FILLER_0_23_161
*969 FILLER_0_23_167
*970 FILLER_0_23_169
*971 FILLER_0_23_181
*972 FILLER_0_23_193
*973 FILLER_0_23_205
*974 FILLER_0_23_217
*975 FILLER_0_23_223
*976 FILLER_0_23_225
*977 FILLER_0_23_237
*978 FILLER_0_23_249
*979 FILLER_0_23_261
*980 FILLER_0_23_27
*981 FILLER_0_23_273
*982 FILLER_0_23_279
*983 FILLER_0_23_281
*984 FILLER_0_23_293
*985 FILLER_0_23_3
*986 FILLER_0_23_305
*987 FILLER_0_23_317
*988 FILLER_0_23_329
*989 FILLER_0_23_335
*990 FILLER_0_23_337
*991 FILLER_0_23_349
*992 FILLER_0_23_361
*993 FILLER_0_23_373
*994 FILLER_0_23_385
*995 FILLER_0_23_39
*996 FILLER_0_23_391
*997 FILLER_0_23_393
*998 FILLER_0_23_405
*999 FILLER_0_23_51
*1000 FILLER_0_23_55
*1001 FILLER_0_23_57
*1002 FILLER_0_23_69
*1003 FILLER_0_23_81
*1004 FILLER_0_23_93
*1005 FILLER_0_24_109
*1006 FILLER_0_24_121
*1007 FILLER_0_24_133
*1008 FILLER_0_24_139
*1009 FILLER_0_24_141
*1010 FILLER_0_24_15
*1011 FILLER_0_24_153
*1012 FILLER_0_24_165
*1013 FILLER_0_24_177
*1014 FILLER_0_24_189
*1015 FILLER_0_24_195
*1016 FILLER_0_24_197
*1017 FILLER_0_24_209
*1018 FILLER_0_24_221
*1019 FILLER_0_24_233
*1020 FILLER_0_24_245
*1021 FILLER_0_24_251
*1022 FILLER_0_24_253
*1023 FILLER_0_24_265
*1024 FILLER_0_24_27
*1025 FILLER_0_24_277
*1026 FILLER_0_24_289
*1027 FILLER_0_24_29
*1028 FILLER_0_24_3
*1029 FILLER_0_24_301
*1030 FILLER_0_24_307
*1031 FILLER_0_24_309
*1032 FILLER_0_24_321
*1033 FILLER_0_24_333
*1034 FILLER_0_24_345
*1035 FILLER_0_24_357
*1036 FILLER_0_24_363
*1037 FILLER_0_24_365
*1038 FILLER_0_24_377
*1039 FILLER_0_24_389
*1040 FILLER_0_24_401
*1041 FILLER_0_24_41
*1042 FILLER_0_24_53
*1043 FILLER_0_24_65
*1044 FILLER_0_24_77
*1045 FILLER_0_24_83
*1046 FILLER_0_24_85
*1047 FILLER_0_24_97
*1048 FILLER_0_25_105
*1049 FILLER_0_25_111
*1050 FILLER_0_25_113
*1051 FILLER_0_25_125
*1052 FILLER_0_25_137
*1053 FILLER_0_25_149
*1054 FILLER_0_25_15
*1055 FILLER_0_25_161
*1056 FILLER_0_25_167
*1057 FILLER_0_25_169
*1058 FILLER_0_25_181
*1059 FILLER_0_25_193
*1060 FILLER_0_25_205
*1061 FILLER_0_25_217
*1062 FILLER_0_25_223
*1063 FILLER_0_25_225
*1064 FILLER_0_25_237
*1065 FILLER_0_25_249
*1066 FILLER_0_25_261
*1067 FILLER_0_25_27
*1068 FILLER_0_25_273
*1069 FILLER_0_25_279
*1070 FILLER_0_25_281
*1071 FILLER_0_25_293
*1072 FILLER_0_25_3
*1073 FILLER_0_25_305
*1074 FILLER_0_25_317
*1075 FILLER_0_25_329
*1076 FILLER_0_25_335
*1077 FILLER_0_25_337
*1078 FILLER_0_25_349
*1079 FILLER_0_25_361
*1080 FILLER_0_25_373
*1081 FILLER_0_25_385
*1082 FILLER_0_25_39
*1083 FILLER_0_25_391
*1084 FILLER_0_25_393
*1085 FILLER_0_25_405
*1086 FILLER_0_25_51
*1087 FILLER_0_25_55
*1088 FILLER_0_25_57
*1089 FILLER_0_25_69
*1090 FILLER_0_25_81
*1091 FILLER_0_25_93
*1092 FILLER_0_26_109
*1093 FILLER_0_26_121
*1094 FILLER_0_26_133
*1095 FILLER_0_26_139
*1096 FILLER_0_26_141
*1097 FILLER_0_26_15
*1098 FILLER_0_26_153
*1099 FILLER_0_26_165
*1100 FILLER_0_26_177
*1101 FILLER_0_26_189
*1102 FILLER_0_26_195
*1103 FILLER_0_26_197
*1104 FILLER_0_26_209
*1105 FILLER_0_26_221
*1106 FILLER_0_26_233
*1107 FILLER_0_26_245
*1108 FILLER_0_26_251
*1109 FILLER_0_26_253
*1110 FILLER_0_26_265
*1111 FILLER_0_26_27
*1112 FILLER_0_26_277
*1113 FILLER_0_26_289
*1114 FILLER_0_26_29
*1115 FILLER_0_26_3
*1116 FILLER_0_26_301
*1117 FILLER_0_26_307
*1118 FILLER_0_26_309
*1119 FILLER_0_26_321
*1120 FILLER_0_26_333
*1121 FILLER_0_26_345
*1122 FILLER_0_26_357
*1123 FILLER_0_26_363
*1124 FILLER_0_26_365
*1125 FILLER_0_26_377
*1126 FILLER_0_26_389
*1127 FILLER_0_26_401
*1128 FILLER_0_26_41
*1129 FILLER_0_26_53
*1130 FILLER_0_26_65
*1131 FILLER_0_26_77
*1132 FILLER_0_26_83
*1133 FILLER_0_26_85
*1134 FILLER_0_26_97
*1135 FILLER_0_27_105
*1136 FILLER_0_27_111
*1137 FILLER_0_27_113
*1138 FILLER_0_27_125
*1139 FILLER_0_27_137
*1140 FILLER_0_27_149
*1141 FILLER_0_27_161
*1142 FILLER_0_27_167
*1143 FILLER_0_27_169
*1144 FILLER_0_27_181
*1145 FILLER_0_27_19
*1146 FILLER_0_27_193
*1147 FILLER_0_27_205
*1148 FILLER_0_27_217
*1149 FILLER_0_27_223
*1150 FILLER_0_27_225
*1151 FILLER_0_27_237
*1152 FILLER_0_27_249
*1153 FILLER_0_27_261
*1154 FILLER_0_27_273
*1155 FILLER_0_27_279
*1156 FILLER_0_27_281
*1157 FILLER_0_27_293
*1158 FILLER_0_27_305
*1159 FILLER_0_27_31
*1160 FILLER_0_27_317
*1161 FILLER_0_27_329
*1162 FILLER_0_27_335
*1163 FILLER_0_27_337
*1164 FILLER_0_27_349
*1165 FILLER_0_27_361
*1166 FILLER_0_27_373
*1167 FILLER_0_27_385
*1168 FILLER_0_27_391
*1169 FILLER_0_27_393
*1170 FILLER_0_27_405
*1171 FILLER_0_27_43
*1172 FILLER_0_27_55
*1173 FILLER_0_27_57
*1174 FILLER_0_27_69
*1175 FILLER_0_27_7
*1176 FILLER_0_27_81
*1177 FILLER_0_27_93
*1178 FILLER_0_28_109
*1179 FILLER_0_28_121
*1180 FILLER_0_28_133
*1181 FILLER_0_28_139
*1182 FILLER_0_28_141
*1183 FILLER_0_28_15
*1184 FILLER_0_28_153
*1185 FILLER_0_28_165
*1186 FILLER_0_28_177
*1187 FILLER_0_28_189
*1188 FILLER_0_28_195
*1189 FILLER_0_28_197
*1190 FILLER_0_28_209
*1191 FILLER_0_28_221
*1192 FILLER_0_28_233
*1193 FILLER_0_28_245
*1194 FILLER_0_28_251
*1195 FILLER_0_28_253
*1196 FILLER_0_28_265
*1197 FILLER_0_28_27
*1198 FILLER_0_28_277
*1199 FILLER_0_28_289
*1200 FILLER_0_28_29
*1201 FILLER_0_28_3
*1202 FILLER_0_28_301
*1203 FILLER_0_28_307
*1204 FILLER_0_28_309
*1205 FILLER_0_28_321
*1206 FILLER_0_28_333
*1207 FILLER_0_28_345
*1208 FILLER_0_28_357
*1209 FILLER_0_28_363
*1210 FILLER_0_28_365
*1211 FILLER_0_28_377
*1212 FILLER_0_28_389
*1213 FILLER_0_28_401
*1214 FILLER_0_28_41
*1215 FILLER_0_28_53
*1216 FILLER_0_28_65
*1217 FILLER_0_28_77
*1218 FILLER_0_28_83
*1219 FILLER_0_28_85
*1220 FILLER_0_28_97
*1221 FILLER_0_29_105
*1222 FILLER_0_29_111
*1223 FILLER_0_29_113
*1224 FILLER_0_29_125
*1225 FILLER_0_29_137
*1226 FILLER_0_29_149
*1227 FILLER_0_29_15
*1228 FILLER_0_29_161
*1229 FILLER_0_29_167
*1230 FILLER_0_29_169
*1231 FILLER_0_29_181
*1232 FILLER_0_29_193
*1233 FILLER_0_29_205
*1234 FILLER_0_29_217
*1235 FILLER_0_29_223
*1236 FILLER_0_29_225
*1237 FILLER_0_29_237
*1238 FILLER_0_29_249
*1239 FILLER_0_29_261
*1240 FILLER_0_29_27
*1241 FILLER_0_29_273
*1242 FILLER_0_29_279
*1243 FILLER_0_29_281
*1244 FILLER_0_29_293
*1245 FILLER_0_29_3
*1246 FILLER_0_29_305
*1247 FILLER_0_29_317
*1248 FILLER_0_29_329
*1249 FILLER_0_29_335
*1250 FILLER_0_29_337
*1251 FILLER_0_29_349
*1252 FILLER_0_29_361
*1253 FILLER_0_29_373
*1254 FILLER_0_29_385
*1255 FILLER_0_29_39
*1256 FILLER_0_29_391
*1257 FILLER_0_29_393
*1258 FILLER_0_29_405
*1259 FILLER_0_29_51
*1260 FILLER_0_29_55
*1261 FILLER_0_29_57
*1262 FILLER_0_29_69
*1263 FILLER_0_29_77
*1264 FILLER_0_2_109
*1265 FILLER_0_2_121
*1266 FILLER_0_2_133
*1267 FILLER_0_2_139
*1268 FILLER_0_2_141
*1269 FILLER_0_2_15
*1270 FILLER_0_2_153
*1271 FILLER_0_2_165
*1272 FILLER_0_2_177
*1273 FILLER_0_2_189
*1274 FILLER_0_2_195
*1275 FILLER_0_2_197
*1276 FILLER_0_2_209
*1277 FILLER_0_2_221
*1278 FILLER_0_2_233
*1279 FILLER_0_2_245
*1280 FILLER_0_2_251
*1281 FILLER_0_2_253
*1282 FILLER_0_2_265
*1283 FILLER_0_2_27
*1284 FILLER_0_2_277
*1285 FILLER_0_2_289
*1286 FILLER_0_2_29
*1287 FILLER_0_2_3
*1288 FILLER_0_2_301
*1289 FILLER_0_2_307
*1290 FILLER_0_2_309
*1291 FILLER_0_2_321
*1292 FILLER_0_2_333
*1293 FILLER_0_2_345
*1294 FILLER_0_2_357
*1295 FILLER_0_2_363
*1296 FILLER_0_2_365
*1297 FILLER_0_2_377
*1298 FILLER_0_2_389
*1299 FILLER_0_2_401
*1300 FILLER_0_2_41
*1301 FILLER_0_2_53
*1302 FILLER_0_2_65
*1303 FILLER_0_2_77
*1304 FILLER_0_2_83
*1305 FILLER_0_2_85
*1306 FILLER_0_2_97
*1307 FILLER_0_30_131
*1308 FILLER_0_30_139
*1309 FILLER_0_30_141
*1310 FILLER_0_30_15
*1311 FILLER_0_30_153
*1312 FILLER_0_30_165
*1313 FILLER_0_30_177
*1314 FILLER_0_30_189
*1315 FILLER_0_30_195
*1316 FILLER_0_30_203
*1317 FILLER_0_30_207
*1318 FILLER_0_30_220
*1319 FILLER_0_30_233
*1320 FILLER_0_30_245
*1321 FILLER_0_30_251
*1322 FILLER_0_30_253
*1323 FILLER_0_30_265
*1324 FILLER_0_30_27
*1325 FILLER_0_30_277
*1326 FILLER_0_30_289
*1327 FILLER_0_30_29
*1328 FILLER_0_30_3
*1329 FILLER_0_30_301
*1330 FILLER_0_30_307
*1331 FILLER_0_30_309
*1332 FILLER_0_30_321
*1333 FILLER_0_30_333
*1334 FILLER_0_30_345
*1335 FILLER_0_30_357
*1336 FILLER_0_30_363
*1337 FILLER_0_30_365
*1338 FILLER_0_30_377
*1339 FILLER_0_30_389
*1340 FILLER_0_30_401
*1341 FILLER_0_30_41
*1342 FILLER_0_30_53
*1343 FILLER_0_30_65
*1344 FILLER_0_30_77
*1345 FILLER_0_30_83
*1346 FILLER_0_30_85
*1347 FILLER_0_31_103
*1348 FILLER_0_31_111
*1349 FILLER_0_31_120
*1350 FILLER_0_31_132
*1351 FILLER_0_31_143
*1352 FILLER_0_31_147
*1353 FILLER_0_31_15
*1354 FILLER_0_31_167
*1355 FILLER_0_31_169
*1356 FILLER_0_31_201
*1357 FILLER_0_31_214
*1358 FILLER_0_31_245
*1359 FILLER_0_31_257
*1360 FILLER_0_31_269
*1361 FILLER_0_31_27
*1362 FILLER_0_31_277
*1363 FILLER_0_31_281
*1364 FILLER_0_31_293
*1365 FILLER_0_31_3
*1366 FILLER_0_31_305
*1367 FILLER_0_31_317
*1368 FILLER_0_31_329
*1369 FILLER_0_31_335
*1370 FILLER_0_31_337
*1371 FILLER_0_31_349
*1372 FILLER_0_31_361
*1373 FILLER_0_31_373
*1374 FILLER_0_31_385
*1375 FILLER_0_31_39
*1376 FILLER_0_31_391
*1377 FILLER_0_31_393
*1378 FILLER_0_31_405
*1379 FILLER_0_31_51
*1380 FILLER_0_31_55
*1381 FILLER_0_31_57
*1382 FILLER_0_31_69
*1383 FILLER_0_31_81
*1384 FILLER_0_32_102
*1385 FILLER_0_32_114
*1386 FILLER_0_32_125
*1387 FILLER_0_32_129
*1388 FILLER_0_32_144
*1389 FILLER_0_32_15
*1390 FILLER_0_32_166
*1391 FILLER_0_32_176
*1392 FILLER_0_32_184
*1393 FILLER_0_32_197
*1394 FILLER_0_32_205
*1395 FILLER_0_32_214
*1396 FILLER_0_32_222
*1397 FILLER_0_32_237
*1398 FILLER_0_32_249
*1399 FILLER_0_32_253
*1400 FILLER_0_32_265
*1401 FILLER_0_32_27
*1402 FILLER_0_32_277
*1403 FILLER_0_32_289
*1404 FILLER_0_32_29
*1405 FILLER_0_32_3
*1406 FILLER_0_32_301
*1407 FILLER_0_32_307
*1408 FILLER_0_32_309
*1409 FILLER_0_32_321
*1410 FILLER_0_32_333
*1411 FILLER_0_32_345
*1412 FILLER_0_32_357
*1413 FILLER_0_32_363
*1414 FILLER_0_32_365
*1415 FILLER_0_32_377
*1416 FILLER_0_32_389
*1417 FILLER_0_32_401
*1418 FILLER_0_32_41
*1419 FILLER_0_32_53
*1420 FILLER_0_32_65
*1421 FILLER_0_32_77
*1422 FILLER_0_32_83
*1423 FILLER_0_32_85
*1424 FILLER_0_33_109
*1425 FILLER_0_33_142
*1426 FILLER_0_33_15
*1427 FILLER_0_33_158
*1428 FILLER_0_33_166
*1429 FILLER_0_33_176
*1430 FILLER_0_33_184
*1431 FILLER_0_33_196
*1432 FILLER_0_33_222
*1433 FILLER_0_33_246
*1434 FILLER_0_33_258
*1435 FILLER_0_33_27
*1436 FILLER_0_33_270
*1437 FILLER_0_33_278
*1438 FILLER_0_33_281
*1439 FILLER_0_33_293
*1440 FILLER_0_33_3
*1441 FILLER_0_33_305
*1442 FILLER_0_33_317
*1443 FILLER_0_33_329
*1444 FILLER_0_33_335
*1445 FILLER_0_33_337
*1446 FILLER_0_33_349
*1447 FILLER_0_33_361
*1448 FILLER_0_33_373
*1449 FILLER_0_33_385
*1450 FILLER_0_33_39
*1451 FILLER_0_33_391
*1452 FILLER_0_33_393
*1453 FILLER_0_33_405
*1454 FILLER_0_33_51
*1455 FILLER_0_33_55
*1456 FILLER_0_33_57
*1457 FILLER_0_33_69
*1458 FILLER_0_33_81
*1459 FILLER_0_34_100
*1460 FILLER_0_34_133
*1461 FILLER_0_34_139
*1462 FILLER_0_34_141
*1463 FILLER_0_34_15
*1464 FILLER_0_34_157
*1465 FILLER_0_34_197
*1466 FILLER_0_34_216
*1467 FILLER_0_34_228
*1468 FILLER_0_34_235
*1469 FILLER_0_34_247
*1470 FILLER_0_34_251
*1471 FILLER_0_34_253
*1472 FILLER_0_34_265
*1473 FILLER_0_34_27
*1474 FILLER_0_34_277
*1475 FILLER_0_34_289
*1476 FILLER_0_34_29
*1477 FILLER_0_34_3
*1478 FILLER_0_34_301
*1479 FILLER_0_34_307
*1480 FILLER_0_34_309
*1481 FILLER_0_34_321
*1482 FILLER_0_34_333
*1483 FILLER_0_34_345
*1484 FILLER_0_34_357
*1485 FILLER_0_34_363
*1486 FILLER_0_34_365
*1487 FILLER_0_34_377
*1488 FILLER_0_34_389
*1489 FILLER_0_34_401
*1490 FILLER_0_34_41
*1491 FILLER_0_34_53
*1492 FILLER_0_34_65
*1493 FILLER_0_34_77
*1494 FILLER_0_34_83
*1495 FILLER_0_34_85
*1496 FILLER_0_34_95
*1497 FILLER_0_35_107
*1498 FILLER_0_35_111
*1499 FILLER_0_35_120
*1500 FILLER_0_35_127
*1501 FILLER_0_35_139
*1502 FILLER_0_35_157
*1503 FILLER_0_35_166
*1504 FILLER_0_35_173
*1505 FILLER_0_35_179
*1506 FILLER_0_35_191
*1507 FILLER_0_35_203
*1508 FILLER_0_35_207
*1509 FILLER_0_35_21
*1510 FILLER_0_35_219
*1511 FILLER_0_35_223
*1512 FILLER_0_35_245
*1513 FILLER_0_35_257
*1514 FILLER_0_35_269
*1515 FILLER_0_35_277
*1516 FILLER_0_35_281
*1517 FILLER_0_35_293
*1518 FILLER_0_35_305
*1519 FILLER_0_35_317
*1520 FILLER_0_35_329
*1521 FILLER_0_35_33
*1522 FILLER_0_35_335
*1523 FILLER_0_35_337
*1524 FILLER_0_35_349
*1525 FILLER_0_35_361
*1526 FILLER_0_35_373
*1527 FILLER_0_35_385
*1528 FILLER_0_35_391
*1529 FILLER_0_35_393
*1530 FILLER_0_35_405
*1531 FILLER_0_35_45
*1532 FILLER_0_35_53
*1533 FILLER_0_35_57
*1534 FILLER_0_35_69
*1535 FILLER_0_35_81
*1536 FILLER_0_35_9
*1537 FILLER_0_36_104
*1538 FILLER_0_36_133
*1539 FILLER_0_36_15
*1540 FILLER_0_36_185
*1541 FILLER_0_36_189
*1542 FILLER_0_36_197
*1543 FILLER_0_36_205
*1544 FILLER_0_36_213
*1545 FILLER_0_36_221
*1546 FILLER_0_36_229
*1547 FILLER_0_36_241
*1548 FILLER_0_36_249
*1549 FILLER_0_36_253
*1550 FILLER_0_36_265
*1551 FILLER_0_36_27
*1552 FILLER_0_36_277
*1553 FILLER_0_36_289
*1554 FILLER_0_36_29
*1555 FILLER_0_36_3
*1556 FILLER_0_36_301
*1557 FILLER_0_36_307
*1558 FILLER_0_36_309
*1559 FILLER_0_36_321
*1560 FILLER_0_36_333
*1561 FILLER_0_36_345
*1562 FILLER_0_36_357
*1563 FILLER_0_36_363
*1564 FILLER_0_36_365
*1565 FILLER_0_36_377
*1566 FILLER_0_36_389
*1567 FILLER_0_36_401
*1568 FILLER_0_36_41
*1569 FILLER_0_36_53
*1570 FILLER_0_36_65
*1571 FILLER_0_36_77
*1572 FILLER_0_36_83
*1573 FILLER_0_36_85
*1574 FILLER_0_37_100
*1575 FILLER_0_37_113
*1576 FILLER_0_37_137
*1577 FILLER_0_37_145
*1578 FILLER_0_37_15
*1579 FILLER_0_37_167
*1580 FILLER_0_37_174
*1581 FILLER_0_37_182
*1582 FILLER_0_37_190
*1583 FILLER_0_37_201
*1584 FILLER_0_37_207
*1585 FILLER_0_37_220
*1586 FILLER_0_37_237
*1587 FILLER_0_37_249
*1588 FILLER_0_37_261
*1589 FILLER_0_37_27
*1590 FILLER_0_37_273
*1591 FILLER_0_37_279
*1592 FILLER_0_37_281
*1593 FILLER_0_37_293
*1594 FILLER_0_37_3
*1595 FILLER_0_37_305
*1596 FILLER_0_37_317
*1597 FILLER_0_37_329
*1598 FILLER_0_37_335
*1599 FILLER_0_37_337
*1600 FILLER_0_37_349
*1601 FILLER_0_37_361
*1602 FILLER_0_37_373
*1603 FILLER_0_37_385
*1604 FILLER_0_37_39
*1605 FILLER_0_37_391
*1606 FILLER_0_37_393
*1607 FILLER_0_37_401
*1608 FILLER_0_37_51
*1609 FILLER_0_37_55
*1610 FILLER_0_37_57
*1611 FILLER_0_37_69
*1612 FILLER_0_37_77
*1613 FILLER_0_38_119
*1614 FILLER_0_38_131
*1615 FILLER_0_38_139
*1616 FILLER_0_38_141
*1617 FILLER_0_38_15
*1618 FILLER_0_38_153
*1619 FILLER_0_38_170
*1620 FILLER_0_38_195
*1621 FILLER_0_38_197
*1622 FILLER_0_38_201
*1623 FILLER_0_38_209
*1624 FILLER_0_38_217
*1625 FILLER_0_38_243
*1626 FILLER_0_38_251
*1627 FILLER_0_38_253
*1628 FILLER_0_38_265
*1629 FILLER_0_38_27
*1630 FILLER_0_38_277
*1631 FILLER_0_38_289
*1632 FILLER_0_38_29
*1633 FILLER_0_38_3
*1634 FILLER_0_38_301
*1635 FILLER_0_38_307
*1636 FILLER_0_38_309
*1637 FILLER_0_38_321
*1638 FILLER_0_38_333
*1639 FILLER_0_38_345
*1640 FILLER_0_38_357
*1641 FILLER_0_38_363
*1642 FILLER_0_38_365
*1643 FILLER_0_38_377
*1644 FILLER_0_38_389
*1645 FILLER_0_38_401
*1646 FILLER_0_38_41
*1647 FILLER_0_38_53
*1648 FILLER_0_38_65
*1649 FILLER_0_38_77
*1650 FILLER_0_38_83
*1651 FILLER_0_38_85
*1652 FILLER_0_38_94
*1653 FILLER_0_39_128
*1654 FILLER_0_39_148
*1655 FILLER_0_39_15
*1656 FILLER_0_39_161
*1657 FILLER_0_39_167
*1658 FILLER_0_39_173
*1659 FILLER_0_39_189
*1660 FILLER_0_39_210
*1661 FILLER_0_39_225
*1662 FILLER_0_39_237
*1663 FILLER_0_39_249
*1664 FILLER_0_39_261
*1665 FILLER_0_39_27
*1666 FILLER_0_39_273
*1667 FILLER_0_39_279
*1668 FILLER_0_39_281
*1669 FILLER_0_39_293
*1670 FILLER_0_39_3
*1671 FILLER_0_39_305
*1672 FILLER_0_39_317
*1673 FILLER_0_39_329
*1674 FILLER_0_39_335
*1675 FILLER_0_39_337
*1676 FILLER_0_39_349
*1677 FILLER_0_39_361
*1678 FILLER_0_39_373
*1679 FILLER_0_39_385
*1680 FILLER_0_39_39
*1681 FILLER_0_39_391
*1682 FILLER_0_39_393
*1683 FILLER_0_39_405
*1684 FILLER_0_39_51
*1685 FILLER_0_39_55
*1686 FILLER_0_39_57
*1687 FILLER_0_39_69
*1688 FILLER_0_39_81
*1689 FILLER_0_39_89
*1690 FILLER_0_3_105
*1691 FILLER_0_3_111
*1692 FILLER_0_3_113
*1693 FILLER_0_3_125
*1694 FILLER_0_3_137
*1695 FILLER_0_3_149
*1696 FILLER_0_3_15
*1697 FILLER_0_3_161
*1698 FILLER_0_3_167
*1699 FILLER_0_3_169
*1700 FILLER_0_3_181
*1701 FILLER_0_3_193
*1702 FILLER_0_3_205
*1703 FILLER_0_3_217
*1704 FILLER_0_3_223
*1705 FILLER_0_3_225
*1706 FILLER_0_3_237
*1707 FILLER_0_3_249
*1708 FILLER_0_3_261
*1709 FILLER_0_3_27
*1710 FILLER_0_3_273
*1711 FILLER_0_3_279
*1712 FILLER_0_3_281
*1713 FILLER_0_3_293
*1714 FILLER_0_3_3
*1715 FILLER_0_3_305
*1716 FILLER_0_3_317
*1717 FILLER_0_3_329
*1718 FILLER_0_3_335
*1719 FILLER_0_3_337
*1720 FILLER_0_3_349
*1721 FILLER_0_3_361
*1722 FILLER_0_3_373
*1723 FILLER_0_3_385
*1724 FILLER_0_3_39
*1725 FILLER_0_3_391
*1726 FILLER_0_3_393
*1727 FILLER_0_3_405
*1728 FILLER_0_3_51
*1729 FILLER_0_3_55
*1730 FILLER_0_3_57
*1731 FILLER_0_3_69
*1732 FILLER_0_3_81
*1733 FILLER_0_3_93
*1734 FILLER_0_40_105
*1735 FILLER_0_40_118
*1736 FILLER_0_40_137
*1737 FILLER_0_40_141
*1738 FILLER_0_40_149
*1739 FILLER_0_40_15
*1740 FILLER_0_40_164
*1741 FILLER_0_40_174
*1742 FILLER_0_40_181
*1743 FILLER_0_40_187
*1744 FILLER_0_40_195
*1745 FILLER_0_40_197
*1746 FILLER_0_40_203
*1747 FILLER_0_40_211
*1748 FILLER_0_40_219
*1749 FILLER_0_40_231
*1750 FILLER_0_40_243
*1751 FILLER_0_40_251
*1752 FILLER_0_40_253
*1753 FILLER_0_40_265
*1754 FILLER_0_40_27
*1755 FILLER_0_40_277
*1756 FILLER_0_40_289
*1757 FILLER_0_40_29
*1758 FILLER_0_40_3
*1759 FILLER_0_40_301
*1760 FILLER_0_40_307
*1761 FILLER_0_40_309
*1762 FILLER_0_40_321
*1763 FILLER_0_40_333
*1764 FILLER_0_40_345
*1765 FILLER_0_40_357
*1766 FILLER_0_40_363
*1767 FILLER_0_40_365
*1768 FILLER_0_40_377
*1769 FILLER_0_40_389
*1770 FILLER_0_40_401
*1771 FILLER_0_40_41
*1772 FILLER_0_40_53
*1773 FILLER_0_40_65
*1774 FILLER_0_40_77
*1775 FILLER_0_40_83
*1776 FILLER_0_41_126
*1777 FILLER_0_41_140
*1778 FILLER_0_41_15
*1779 FILLER_0_41_165
*1780 FILLER_0_41_175
*1781 FILLER_0_41_194
*1782 FILLER_0_41_206
*1783 FILLER_0_41_218
*1784 FILLER_0_41_225
*1785 FILLER_0_41_237
*1786 FILLER_0_41_249
*1787 FILLER_0_41_261
*1788 FILLER_0_41_27
*1789 FILLER_0_41_273
*1790 FILLER_0_41_279
*1791 FILLER_0_41_281
*1792 FILLER_0_41_293
*1793 FILLER_0_41_3
*1794 FILLER_0_41_305
*1795 FILLER_0_41_317
*1796 FILLER_0_41_329
*1797 FILLER_0_41_335
*1798 FILLER_0_41_337
*1799 FILLER_0_41_349
*1800 FILLER_0_41_361
*1801 FILLER_0_41_373
*1802 FILLER_0_41_385
*1803 FILLER_0_41_39
*1804 FILLER_0_41_391
*1805 FILLER_0_41_393
*1806 FILLER_0_41_405
*1807 FILLER_0_41_51
*1808 FILLER_0_41_55
*1809 FILLER_0_41_57
*1810 FILLER_0_41_69
*1811 FILLER_0_41_81
*1812 FILLER_0_42_121
*1813 FILLER_0_42_125
*1814 FILLER_0_42_15
*1815 FILLER_0_42_163
*1816 FILLER_0_42_169
*1817 FILLER_0_42_176
*1818 FILLER_0_42_184
*1819 FILLER_0_42_193
*1820 FILLER_0_42_202
*1821 FILLER_0_42_214
*1822 FILLER_0_42_226
*1823 FILLER_0_42_238
*1824 FILLER_0_42_250
*1825 FILLER_0_42_253
*1826 FILLER_0_42_265
*1827 FILLER_0_42_27
*1828 FILLER_0_42_277
*1829 FILLER_0_42_289
*1830 FILLER_0_42_29
*1831 FILLER_0_42_3
*1832 FILLER_0_42_301
*1833 FILLER_0_42_307
*1834 FILLER_0_42_309
*1835 FILLER_0_42_321
*1836 FILLER_0_42_333
*1837 FILLER_0_42_345
*1838 FILLER_0_42_357
*1839 FILLER_0_42_363
*1840 FILLER_0_42_365
*1841 FILLER_0_42_377
*1842 FILLER_0_42_389
*1843 FILLER_0_42_401
*1844 FILLER_0_42_41
*1845 FILLER_0_42_53
*1846 FILLER_0_42_65
*1847 FILLER_0_42_77
*1848 FILLER_0_42_83
*1849 FILLER_0_42_85
*1850 FILLER_0_43_105
*1851 FILLER_0_43_111
*1852 FILLER_0_43_113
*1853 FILLER_0_43_125
*1854 FILLER_0_43_129
*1855 FILLER_0_43_138
*1856 FILLER_0_43_15
*1857 FILLER_0_43_165
*1858 FILLER_0_43_173
*1859 FILLER_0_43_185
*1860 FILLER_0_43_199
*1861 FILLER_0_43_211
*1862 FILLER_0_43_223
*1863 FILLER_0_43_225
*1864 FILLER_0_43_237
*1865 FILLER_0_43_249
*1866 FILLER_0_43_261
*1867 FILLER_0_43_27
*1868 FILLER_0_43_273
*1869 FILLER_0_43_279
*1870 FILLER_0_43_281
*1871 FILLER_0_43_293
*1872 FILLER_0_43_3
*1873 FILLER_0_43_305
*1874 FILLER_0_43_317
*1875 FILLER_0_43_329
*1876 FILLER_0_43_335
*1877 FILLER_0_43_337
*1878 FILLER_0_43_349
*1879 FILLER_0_43_361
*1880 FILLER_0_43_373
*1881 FILLER_0_43_385
*1882 FILLER_0_43_39
*1883 FILLER_0_43_391
*1884 FILLER_0_43_393
*1885 FILLER_0_43_405
*1886 FILLER_0_43_51
*1887 FILLER_0_43_55
*1888 FILLER_0_43_57
*1889 FILLER_0_43_69
*1890 FILLER_0_43_81
*1891 FILLER_0_43_93
*1892 FILLER_0_44_105
*1893 FILLER_0_44_154
*1894 FILLER_0_44_166
*1895 FILLER_0_44_172
*1896 FILLER_0_44_195
*1897 FILLER_0_44_197
*1898 FILLER_0_44_209
*1899 FILLER_0_44_21
*1900 FILLER_0_44_221
*1901 FILLER_0_44_233
*1902 FILLER_0_44_245
*1903 FILLER_0_44_251
*1904 FILLER_0_44_253
*1905 FILLER_0_44_265
*1906 FILLER_0_44_27
*1907 FILLER_0_44_277
*1908 FILLER_0_44_289
*1909 FILLER_0_44_29
*1910 FILLER_0_44_301
*1911 FILLER_0_44_307
*1912 FILLER_0_44_309
*1913 FILLER_0_44_321
*1914 FILLER_0_44_333
*1915 FILLER_0_44_345
*1916 FILLER_0_44_357
*1917 FILLER_0_44_363
*1918 FILLER_0_44_365
*1919 FILLER_0_44_377
*1920 FILLER_0_44_389
*1921 FILLER_0_44_401
*1922 FILLER_0_44_41
*1923 FILLER_0_44_53
*1924 FILLER_0_44_65
*1925 FILLER_0_44_77
*1926 FILLER_0_44_83
*1927 FILLER_0_44_85
*1928 FILLER_0_44_9
*1929 FILLER_0_44_97
*1930 FILLER_0_45_105
*1931 FILLER_0_45_111
*1932 FILLER_0_45_119
*1933 FILLER_0_45_125
*1934 FILLER_0_45_143
*1935 FILLER_0_45_15
*1936 FILLER_0_45_151
*1937 FILLER_0_45_158
*1938 FILLER_0_45_164
*1939 FILLER_0_45_178
*1940 FILLER_0_45_185
*1941 FILLER_0_45_197
*1942 FILLER_0_45_209
*1943 FILLER_0_45_221
*1944 FILLER_0_45_225
*1945 FILLER_0_45_237
*1946 FILLER_0_45_249
*1947 FILLER_0_45_261
*1948 FILLER_0_45_27
*1949 FILLER_0_45_273
*1950 FILLER_0_45_279
*1951 FILLER_0_45_281
*1952 FILLER_0_45_293
*1953 FILLER_0_45_3
*1954 FILLER_0_45_305
*1955 FILLER_0_45_317
*1956 FILLER_0_45_329
*1957 FILLER_0_45_335
*1958 FILLER_0_45_337
*1959 FILLER_0_45_349
*1960 FILLER_0_45_361
*1961 FILLER_0_45_373
*1962 FILLER_0_45_385
*1963 FILLER_0_45_39
*1964 FILLER_0_45_391
*1965 FILLER_0_45_393
*1966 FILLER_0_45_401
*1967 FILLER_0_45_51
*1968 FILLER_0_45_55
*1969 FILLER_0_45_57
*1970 FILLER_0_45_69
*1971 FILLER_0_45_81
*1972 FILLER_0_45_93
*1973 FILLER_0_46_109
*1974 FILLER_0_46_121
*1975 FILLER_0_46_147
*1976 FILLER_0_46_15
*1977 FILLER_0_46_151
*1978 FILLER_0_46_166
*1979 FILLER_0_46_178
*1980 FILLER_0_46_184
*1981 FILLER_0_46_193
*1982 FILLER_0_46_197
*1983 FILLER_0_46_209
*1984 FILLER_0_46_221
*1985 FILLER_0_46_233
*1986 FILLER_0_46_245
*1987 FILLER_0_46_251
*1988 FILLER_0_46_253
*1989 FILLER_0_46_265
*1990 FILLER_0_46_27
*1991 FILLER_0_46_277
*1992 FILLER_0_46_289
*1993 FILLER_0_46_29
*1994 FILLER_0_46_3
*1995 FILLER_0_46_301
*1996 FILLER_0_46_307
*1997 FILLER_0_46_309
*1998 FILLER_0_46_321
*1999 FILLER_0_46_333
*2000 FILLER_0_46_345
*2001 FILLER_0_46_357
*2002 FILLER_0_46_363
*2003 FILLER_0_46_365
*2004 FILLER_0_46_377
*2005 FILLER_0_46_389
*2006 FILLER_0_46_401
*2007 FILLER_0_46_41
*2008 FILLER_0_46_53
*2009 FILLER_0_46_65
*2010 FILLER_0_46_77
*2011 FILLER_0_46_83
*2012 FILLER_0_46_85
*2013 FILLER_0_46_97
*2014 FILLER_0_47_105
*2015 FILLER_0_47_111
*2016 FILLER_0_47_113
*2017 FILLER_0_47_125
*2018 FILLER_0_47_143
*2019 FILLER_0_47_15
*2020 FILLER_0_47_151
*2021 FILLER_0_47_163
*2022 FILLER_0_47_167
*2023 FILLER_0_47_169
*2024 FILLER_0_47_178
*2025 FILLER_0_47_200
*2026 FILLER_0_47_208
*2027 FILLER_0_47_215
*2028 FILLER_0_47_223
*2029 FILLER_0_47_225
*2030 FILLER_0_47_237
*2031 FILLER_0_47_249
*2032 FILLER_0_47_261
*2033 FILLER_0_47_27
*2034 FILLER_0_47_273
*2035 FILLER_0_47_279
*2036 FILLER_0_47_281
*2037 FILLER_0_47_293
*2038 FILLER_0_47_3
*2039 FILLER_0_47_305
*2040 FILLER_0_47_317
*2041 FILLER_0_47_329
*2042 FILLER_0_47_335
*2043 FILLER_0_47_337
*2044 FILLER_0_47_349
*2045 FILLER_0_47_361
*2046 FILLER_0_47_373
*2047 FILLER_0_47_385
*2048 FILLER_0_47_39
*2049 FILLER_0_47_391
*2050 FILLER_0_47_393
*2051 FILLER_0_47_405
*2052 FILLER_0_47_51
*2053 FILLER_0_47_55
*2054 FILLER_0_47_57
*2055 FILLER_0_47_69
*2056 FILLER_0_47_81
*2057 FILLER_0_47_93
*2058 FILLER_0_48_109
*2059 FILLER_0_48_121
*2060 FILLER_0_48_133
*2061 FILLER_0_48_146
*2062 FILLER_0_48_15
*2063 FILLER_0_48_171
*2064 FILLER_0_48_192
*2065 FILLER_0_48_197
*2066 FILLER_0_48_209
*2067 FILLER_0_48_221
*2068 FILLER_0_48_233
*2069 FILLER_0_48_245
*2070 FILLER_0_48_251
*2071 FILLER_0_48_253
*2072 FILLER_0_48_265
*2073 FILLER_0_48_27
*2074 FILLER_0_48_277
*2075 FILLER_0_48_289
*2076 FILLER_0_48_29
*2077 FILLER_0_48_3
*2078 FILLER_0_48_301
*2079 FILLER_0_48_307
*2080 FILLER_0_48_309
*2081 FILLER_0_48_321
*2082 FILLER_0_48_333
*2083 FILLER_0_48_345
*2084 FILLER_0_48_357
*2085 FILLER_0_48_363
*2086 FILLER_0_48_365
*2087 FILLER_0_48_377
*2088 FILLER_0_48_389
*2089 FILLER_0_48_401
*2090 FILLER_0_48_41
*2091 FILLER_0_48_53
*2092 FILLER_0_48_65
*2093 FILLER_0_48_77
*2094 FILLER_0_48_83
*2095 FILLER_0_48_85
*2096 FILLER_0_48_97
*2097 FILLER_0_49_105
*2098 FILLER_0_49_111
*2099 FILLER_0_49_113
*2100 FILLER_0_49_125
*2101 FILLER_0_49_137
*2102 FILLER_0_49_15
*2103 FILLER_0_49_166
*2104 FILLER_0_49_169
*2105 FILLER_0_49_173
*2106 FILLER_0_49_183
*2107 FILLER_0_49_195
*2108 FILLER_0_49_207
*2109 FILLER_0_49_219
*2110 FILLER_0_49_223
*2111 FILLER_0_49_225
*2112 FILLER_0_49_237
*2113 FILLER_0_49_249
*2114 FILLER_0_49_261
*2115 FILLER_0_49_27
*2116 FILLER_0_49_273
*2117 FILLER_0_49_279
*2118 FILLER_0_49_281
*2119 FILLER_0_49_293
*2120 FILLER_0_49_3
*2121 FILLER_0_49_305
*2122 FILLER_0_49_317
*2123 FILLER_0_49_329
*2124 FILLER_0_49_335
*2125 FILLER_0_49_337
*2126 FILLER_0_49_349
*2127 FILLER_0_49_361
*2128 FILLER_0_49_373
*2129 FILLER_0_49_385
*2130 FILLER_0_49_39
*2131 FILLER_0_49_391
*2132 FILLER_0_49_393
*2133 FILLER_0_49_405
*2134 FILLER_0_49_51
*2135 FILLER_0_49_55
*2136 FILLER_0_49_57
*2137 FILLER_0_49_69
*2138 FILLER_0_49_81
*2139 FILLER_0_49_93
*2140 FILLER_0_4_109
*2141 FILLER_0_4_121
*2142 FILLER_0_4_133
*2143 FILLER_0_4_139
*2144 FILLER_0_4_141
*2145 FILLER_0_4_153
*2146 FILLER_0_4_165
*2147 FILLER_0_4_177
*2148 FILLER_0_4_189
*2149 FILLER_0_4_19
*2150 FILLER_0_4_195
*2151 FILLER_0_4_197
*2152 FILLER_0_4_209
*2153 FILLER_0_4_221
*2154 FILLER_0_4_233
*2155 FILLER_0_4_245
*2156 FILLER_0_4_251
*2157 FILLER_0_4_253
*2158 FILLER_0_4_265
*2159 FILLER_0_4_27
*2160 FILLER_0_4_277
*2161 FILLER_0_4_289
*2162 FILLER_0_4_29
*2163 FILLER_0_4_301
*2164 FILLER_0_4_307
*2165 FILLER_0_4_309
*2166 FILLER_0_4_321
*2167 FILLER_0_4_333
*2168 FILLER_0_4_345
*2169 FILLER_0_4_357
*2170 FILLER_0_4_363
*2171 FILLER_0_4_365
*2172 FILLER_0_4_377
*2173 FILLER_0_4_389
*2174 FILLER_0_4_401
*2175 FILLER_0_4_41
*2176 FILLER_0_4_53
*2177 FILLER_0_4_65
*2178 FILLER_0_4_7
*2179 FILLER_0_4_77
*2180 FILLER_0_4_83
*2181 FILLER_0_4_85
*2182 FILLER_0_4_97
*2183 FILLER_0_50_109
*2184 FILLER_0_50_121
*2185 FILLER_0_50_133
*2186 FILLER_0_50_139
*2187 FILLER_0_50_141
*2188 FILLER_0_50_15
*2189 FILLER_0_50_153
*2190 FILLER_0_50_165
*2191 FILLER_0_50_177
*2192 FILLER_0_50_189
*2193 FILLER_0_50_195
*2194 FILLER_0_50_197
*2195 FILLER_0_50_209
*2196 FILLER_0_50_221
*2197 FILLER_0_50_233
*2198 FILLER_0_50_245
*2199 FILLER_0_50_251
*2200 FILLER_0_50_253
*2201 FILLER_0_50_265
*2202 FILLER_0_50_27
*2203 FILLER_0_50_277
*2204 FILLER_0_50_289
*2205 FILLER_0_50_29
*2206 FILLER_0_50_3
*2207 FILLER_0_50_301
*2208 FILLER_0_50_307
*2209 FILLER_0_50_309
*2210 FILLER_0_50_321
*2211 FILLER_0_50_333
*2212 FILLER_0_50_345
*2213 FILLER_0_50_357
*2214 FILLER_0_50_363
*2215 FILLER_0_50_365
*2216 FILLER_0_50_377
*2217 FILLER_0_50_389
*2218 FILLER_0_50_401
*2219 FILLER_0_50_41
*2220 FILLER_0_50_53
*2221 FILLER_0_50_65
*2222 FILLER_0_50_77
*2223 FILLER_0_50_83
*2224 FILLER_0_50_85
*2225 FILLER_0_50_97
*2226 FILLER_0_51_105
*2227 FILLER_0_51_111
*2228 FILLER_0_51_113
*2229 FILLER_0_51_125
*2230 FILLER_0_51_137
*2231 FILLER_0_51_149
*2232 FILLER_0_51_161
*2233 FILLER_0_51_167
*2234 FILLER_0_51_169
*2235 FILLER_0_51_181
*2236 FILLER_0_51_19
*2237 FILLER_0_51_193
*2238 FILLER_0_51_205
*2239 FILLER_0_51_217
*2240 FILLER_0_51_223
*2241 FILLER_0_51_225
*2242 FILLER_0_51_237
*2243 FILLER_0_51_249
*2244 FILLER_0_51_261
*2245 FILLER_0_51_273
*2246 FILLER_0_51_279
*2247 FILLER_0_51_281
*2248 FILLER_0_51_293
*2249 FILLER_0_51_305
*2250 FILLER_0_51_31
*2251 FILLER_0_51_317
*2252 FILLER_0_51_329
*2253 FILLER_0_51_335
*2254 FILLER_0_51_337
*2255 FILLER_0_51_349
*2256 FILLER_0_51_361
*2257 FILLER_0_51_373
*2258 FILLER_0_51_385
*2259 FILLER_0_51_391
*2260 FILLER_0_51_393
*2261 FILLER_0_51_405
*2262 FILLER_0_51_43
*2263 FILLER_0_51_55
*2264 FILLER_0_51_57
*2265 FILLER_0_51_69
*2266 FILLER_0_51_7
*2267 FILLER_0_51_81
*2268 FILLER_0_51_93
*2269 FILLER_0_52_109
*2270 FILLER_0_52_121
*2271 FILLER_0_52_133
*2272 FILLER_0_52_139
*2273 FILLER_0_52_141
*2274 FILLER_0_52_15
*2275 FILLER_0_52_153
*2276 FILLER_0_52_165
*2277 FILLER_0_52_177
*2278 FILLER_0_52_189
*2279 FILLER_0_52_195
*2280 FILLER_0_52_197
*2281 FILLER_0_52_209
*2282 FILLER_0_52_221
*2283 FILLER_0_52_233
*2284 FILLER_0_52_245
*2285 FILLER_0_52_251
*2286 FILLER_0_52_253
*2287 FILLER_0_52_265
*2288 FILLER_0_52_27
*2289 FILLER_0_52_277
*2290 FILLER_0_52_289
*2291 FILLER_0_52_29
*2292 FILLER_0_52_3
*2293 FILLER_0_52_301
*2294 FILLER_0_52_307
*2295 FILLER_0_52_309
*2296 FILLER_0_52_321
*2297 FILLER_0_52_333
*2298 FILLER_0_52_345
*2299 FILLER_0_52_357
*2300 FILLER_0_52_363
*2301 FILLER_0_52_365
*2302 FILLER_0_52_377
*2303 FILLER_0_52_389
*2304 FILLER_0_52_401
*2305 FILLER_0_52_41
*2306 FILLER_0_52_53
*2307 FILLER_0_52_65
*2308 FILLER_0_52_77
*2309 FILLER_0_52_83
*2310 FILLER_0_52_85
*2311 FILLER_0_52_97
*2312 FILLER_0_53_105
*2313 FILLER_0_53_111
*2314 FILLER_0_53_113
*2315 FILLER_0_53_125
*2316 FILLER_0_53_137
*2317 FILLER_0_53_149
*2318 FILLER_0_53_15
*2319 FILLER_0_53_161
*2320 FILLER_0_53_167
*2321 FILLER_0_53_169
*2322 FILLER_0_53_181
*2323 FILLER_0_53_193
*2324 FILLER_0_53_205
*2325 FILLER_0_53_217
*2326 FILLER_0_53_223
*2327 FILLER_0_53_225
*2328 FILLER_0_53_237
*2329 FILLER_0_53_249
*2330 FILLER_0_53_261
*2331 FILLER_0_53_27
*2332 FILLER_0_53_273
*2333 FILLER_0_53_279
*2334 FILLER_0_53_281
*2335 FILLER_0_53_293
*2336 FILLER_0_53_3
*2337 FILLER_0_53_305
*2338 FILLER_0_53_317
*2339 FILLER_0_53_329
*2340 FILLER_0_53_335
*2341 FILLER_0_53_337
*2342 FILLER_0_53_349
*2343 FILLER_0_53_361
*2344 FILLER_0_53_373
*2345 FILLER_0_53_385
*2346 FILLER_0_53_39
*2347 FILLER_0_53_391
*2348 FILLER_0_53_393
*2349 FILLER_0_53_405
*2350 FILLER_0_53_51
*2351 FILLER_0_53_55
*2352 FILLER_0_53_57
*2353 FILLER_0_53_69
*2354 FILLER_0_53_81
*2355 FILLER_0_53_93
*2356 FILLER_0_54_109
*2357 FILLER_0_54_121
*2358 FILLER_0_54_133
*2359 FILLER_0_54_139
*2360 FILLER_0_54_141
*2361 FILLER_0_54_15
*2362 FILLER_0_54_153
*2363 FILLER_0_54_165
*2364 FILLER_0_54_177
*2365 FILLER_0_54_189
*2366 FILLER_0_54_195
*2367 FILLER_0_54_197
*2368 FILLER_0_54_209
*2369 FILLER_0_54_221
*2370 FILLER_0_54_233
*2371 FILLER_0_54_245
*2372 FILLER_0_54_251
*2373 FILLER_0_54_253
*2374 FILLER_0_54_265
*2375 FILLER_0_54_27
*2376 FILLER_0_54_277
*2377 FILLER_0_54_289
*2378 FILLER_0_54_29
*2379 FILLER_0_54_3
*2380 FILLER_0_54_301
*2381 FILLER_0_54_307
*2382 FILLER_0_54_309
*2383 FILLER_0_54_321
*2384 FILLER_0_54_333
*2385 FILLER_0_54_345
*2386 FILLER_0_54_357
*2387 FILLER_0_54_363
*2388 FILLER_0_54_365
*2389 FILLER_0_54_377
*2390 FILLER_0_54_389
*2391 FILLER_0_54_401
*2392 FILLER_0_54_41
*2393 FILLER_0_54_53
*2394 FILLER_0_54_65
*2395 FILLER_0_54_77
*2396 FILLER_0_54_83
*2397 FILLER_0_54_85
*2398 FILLER_0_54_97
*2399 FILLER_0_55_105
*2400 FILLER_0_55_111
*2401 FILLER_0_55_113
*2402 FILLER_0_55_125
*2403 FILLER_0_55_137
*2404 FILLER_0_55_149
*2405 FILLER_0_55_15
*2406 FILLER_0_55_161
*2407 FILLER_0_55_167
*2408 FILLER_0_55_169
*2409 FILLER_0_55_181
*2410 FILLER_0_55_193
*2411 FILLER_0_55_205
*2412 FILLER_0_55_217
*2413 FILLER_0_55_223
*2414 FILLER_0_55_225
*2415 FILLER_0_55_237
*2416 FILLER_0_55_249
*2417 FILLER_0_55_261
*2418 FILLER_0_55_27
*2419 FILLER_0_55_273
*2420 FILLER_0_55_279
*2421 FILLER_0_55_281
*2422 FILLER_0_55_293
*2423 FILLER_0_55_3
*2424 FILLER_0_55_305
*2425 FILLER_0_55_317
*2426 FILLER_0_55_329
*2427 FILLER_0_55_335
*2428 FILLER_0_55_337
*2429 FILLER_0_55_349
*2430 FILLER_0_55_361
*2431 FILLER_0_55_373
*2432 FILLER_0_55_385
*2433 FILLER_0_55_39
*2434 FILLER_0_55_391
*2435 FILLER_0_55_393
*2436 FILLER_0_55_405
*2437 FILLER_0_55_51
*2438 FILLER_0_55_55
*2439 FILLER_0_55_57
*2440 FILLER_0_55_69
*2441 FILLER_0_55_81
*2442 FILLER_0_55_93
*2443 FILLER_0_56_109
*2444 FILLER_0_56_121
*2445 FILLER_0_56_133
*2446 FILLER_0_56_139
*2447 FILLER_0_56_141
*2448 FILLER_0_56_15
*2449 FILLER_0_56_153
*2450 FILLER_0_56_165
*2451 FILLER_0_56_177
*2452 FILLER_0_56_189
*2453 FILLER_0_56_195
*2454 FILLER_0_56_197
*2455 FILLER_0_56_209
*2456 FILLER_0_56_221
*2457 FILLER_0_56_233
*2458 FILLER_0_56_245
*2459 FILLER_0_56_251
*2460 FILLER_0_56_253
*2461 FILLER_0_56_265
*2462 FILLER_0_56_27
*2463 FILLER_0_56_277
*2464 FILLER_0_56_289
*2465 FILLER_0_56_29
*2466 FILLER_0_56_3
*2467 FILLER_0_56_301
*2468 FILLER_0_56_307
*2469 FILLER_0_56_309
*2470 FILLER_0_56_321
*2471 FILLER_0_56_333
*2472 FILLER_0_56_345
*2473 FILLER_0_56_357
*2474 FILLER_0_56_363
*2475 FILLER_0_56_365
*2476 FILLER_0_56_377
*2477 FILLER_0_56_389
*2478 FILLER_0_56_401
*2479 FILLER_0_56_41
*2480 FILLER_0_56_53
*2481 FILLER_0_56_65
*2482 FILLER_0_56_77
*2483 FILLER_0_56_83
*2484 FILLER_0_56_85
*2485 FILLER_0_56_97
*2486 FILLER_0_57_105
*2487 FILLER_0_57_111
*2488 FILLER_0_57_113
*2489 FILLER_0_57_125
*2490 FILLER_0_57_137
*2491 FILLER_0_57_149
*2492 FILLER_0_57_15
*2493 FILLER_0_57_161
*2494 FILLER_0_57_167
*2495 FILLER_0_57_169
*2496 FILLER_0_57_181
*2497 FILLER_0_57_193
*2498 FILLER_0_57_205
*2499 FILLER_0_57_217
*2500 FILLER_0_57_223
*2501 FILLER_0_57_225
*2502 FILLER_0_57_237
*2503 FILLER_0_57_249
*2504 FILLER_0_57_261
*2505 FILLER_0_57_27
*2506 FILLER_0_57_273
*2507 FILLER_0_57_279
*2508 FILLER_0_57_281
*2509 FILLER_0_57_293
*2510 FILLER_0_57_3
*2511 FILLER_0_57_305
*2512 FILLER_0_57_317
*2513 FILLER_0_57_329
*2514 FILLER_0_57_335
*2515 FILLER_0_57_337
*2516 FILLER_0_57_349
*2517 FILLER_0_57_361
*2518 FILLER_0_57_373
*2519 FILLER_0_57_385
*2520 FILLER_0_57_39
*2521 FILLER_0_57_391
*2522 FILLER_0_57_393
*2523 FILLER_0_57_405
*2524 FILLER_0_57_51
*2525 FILLER_0_57_55
*2526 FILLER_0_57_57
*2527 FILLER_0_57_69
*2528 FILLER_0_57_81
*2529 FILLER_0_57_93
*2530 FILLER_0_58_109
*2531 FILLER_0_58_121
*2532 FILLER_0_58_133
*2533 FILLER_0_58_139
*2534 FILLER_0_58_141
*2535 FILLER_0_58_15
*2536 FILLER_0_58_153
*2537 FILLER_0_58_165
*2538 FILLER_0_58_177
*2539 FILLER_0_58_189
*2540 FILLER_0_58_195
*2541 FILLER_0_58_197
*2542 FILLER_0_58_209
*2543 FILLER_0_58_221
*2544 FILLER_0_58_233
*2545 FILLER_0_58_245
*2546 FILLER_0_58_251
*2547 FILLER_0_58_253
*2548 FILLER_0_58_265
*2549 FILLER_0_58_27
*2550 FILLER_0_58_277
*2551 FILLER_0_58_289
*2552 FILLER_0_58_29
*2553 FILLER_0_58_3
*2554 FILLER_0_58_301
*2555 FILLER_0_58_307
*2556 FILLER_0_58_309
*2557 FILLER_0_58_321
*2558 FILLER_0_58_333
*2559 FILLER_0_58_345
*2560 FILLER_0_58_357
*2561 FILLER_0_58_363
*2562 FILLER_0_58_365
*2563 FILLER_0_58_377
*2564 FILLER_0_58_389
*2565 FILLER_0_58_401
*2566 FILLER_0_58_41
*2567 FILLER_0_58_53
*2568 FILLER_0_58_65
*2569 FILLER_0_58_77
*2570 FILLER_0_58_83
*2571 FILLER_0_58_85
*2572 FILLER_0_58_97
*2573 FILLER_0_59_105
*2574 FILLER_0_59_111
*2575 FILLER_0_59_113
*2576 FILLER_0_59_125
*2577 FILLER_0_59_137
*2578 FILLER_0_59_149
*2579 FILLER_0_59_161
*2580 FILLER_0_59_167
*2581 FILLER_0_59_169
*2582 FILLER_0_59_181
*2583 FILLER_0_59_193
*2584 FILLER_0_59_205
*2585 FILLER_0_59_21
*2586 FILLER_0_59_217
*2587 FILLER_0_59_223
*2588 FILLER_0_59_225
*2589 FILLER_0_59_237
*2590 FILLER_0_59_249
*2591 FILLER_0_59_261
*2592 FILLER_0_59_273
*2593 FILLER_0_59_279
*2594 FILLER_0_59_281
*2595 FILLER_0_59_293
*2596 FILLER_0_59_305
*2597 FILLER_0_59_317
*2598 FILLER_0_59_329
*2599 FILLER_0_59_33
*2600 FILLER_0_59_335
*2601 FILLER_0_59_337
*2602 FILLER_0_59_349
*2603 FILLER_0_59_361
*2604 FILLER_0_59_373
*2605 FILLER_0_59_385
*2606 FILLER_0_59_391
*2607 FILLER_0_59_393
*2608 FILLER_0_59_405
*2609 FILLER_0_59_45
*2610 FILLER_0_59_53
*2611 FILLER_0_59_57
*2612 FILLER_0_59_69
*2613 FILLER_0_59_81
*2614 FILLER_0_59_9
*2615 FILLER_0_59_93
*2616 FILLER_0_5_105
*2617 FILLER_0_5_111
*2618 FILLER_0_5_113
*2619 FILLER_0_5_125
*2620 FILLER_0_5_137
*2621 FILLER_0_5_149
*2622 FILLER_0_5_15
*2623 FILLER_0_5_161
*2624 FILLER_0_5_167
*2625 FILLER_0_5_169
*2626 FILLER_0_5_181
*2627 FILLER_0_5_193
*2628 FILLER_0_5_205
*2629 FILLER_0_5_217
*2630 FILLER_0_5_223
*2631 FILLER_0_5_225
*2632 FILLER_0_5_237
*2633 FILLER_0_5_249
*2634 FILLER_0_5_261
*2635 FILLER_0_5_27
*2636 FILLER_0_5_273
*2637 FILLER_0_5_279
*2638 FILLER_0_5_281
*2639 FILLER_0_5_293
*2640 FILLER_0_5_3
*2641 FILLER_0_5_305
*2642 FILLER_0_5_317
*2643 FILLER_0_5_329
*2644 FILLER_0_5_335
*2645 FILLER_0_5_337
*2646 FILLER_0_5_349
*2647 FILLER_0_5_361
*2648 FILLER_0_5_373
*2649 FILLER_0_5_385
*2650 FILLER_0_5_39
*2651 FILLER_0_5_391
*2652 FILLER_0_5_393
*2653 FILLER_0_5_405
*2654 FILLER_0_5_51
*2655 FILLER_0_5_55
*2656 FILLER_0_5_57
*2657 FILLER_0_5_69
*2658 FILLER_0_5_81
*2659 FILLER_0_5_93
*2660 FILLER_0_60_109
*2661 FILLER_0_60_121
*2662 FILLER_0_60_133
*2663 FILLER_0_60_139
*2664 FILLER_0_60_141
*2665 FILLER_0_60_15
*2666 FILLER_0_60_153
*2667 FILLER_0_60_165
*2668 FILLER_0_60_177
*2669 FILLER_0_60_189
*2670 FILLER_0_60_195
*2671 FILLER_0_60_197
*2672 FILLER_0_60_209
*2673 FILLER_0_60_221
*2674 FILLER_0_60_233
*2675 FILLER_0_60_245
*2676 FILLER_0_60_251
*2677 FILLER_0_60_253
*2678 FILLER_0_60_265
*2679 FILLER_0_60_27
*2680 FILLER_0_60_277
*2681 FILLER_0_60_289
*2682 FILLER_0_60_29
*2683 FILLER_0_60_3
*2684 FILLER_0_60_301
*2685 FILLER_0_60_307
*2686 FILLER_0_60_309
*2687 FILLER_0_60_321
*2688 FILLER_0_60_333
*2689 FILLER_0_60_345
*2690 FILLER_0_60_357
*2691 FILLER_0_60_363
*2692 FILLER_0_60_365
*2693 FILLER_0_60_377
*2694 FILLER_0_60_389
*2695 FILLER_0_60_401
*2696 FILLER_0_60_41
*2697 FILLER_0_60_53
*2698 FILLER_0_60_65
*2699 FILLER_0_60_77
*2700 FILLER_0_60_83
*2701 FILLER_0_60_85
*2702 FILLER_0_60_97
*2703 FILLER_0_61_105
*2704 FILLER_0_61_111
*2705 FILLER_0_61_113
*2706 FILLER_0_61_125
*2707 FILLER_0_61_137
*2708 FILLER_0_61_149
*2709 FILLER_0_61_15
*2710 FILLER_0_61_161
*2711 FILLER_0_61_167
*2712 FILLER_0_61_169
*2713 FILLER_0_61_181
*2714 FILLER_0_61_193
*2715 FILLER_0_61_205
*2716 FILLER_0_61_217
*2717 FILLER_0_61_223
*2718 FILLER_0_61_225
*2719 FILLER_0_61_237
*2720 FILLER_0_61_249
*2721 FILLER_0_61_261
*2722 FILLER_0_61_27
*2723 FILLER_0_61_273
*2724 FILLER_0_61_279
*2725 FILLER_0_61_281
*2726 FILLER_0_61_293
*2727 FILLER_0_61_3
*2728 FILLER_0_61_305
*2729 FILLER_0_61_317
*2730 FILLER_0_61_329
*2731 FILLER_0_61_335
*2732 FILLER_0_61_337
*2733 FILLER_0_61_349
*2734 FILLER_0_61_361
*2735 FILLER_0_61_373
*2736 FILLER_0_61_385
*2737 FILLER_0_61_39
*2738 FILLER_0_61_391
*2739 FILLER_0_61_393
*2740 FILLER_0_61_51
*2741 FILLER_0_61_55
*2742 FILLER_0_61_57
*2743 FILLER_0_61_69
*2744 FILLER_0_61_81
*2745 FILLER_0_61_93
*2746 FILLER_0_62_109
*2747 FILLER_0_62_121
*2748 FILLER_0_62_133
*2749 FILLER_0_62_139
*2750 FILLER_0_62_141
*2751 FILLER_0_62_15
*2752 FILLER_0_62_153
*2753 FILLER_0_62_165
*2754 FILLER_0_62_177
*2755 FILLER_0_62_189
*2756 FILLER_0_62_195
*2757 FILLER_0_62_197
*2758 FILLER_0_62_209
*2759 FILLER_0_62_221
*2760 FILLER_0_62_233
*2761 FILLER_0_62_245
*2762 FILLER_0_62_251
*2763 FILLER_0_62_253
*2764 FILLER_0_62_265
*2765 FILLER_0_62_27
*2766 FILLER_0_62_277
*2767 FILLER_0_62_289
*2768 FILLER_0_62_29
*2769 FILLER_0_62_3
*2770 FILLER_0_62_301
*2771 FILLER_0_62_307
*2772 FILLER_0_62_309
*2773 FILLER_0_62_321
*2774 FILLER_0_62_333
*2775 FILLER_0_62_345
*2776 FILLER_0_62_357
*2777 FILLER_0_62_363
*2778 FILLER_0_62_365
*2779 FILLER_0_62_377
*2780 FILLER_0_62_389
*2781 FILLER_0_62_401
*2782 FILLER_0_62_41
*2783 FILLER_0_62_53
*2784 FILLER_0_62_65
*2785 FILLER_0_62_77
*2786 FILLER_0_62_83
*2787 FILLER_0_62_85
*2788 FILLER_0_62_97
*2789 FILLER_0_63_105
*2790 FILLER_0_63_111
*2791 FILLER_0_63_113
*2792 FILLER_0_63_125
*2793 FILLER_0_63_137
*2794 FILLER_0_63_149
*2795 FILLER_0_63_15
*2796 FILLER_0_63_161
*2797 FILLER_0_63_167
*2798 FILLER_0_63_169
*2799 FILLER_0_63_181
*2800 FILLER_0_63_193
*2801 FILLER_0_63_205
*2802 FILLER_0_63_217
*2803 FILLER_0_63_223
*2804 FILLER_0_63_225
*2805 FILLER_0_63_237
*2806 FILLER_0_63_249
*2807 FILLER_0_63_261
*2808 FILLER_0_63_27
*2809 FILLER_0_63_273
*2810 FILLER_0_63_279
*2811 FILLER_0_63_281
*2812 FILLER_0_63_293
*2813 FILLER_0_63_3
*2814 FILLER_0_63_305
*2815 FILLER_0_63_317
*2816 FILLER_0_63_329
*2817 FILLER_0_63_335
*2818 FILLER_0_63_337
*2819 FILLER_0_63_349
*2820 FILLER_0_63_361
*2821 FILLER_0_63_373
*2822 FILLER_0_63_385
*2823 FILLER_0_63_39
*2824 FILLER_0_63_391
*2825 FILLER_0_63_393
*2826 FILLER_0_63_405
*2827 FILLER_0_63_51
*2828 FILLER_0_63_55
*2829 FILLER_0_63_57
*2830 FILLER_0_63_69
*2831 FILLER_0_63_81
*2832 FILLER_0_63_93
*2833 FILLER_0_64_109
*2834 FILLER_0_64_119
*2835 FILLER_0_64_131
*2836 FILLER_0_64_139
*2837 FILLER_0_64_141
*2838 FILLER_0_64_149
*2839 FILLER_0_64_15
*2840 FILLER_0_64_153
*2841 FILLER_0_64_165
*2842 FILLER_0_64_169
*2843 FILLER_0_64_181
*2844 FILLER_0_64_193
*2845 FILLER_0_64_197
*2846 FILLER_0_64_202
*2847 FILLER_0_64_21
*2848 FILLER_0_64_214
*2849 FILLER_0_64_222
*2850 FILLER_0_64_225
*2851 FILLER_0_64_237
*2852 FILLER_0_64_247
*2853 FILLER_0_64_251
*2854 FILLER_0_64_253
*2855 FILLER_0_64_265
*2856 FILLER_0_64_27
*2857 FILLER_0_64_277
*2858 FILLER_0_64_281
*2859 FILLER_0_64_289
*2860 FILLER_0_64_29
*2861 FILLER_0_64_301
*2862 FILLER_0_64_307
*2863 FILLER_0_64_309
*2864 FILLER_0_64_321
*2865 FILLER_0_64_329
*2866 FILLER_0_64_335
*2867 FILLER_0_64_337
*2868 FILLER_0_64_349
*2869 FILLER_0_64_361
*2870 FILLER_0_64_365
*2871 FILLER_0_64_373
*2872 FILLER_0_64_380
*2873 FILLER_0_64_393
*2874 FILLER_0_64_401
*2875 FILLER_0_64_41
*2876 FILLER_0_64_53
*2877 FILLER_0_64_57
*2878 FILLER_0_64_65
*2879 FILLER_0_64_7
*2880 FILLER_0_64_72
*2881 FILLER_0_64_85
*2882 FILLER_0_64_97
*2883 FILLER_0_6_109
*2884 FILLER_0_6_121
*2885 FILLER_0_6_133
*2886 FILLER_0_6_139
*2887 FILLER_0_6_141
*2888 FILLER_0_6_15
*2889 FILLER_0_6_153
*2890 FILLER_0_6_165
*2891 FILLER_0_6_177
*2892 FILLER_0_6_189
*2893 FILLER_0_6_195
*2894 FILLER_0_6_197
*2895 FILLER_0_6_209
*2896 FILLER_0_6_221
*2897 FILLER_0_6_233
*2898 FILLER_0_6_245
*2899 FILLER_0_6_251
*2900 FILLER_0_6_253
*2901 FILLER_0_6_265
*2902 FILLER_0_6_27
*2903 FILLER_0_6_277
*2904 FILLER_0_6_289
*2905 FILLER_0_6_29
*2906 FILLER_0_6_3
*2907 FILLER_0_6_301
*2908 FILLER_0_6_307
*2909 FILLER_0_6_309
*2910 FILLER_0_6_321
*2911 FILLER_0_6_333
*2912 FILLER_0_6_345
*2913 FILLER_0_6_357
*2914 FILLER_0_6_363
*2915 FILLER_0_6_365
*2916 FILLER_0_6_377
*2917 FILLER_0_6_389
*2918 FILLER_0_6_41
*2919 FILLER_0_6_53
*2920 FILLER_0_6_65
*2921 FILLER_0_6_77
*2922 FILLER_0_6_83
*2923 FILLER_0_6_85
*2924 FILLER_0_6_97
*2925 FILLER_0_7_105
*2926 FILLER_0_7_111
*2927 FILLER_0_7_113
*2928 FILLER_0_7_125
*2929 FILLER_0_7_137
*2930 FILLER_0_7_149
*2931 FILLER_0_7_15
*2932 FILLER_0_7_161
*2933 FILLER_0_7_167
*2934 FILLER_0_7_169
*2935 FILLER_0_7_181
*2936 FILLER_0_7_193
*2937 FILLER_0_7_205
*2938 FILLER_0_7_217
*2939 FILLER_0_7_223
*2940 FILLER_0_7_225
*2941 FILLER_0_7_237
*2942 FILLER_0_7_249
*2943 FILLER_0_7_261
*2944 FILLER_0_7_27
*2945 FILLER_0_7_273
*2946 FILLER_0_7_279
*2947 FILLER_0_7_281
*2948 FILLER_0_7_293
*2949 FILLER_0_7_3
*2950 FILLER_0_7_305
*2951 FILLER_0_7_317
*2952 FILLER_0_7_329
*2953 FILLER_0_7_335
*2954 FILLER_0_7_337
*2955 FILLER_0_7_349
*2956 FILLER_0_7_361
*2957 FILLER_0_7_373
*2958 FILLER_0_7_385
*2959 FILLER_0_7_39
*2960 FILLER_0_7_391
*2961 FILLER_0_7_393
*2962 FILLER_0_7_405
*2963 FILLER_0_7_51
*2964 FILLER_0_7_55
*2965 FILLER_0_7_57
*2966 FILLER_0_7_69
*2967 FILLER_0_7_81
*2968 FILLER_0_7_93
*2969 FILLER_0_8_109
*2970 FILLER_0_8_121
*2971 FILLER_0_8_133
*2972 FILLER_0_8_139
*2973 FILLER_0_8_141
*2974 FILLER_0_8_15
*2975 FILLER_0_8_153
*2976 FILLER_0_8_165
*2977 FILLER_0_8_177
*2978 FILLER_0_8_189
*2979 FILLER_0_8_195
*2980 FILLER_0_8_197
*2981 FILLER_0_8_209
*2982 FILLER_0_8_221
*2983 FILLER_0_8_233
*2984 FILLER_0_8_245
*2985 FILLER_0_8_251
*2986 FILLER_0_8_253
*2987 FILLER_0_8_265
*2988 FILLER_0_8_27
*2989 FILLER_0_8_277
*2990 FILLER_0_8_289
*2991 FILLER_0_8_29
*2992 FILLER_0_8_3
*2993 FILLER_0_8_301
*2994 FILLER_0_8_307
*2995 FILLER_0_8_309
*2996 FILLER_0_8_321
*2997 FILLER_0_8_333
*2998 FILLER_0_8_345
*2999 FILLER_0_8_357
*3000 FILLER_0_8_363
*3001 FILLER_0_8_365
*3002 FILLER_0_8_377
*3003 FILLER_0_8_389
*3004 FILLER_0_8_401
*3005 FILLER_0_8_41
*3006 FILLER_0_8_53
*3007 FILLER_0_8_65
*3008 FILLER_0_8_77
*3009 FILLER_0_8_83
*3010 FILLER_0_8_85
*3011 FILLER_0_8_97
*3012 FILLER_0_9_105
*3013 FILLER_0_9_111
*3014 FILLER_0_9_113
*3015 FILLER_0_9_125
*3016 FILLER_0_9_137
*3017 FILLER_0_9_149
*3018 FILLER_0_9_15
*3019 FILLER_0_9_161
*3020 FILLER_0_9_167
*3021 FILLER_0_9_169
*3022 FILLER_0_9_181
*3023 FILLER_0_9_193
*3024 FILLER_0_9_205
*3025 FILLER_0_9_217
*3026 FILLER_0_9_223
*3027 FILLER_0_9_225
*3028 FILLER_0_9_237
*3029 FILLER_0_9_249
*3030 FILLER_0_9_261
*3031 FILLER_0_9_27
*3032 FILLER_0_9_273
*3033 FILLER_0_9_279
*3034 FILLER_0_9_281
*3035 FILLER_0_9_293
*3036 FILLER_0_9_3
*3037 FILLER_0_9_305
*3038 FILLER_0_9_317
*3039 FILLER_0_9_329
*3040 FILLER_0_9_335
*3041 FILLER_0_9_337
*3042 FILLER_0_9_349
*3043 FILLER_0_9_361
*3044 FILLER_0_9_373
*3045 FILLER_0_9_385
*3046 FILLER_0_9_39
*3047 FILLER_0_9_391
*3048 FILLER_0_9_393
*3049 FILLER_0_9_405
*3050 FILLER_0_9_51
*3051 FILLER_0_9_55
*3052 FILLER_0_9_57
*3053 FILLER_0_9_69
*3054 FILLER_0_9_81
*3055 FILLER_0_9_93
*3056 PHY_0
*3057 PHY_1
*3058 PHY_10
*3059 PHY_100
*3060 PHY_101
*3061 PHY_102
*3062 PHY_103
*3063 PHY_104
*3064 PHY_105
*3065 PHY_106
*3066 PHY_107
*3067 PHY_108
*3068 PHY_109
*3069 PHY_11
*3070 PHY_110
*3071 PHY_111
*3072 PHY_112
*3073 PHY_113
*3074 PHY_114
*3075 PHY_115
*3076 PHY_116
*3077 PHY_117
*3078 PHY_118
*3079 PHY_119
*3080 PHY_12
*3081 PHY_120
*3082 PHY_121
*3083 PHY_122
*3084 PHY_123
*3085 PHY_124
*3086 PHY_125
*3087 PHY_126
*3088 PHY_127
*3089 PHY_128
*3090 PHY_129
*3091 PHY_13
*3092 PHY_14
*3093 PHY_15
*3094 PHY_16
*3095 PHY_17
*3096 PHY_18
*3097 PHY_19
*3098 PHY_2
*3099 PHY_20
*3100 PHY_21
*3101 PHY_22
*3102 PHY_23
*3103 PHY_24
*3104 PHY_25
*3105 PHY_26
*3106 PHY_27
*3107 PHY_28
*3108 PHY_29
*3109 PHY_3
*3110 PHY_30
*3111 PHY_31
*3112 PHY_32
*3113 PHY_33
*3114 PHY_34
*3115 PHY_35
*3116 PHY_36
*3117 PHY_37
*3118 PHY_38
*3119 PHY_39
*3120 PHY_4
*3121 PHY_40
*3122 PHY_41
*3123 PHY_42
*3124 PHY_43
*3125 PHY_44
*3126 PHY_45
*3127 PHY_46
*3128 PHY_47
*3129 PHY_48
*3130 PHY_49
*3131 PHY_5
*3132 PHY_50
*3133 PHY_51
*3134 PHY_52
*3135 PHY_53
*3136 PHY_54
*3137 PHY_55
*3138 PHY_56
*3139 PHY_57
*3140 PHY_58
*3141 PHY_59
*3142 PHY_6
*3143 PHY_60
*3144 PHY_61
*3145 PHY_62
*3146 PHY_63
*3147 PHY_64
*3148 PHY_65
*3149 PHY_66
*3150 PHY_67
*3151 PHY_68
*3152 PHY_69
*3153 PHY_7
*3154 PHY_70
*3155 PHY_71
*3156 PHY_72
*3157 PHY_73
*3158 PHY_74
*3159 PHY_75
*3160 PHY_76
*3161 PHY_77
*3162 PHY_78
*3163 PHY_79
*3164 PHY_8
*3165 PHY_80
*3166 PHY_81
*3167 PHY_82
*3168 PHY_83
*3169 PHY_84
*3170 PHY_85
*3171 PHY_86
*3172 PHY_87
*3173 PHY_88
*3174 PHY_89
*3175 PHY_9
*3176 PHY_90
*3177 PHY_91
*3178 PHY_92
*3179 PHY_93
*3180 PHY_94
*3181 PHY_95
*3182 PHY_96
*3183 PHY_97
*3184 PHY_98
*3185 PHY_99
*3186 TAP_130
*3187 TAP_131
*3188 TAP_132
*3189 TAP_133
*3190 TAP_134
*3191 TAP_135
*3192 TAP_136
*3193 TAP_137
*3194 TAP_138
*3195 TAP_139
*3196 TAP_140
*3197 TAP_141
*3198 TAP_142
*3199 TAP_143
*3200 TAP_144
*3201 TAP_145
*3202 TAP_146
*3203 TAP_147
*3204 TAP_148
*3205 TAP_149
*3206 TAP_150
*3207 TAP_151
*3208 TAP_152
*3209 TAP_153
*3210 TAP_154
*3211 TAP_155
*3212 TAP_156
*3213 TAP_157
*3214 TAP_158
*3215 TAP_159
*3216 TAP_160
*3217 TAP_161
*3218 TAP_162
*3219 TAP_163
*3220 TAP_164
*3221 TAP_165
*3222 TAP_166
*3223 TAP_167
*3224 TAP_168
*3225 TAP_169
*3226 TAP_170
*3227 TAP_171
*3228 TAP_172
*3229 TAP_173
*3230 TAP_174
*3231 TAP_175
*3232 TAP_176
*3233 TAP_177
*3234 TAP_178
*3235 TAP_179
*3236 TAP_180
*3237 TAP_181
*3238 TAP_182
*3239 TAP_183
*3240 TAP_184
*3241 TAP_185
*3242 TAP_186
*3243 TAP_187
*3244 TAP_188
*3245 TAP_189
*3246 TAP_190
*3247 TAP_191
*3248 TAP_192
*3249 TAP_193
*3250 TAP_194
*3251 TAP_195
*3252 TAP_196
*3253 TAP_197
*3254 TAP_198
*3255 TAP_199
*3256 TAP_200
*3257 TAP_201
*3258 TAP_202
*3259 TAP_203
*3260 TAP_204
*3261 TAP_205
*3262 TAP_206
*3263 TAP_207
*3264 TAP_208
*3265 TAP_209
*3266 TAP_210
*3267 TAP_211
*3268 TAP_212
*3269 TAP_213
*3270 TAP_214
*3271 TAP_215
*3272 TAP_216
*3273 TAP_217
*3274 TAP_218
*3275 TAP_219
*3276 TAP_220
*3277 TAP_221
*3278 TAP_222
*3279 TAP_223
*3280 TAP_224
*3281 TAP_225
*3282 TAP_226
*3283 TAP_227
*3284 TAP_228
*3285 TAP_229
*3286 TAP_230
*3287 TAP_231
*3288 TAP_232
*3289 TAP_233
*3290 TAP_234
*3291 TAP_235
*3292 TAP_236
*3293 TAP_237
*3294 TAP_238
*3295 TAP_239
*3296 TAP_240
*3297 TAP_241
*3298 TAP_242
*3299 TAP_243
*3300 TAP_244
*3301 TAP_245
*3302 TAP_246
*3303 TAP_247
*3304 TAP_248
*3305 TAP_249
*3306 TAP_250
*3307 TAP_251
*3308 TAP_252
*3309 TAP_253
*3310 TAP_254
*3311 TAP_255
*3312 TAP_256
*3313 TAP_257
*3314 TAP_258
*3315 TAP_259
*3316 TAP_260
*3317 TAP_261
*3318 TAP_262
*3319 TAP_263
*3320 TAP_264
*3321 TAP_265
*3322 TAP_266
*3323 TAP_267
*3324 TAP_268
*3325 TAP_269
*3326 TAP_270
*3327 TAP_271
*3328 TAP_272
*3329 TAP_273
*3330 TAP_274
*3331 TAP_275
*3332 TAP_276
*3333 TAP_277
*3334 TAP_278
*3335 TAP_279
*3336 TAP_280
*3337 TAP_281
*3338 TAP_282
*3339 TAP_283
*3340 TAP_284
*3341 TAP_285
*3342 TAP_286
*3343 TAP_287
*3344 TAP_288
*3345 TAP_289
*3346 TAP_290
*3347 TAP_291
*3348 TAP_292
*3349 TAP_293
*3350 TAP_294
*3351 TAP_295
*3352 TAP_296
*3353 TAP_297
*3354 TAP_298
*3355 TAP_299
*3356 TAP_300
*3357 TAP_301
*3358 TAP_302
*3359 TAP_303
*3360 TAP_304
*3361 TAP_305
*3362 TAP_306
*3363 TAP_307
*3364 TAP_308
*3365 TAP_309
*3366 TAP_310
*3367 TAP_311
*3368 TAP_312
*3369 TAP_313
*3370 TAP_314
*3371 TAP_315
*3372 TAP_316
*3373 TAP_317
*3374 TAP_318
*3375 TAP_319
*3376 TAP_320
*3377 TAP_321
*3378 TAP_322
*3379 TAP_323
*3380 TAP_324
*3381 TAP_325
*3382 TAP_326
*3383 TAP_327
*3384 TAP_328
*3385 TAP_329
*3386 TAP_330
*3387 TAP_331
*3388 TAP_332
*3389 TAP_333
*3390 TAP_334
*3391 TAP_335
*3392 TAP_336
*3393 TAP_337
*3394 TAP_338
*3395 TAP_339
*3396 TAP_340
*3397 TAP_341
*3398 TAP_342
*3399 TAP_343
*3400 TAP_344
*3401 TAP_345
*3402 TAP_346
*3403 TAP_347
*3404 TAP_348
*3405 TAP_349
*3406 TAP_350
*3407 TAP_351
*3408 TAP_352
*3409 TAP_353
*3410 TAP_354
*3411 TAP_355
*3412 TAP_356
*3413 TAP_357
*3414 TAP_358
*3415 TAP_359
*3416 TAP_360
*3417 TAP_361
*3418 TAP_362
*3419 TAP_363
*3420 TAP_364
*3421 TAP_365
*3422 TAP_366
*3423 TAP_367
*3424 TAP_368
*3425 TAP_369
*3426 TAP_370
*3427 TAP_371
*3428 TAP_372
*3429 TAP_373
*3430 TAP_374
*3431 TAP_375
*3432 TAP_376
*3433 TAP_377
*3434 TAP_378
*3435 TAP_379
*3436 TAP_380
*3437 TAP_381
*3438 TAP_382
*3439 TAP_383
*3440 TAP_384
*3441 TAP_385
*3442 TAP_386
*3443 TAP_387
*3444 TAP_388
*3445 TAP_389
*3446 TAP_390
*3447 TAP_391
*3448 TAP_392
*3449 TAP_393
*3450 TAP_394
*3451 TAP_395
*3452 TAP_396
*3453 TAP_397
*3454 TAP_398
*3455 TAP_399
*3456 TAP_400
*3457 TAP_401
*3458 TAP_402
*3459 TAP_403
*3460 TAP_404
*3461 TAP_405
*3462 TAP_406
*3463 TAP_407
*3464 TAP_408
*3465 TAP_409
*3466 TAP_410
*3467 TAP_411
*3468 TAP_412
*3469 TAP_413
*3470 TAP_414
*3471 TAP_415
*3472 TAP_416
*3473 TAP_417
*3474 TAP_418
*3475 TAP_419
*3476 TAP_420
*3477 TAP_421
*3478 TAP_422
*3479 TAP_423
*3480 TAP_424
*3481 TAP_425
*3482 TAP_426
*3483 TAP_427
*3484 TAP_428
*3485 TAP_429
*3486 TAP_430
*3487 TAP_431
*3488 TAP_432
*3489 TAP_433
*3490 TAP_434
*3491 TAP_435
*3492 TAP_436
*3493 TAP_437
*3494 TAP_438
*3495 TAP_439
*3496 TAP_440
*3497 TAP_441
*3498 TAP_442
*3499 TAP_443
*3500 TAP_444
*3501 TAP_445
*3502 TAP_446
*3503 TAP_447
*3504 TAP_448
*3505 TAP_449
*3506 TAP_450
*3507 TAP_451
*3508 TAP_452
*3509 TAP_453
*3510 TAP_454
*3511 TAP_455
*3512 TAP_456
*3513 TAP_457
*3514 TAP_458
*3515 TAP_459
*3516 TAP_460
*3517 TAP_461
*3518 TAP_462
*3519 TAP_463
*3520 TAP_464
*3521 TAP_465
*3522 TAP_466
*3523 TAP_467
*3524 TAP_468
*3525 TAP_469
*3526 TAP_470
*3527 TAP_471
*3528 TAP_472
*3529 TAP_473
*3530 TAP_474
*3531 TAP_475
*3532 TAP_476
*3533 TAP_477
*3534 TAP_478
*3535 TAP_479
*3536 TAP_480
*3537 TAP_481
*3538 TAP_482
*3539 TAP_483
*3540 TAP_484
*3541 TAP_485
*3542 TAP_486
*3543 TAP_487
*3544 TAP_488
*3545 TAP_489
*3546 TAP_490
*3547 TAP_491
*3548 TAP_492
*3549 TAP_493
*3550 TAP_494
*3551 TAP_495
*3552 TAP_496
*3553 TAP_497
*3554 TAP_498
*3555 TAP_499
*3556 TAP_500
*3557 TAP_501
*3558 TAP_502
*3559 TAP_503
*3560 TAP_504
*3561 TAP_505
*3562 TAP_506
*3563 TAP_507
*3564 TAP_508
*3565 TAP_509
*3566 TAP_510
*3567 TAP_511
*3568 TAP_512
*3569 TAP_513
*3570 TAP_514
*3571 TAP_515
*3572 TAP_516
*3573 TAP_517
*3574 TAP_518
*3575 TAP_519
*3576 TAP_520
*3577 TAP_521
*3578 TAP_522
*3579 TAP_523
*3580 TAP_524
*3581 TAP_525
*3582 TAP_526
*3583 TAP_527
*3584 TAP_528
*3585 TAP_529
*3586 TAP_530
*3587 TAP_531
*3588 TAP_532
*3589 TAP_533
*3590 TAP_534
*3591 TAP_535
*3592 TAP_536
*3593 TAP_537
*3594 TAP_538
*3595 TAP_539
*3596 TAP_540
*3597 TAP_541
*3598 TAP_542
*3599 TAP_543
*3600 TAP_544
*3601 TAP_545
*3602 TAP_546
*3603 TAP_547
*3604 TAP_548
*3605 TAP_549
*3606 TAP_550
*3607 TAP_551
*3608 TAP_552
*3609 TAP_553
*3610 TAP_554
*3611 TAP_555
*3612 TAP_556
*3613 TAP_557
*3614 TAP_558
*3615 TAP_559
*3616 TAP_560
*3617 TAP_561
*3618 TAP_562
*3619 TAP_563
*3620 TAP_564
*3621 TAP_565
*3622 TAP_566
*3623 TAP_567
*3624 TAP_568
*3625 TAP_569
*3626 TAP_570
*3627 TAP_571
*3628 TAP_572
*3629 TAP_573
*3630 TAP_574
*3631 TAP_575
*3632 TAP_576
*3633 TAP_577
*3634 TAP_578
*3635 TAP_579
*3636 TAP_580
*3637 TAP_581
*3638 TAP_582
*3639 TAP_583
*3640 TAP_584
*3641 TAP_585
*3642 TAP_586
*3643 TAP_587
*3644 TAP_588
*3645 TAP_589
*3646 TAP_590
*3647 TAP_591
*3648 TAP_592
*3649 TAP_593
*3650 TAP_594
*3651 TAP_595
*3652 TAP_596
*3653 TAP_597
*3654 TAP_598
*3655 _219_
*3656 _220_
*3657 _221_
*3658 _222_
*3659 _223_
*3660 _224_
*3661 _225_
*3662 _226_
*3663 _227_
*3664 _228_
*3665 _229_
*3666 _230_
*3667 _231_
*3668 _232_
*3669 _233_
*3670 _234_
*3671 _235_
*3672 _236_
*3673 _237_
*3674 _238_
*3675 _239_
*3676 _240_
*3677 _241_
*3678 _242_
*3679 _243_
*3680 _244_
*3681 _245_
*3682 _246_
*3683 _247_
*3684 _248_
*3685 _249_
*3686 _250_
*3687 _251_
*3688 _252_
*3689 _253_
*3690 _254_
*3691 _255_
*3692 _256_
*3693 _257_
*3694 _258_
*3695 _259_
*3696 _260_
*3697 _261_
*3698 _262_
*3699 _263_
*3700 _264_
*3701 _265_
*3702 _266_
*3703 _267_
*3704 _268_
*3705 _269_
*3706 _270_
*3707 _271_
*3708 _272_
*3709 _273_
*3710 _274_
*3711 _275_
*3712 _276_
*3713 _277_
*3714 _278_
*3715 _279_
*3716 _280_
*3717 _281_
*3718 _282_
*3719 _283_
*3720 _284_
*3721 _285_
*3722 _286_
*3723 _287_
*3724 _288_
*3725 _289_
*3726 _290_
*3727 _291_
*3728 _292_
*3729 _293_
*3730 _294_
*3731 _295_
*3732 _296_
*3733 _297_
*3734 _298_
*3735 _299_
*3736 _300_
*3737 _301_
*3738 _302_
*3739 _303_
*3740 _304_
*3741 _305_
*3742 _306_
*3743 _307_
*3744 _308_
*3745 _309_
*3746 _310_
*3747 _311_
*3748 _312_
*3749 _313_
*3750 _314_
*3751 _315_
*3752 _316_
*3753 _317_
*3754 _318_
*3755 _319_
*3756 _320_
*3757 _321_
*3758 _322_
*3759 _323_
*3760 _324_
*3761 _325_
*3762 _326_
*3763 _327_
*3764 _328_
*3765 _329_
*3766 _330_
*3767 _331_
*3768 _332_
*3769 _333_
*3770 _334_
*3771 _335_
*3772 _336_
*3773 _337_
*3774 _338_
*3775 _339_
*3776 _340_
*3777 _341_
*3778 _342_
*3779 _343_
*3780 _344_
*3781 _345_
*3782 _346_
*3783 _347_
*3784 _348_
*3785 _349_
*3786 _350_
*3787 _351_
*3788 _352_
*3789 _353_
*3790 _354_
*3791 _355_
*3792 _356_
*3793 _357_
*3794 _358_
*3795 _359_
*3796 _360_
*3797 _361_
*3798 _362_
*3799 _363_
*3800 _364_
*3801 _365_
*3802 _366_
*3803 _367_
*3804 _368_
*3805 _369_
*3806 _370_
*3807 _371_
*3808 _372_
*3809 _373_
*3810 _374_
*3811 _375_
*3812 _376_
*3813 _377_
*3814 _378_
*3815 _379_
*3816 _380_
*3817 _381_
*3818 _382_
*3819 _383_
*3820 _384_
*3821 _385_
*3822 _386_
*3823 _387_
*3824 _388_
*3825 _389_
*3826 _390_
*3827 _391_
*3828 _392_
*3829 _393_
*3830 _394_
*3831 _395_
*3832 _396_
*3833 _397_
*3834 _398_
*3835 _399_
*3836 _400_
*3837 _401_
*3838 _402_
*3839 _403_
*3840 _404_
*3841 _405_
*3842 _406_
*3843 _407_
*3844 _408_
*3845 _409_
*3846 _410_
*3847 _411_
*3848 _412_
*3849 _413_
*3850 _414_
*3851 _415_
*3852 _416_
*3853 _417_
*3854 _418_
*3855 _419_
*3856 _420_
*3857 _421_
*3858 _422_
*3859 _423_
*3860 _424_
*3861 _425_
*3862 _426_
*3863 _427_
*3864 _428_
*3865 _429_
*3866 _430_
*3867 _431_
*3868 _432_
*3869 _433_
*3870 _434_
*3871 _435_
*3872 _436_
*3873 _437_
*3874 _438_
*3875 _439_
*3876 _440_
*3877 _441_
*3878 _442_
*3879 _443_
*3880 _444_
*3881 _445_
*3882 _446_
*3883 _447_
*3884 _448_
*3885 _449_
*3886 _450_
*3887 _451_
*3888 clkbuf_0_clk
*3889 clkbuf_1_0__f_clk
*3890 clkbuf_1_1__f_clk
*3891 fanout37
*3892 hold1
*3893 hold2
*3894 hold3
*3895 hold4
*3896 hold5
*3897 input1
*3898 input10
*3899 input11
*3900 input12
*3901 input13
*3902 input14
*3903 input15
*3904 input16
*3905 input17
*3906 input18
*3907 input19
*3908 input2
*3909 input20
*3910 input21
*3911 input22
*3912 input3
*3913 input4
*3914 input5
*3915 input6
*3916 input7
*3917 input8
*3918 input9
*3919 output23
*3920 output24
*3921 output25
*3922 output26
*3923 output27
*3924 output28
*3925 output29
*3926 output30
*3927 output31
*3928 output32
*3929 output33
*3930 output34
*3931 output35
*3932 output36

*PORTS
clk I
data_in[0] I
data_in[1] I
data_in[2] I
data_in[3] I
data_in[4] I
data_in[5] I
data_in[6] I
data_in[7] I
int4_out[0] O
int4_out[1] O
int4_out[2] O
int4_out[3] O
is_outlier O
round_mode I
rst_n I
scale[0] I
scale[1] I
scale[2] I
scale[3] I
sideband_out[0] O
sideband_out[1] O
sideband_out[2] O
sideband_out[3] O
sideband_out[4] O
sideband_out[5] O
sideband_out[6] O
sideband_out[7] O
threshold[0] I
threshold[1] I
threshold[2] I
threshold[3] I
threshold[4] I
threshold[5] I
threshold[6] I
threshold[7] I
valid_in I
valid_out O

*D_NET *3 0.0133996
*CONN
*P clk I
*I *3888:A I *D sky130_fd_sc_hd__clkbuf_16
*CAP
1 clk 0.00144246
2 *3888:A 0
3 *3:13 0.00489141
4 *3:11 0.00633387
5 *3:11 *269:10 0
6 *3:11 *302:12 0
7 *3:13 *3695:C 5.51222e-05
8 *3:13 *3697:B1 1.20837e-05
9 *3:13 *3699:A 0
10 *3:13 *3727:A 0
11 *3:13 *246:42 4.18957e-05
12 *3:13 *246:62 2.35393e-05
13 *3:13 *247:63 0.000114083
14 *3:13 *250:14 0
15 *3:13 *251:12 0.000166513
16 *3:13 *251:21 0
17 *3:13 *262:12 0.000245025
18 *3:13 *262:29 7.57281e-06
19 *3:13 *265:14 0
20 *3:13 *277:35 0
21 *3:13 *301:82 6.60558e-05
*RES
1 clk *3:11 32.8761 
2 *3:11 *3:13 95.7518 
3 *3:13 *3888:A 38 
*END

*D_NET *4 0.000671296
*CONN
*P data_in[0] I
*I *3897:A I *D sky130_fd_sc_hd__clkbuf_2
*CAP
1 data_in[0] 0.000335648
2 *3897:A 0
3 *4:13 0.000335648
*RES
1 data_in[0] *4:13 27.7096 
2 *4:13 *3897:A 23 
*END

*D_NET *5 0.000652303
*CONN
*P data_in[1] I
*I *3908:A I *D sky130_fd_sc_hd__clkbuf_2
*CAP
1 data_in[1] 0.000326152
2 *3908:A 0
3 *5:13 0.000326152
4 *5:13 *277:8 0
*RES
1 data_in[1] *5:13 27.7096 
2 *5:13 *3908:A 23 
*END

*D_NET *6 0.00122588
*CONN
*P data_in[2] I
*I *3912:A I *D sky130_fd_sc_hd__buf_1
*CAP
1 data_in[2] 0.00053911
2 *3912:A 0
3 *6:11 0.00053911
4 *6:11 *3927:A 0.000147656
*RES
1 data_in[2] *6:11 27.18 
2 *6:11 *3912:A 23 
*END

*D_NET *7 0.00115256
*CONN
*P data_in[3] I
*I *3913:A I *D sky130_fd_sc_hd__clkbuf_4
*CAP
1 data_in[3] 0.000548998
2 *3913:A 0.000548998
3 *3913:A *300:12 5.45644e-05
*RES
1 data_in[3] *3913:A 49.5586 
*END

*D_NET *8 0.00111758
*CONN
*P data_in[4] I
*I *3914:A I *D sky130_fd_sc_hd__clkbuf_4
*CAP
1 data_in[4] 0.000541474
2 *3914:A 0.000541474
3 *3914:A *300:8 3.46302e-05
*RES
1 data_in[4] *3914:A 49.5586 
*END

*D_NET *9 0.00110603
*CONN
*P data_in[5] I
*I *3915:A I *D sky130_fd_sc_hd__clkbuf_4
*CAP
1 data_in[5] 0.000524197
2 *3915:A 0.000524197
3 *3915:A *266:8 5.76359e-05
*RES
1 data_in[5] *3915:A 49.5586 
*END

*D_NET *10 0.00126479
*CONN
*P data_in[6] I
*I *3916:A I *D sky130_fd_sc_hd__buf_4
*CAP
1 data_in[6] 0.000539679
2 *3916:A 0.000539679
3 *3916:A *302:6 0.000185434
*RES
1 data_in[6] *3916:A 49.9936 
*END

*D_NET *11 0.00087874
*CONN
*P data_in[7] I
*I *3917:A I *D sky130_fd_sc_hd__buf_2
*CAP
1 data_in[7] 0.00043937
2 *3917:A 0.00043937
*RES
1 data_in[7] *3917:A 47.4664 
*END

*D_NET *12 0.000681047
*CONN
*P int4_out[0] O
*I *3919:X O *D sky130_fd_sc_hd__clkbuf_4
*CAP
1 int4_out[0] 0.000328674
2 *3919:X 0.000328674
3 int4_out[0] *277:8 2.36993e-05
*RES
1 *3919:X int4_out[0] 47.7969 
*END

*D_NET *13 0.000615924
*CONN
*P int4_out[1] O
*I *3920:X O *D sky130_fd_sc_hd__buf_2
*CAP
1 int4_out[1] 0.000270652
2 *3920:X 0.000270652
3 int4_out[1] *271:8 7.46212e-05
*RES
1 *3920:X int4_out[1] 47.8691 
*END

*D_NET *14 0.0014893
*CONN
*P int4_out[2] O
*I *3921:X O *D sky130_fd_sc_hd__clkbuf_4
*CAP
1 int4_out[2] 0.00043927
2 *3921:X 0.000273879
3 *14:8 0.000713149
4 *14:8 *3921:A 4.53862e-05
5 *14:8 *266:8 1.4269e-05
6 *14:8 *266:14 3.34276e-06
*RES
1 *3921:X *14:8 41.9564 
2 *14:8 int4_out[2] 9.40429 
*END

*D_NET *15 0.000748522
*CONN
*P int4_out[3] O
*I *3922:X O *D sky130_fd_sc_hd__clkbuf_4
*CAP
1 int4_out[3] 0.000362587
2 *3922:X 0.000362587
3 int4_out[3] *277:8 2.33476e-05
*RES
1 *3922:X int4_out[3] 47.6576 
*END

*D_NET *16 0.000737769
*CONN
*P is_outlier O
*I *3923:X O *D sky130_fd_sc_hd__clkbuf_4
*CAP
1 is_outlier 9.75781e-05
2 *3923:X 0.000271306
3 *16:10 0.000368884
4 *16:10 *277:8 0
*RES
1 *3923:X *16:10 42.0289 
2 *16:10 is_outlier 8.32853 
*END

*D_NET *18 0.000539116
*CONN
*P rst_n I
*I *3918:A I *D sky130_fd_sc_hd__buf_2
*CAP
1 rst_n 0.000269558
2 *3918:A 0.000269558
*RES
1 rst_n *3918:A 49.1383 
*END

*D_NET *19 0.000699589
*CONN
*P scale[0] I
*I *3898:A I *D sky130_fd_sc_hd__buf_2
*CAP
1 scale[0] 0.000349795
2 *3898:A 0
3 *19:13 0.000349795
4 *19:13 *271:8 0
*RES
1 scale[0] *19:13 27.899 
2 *19:13 *3898:A 23 
*END

*D_NET *20 0.00150771
*CONN
*P scale[1] I
*I *3899:A I *D sky130_fd_sc_hd__buf_2
*CAP
1 scale[1] 0.000753856
2 *3899:A 0
3 *20:9 0.000753856
*RES
1 scale[1] *20:9 30.9914 
2 *20:9 *3899:A 23 
*END

*D_NET *21 0.00104114
*CONN
*P scale[2] I
*I *3900:A I *D sky130_fd_sc_hd__buf_2
*CAP
1 scale[2] 0.000520568
2 *3900:A 0.000520568
*RES
1 scale[2] *3900:A 49.0821 
*END

*D_NET *22 0.000717501
*CONN
*P scale[3] I
*I *3901:A I *D sky130_fd_sc_hd__buf_2
*CAP
1 scale[3] 0.00035875
2 *3901:A 0
3 *22:13 0.00035875
*RES
1 scale[3] *22:13 28.2896 
2 *22:13 *3901:A 23 
*END

*D_NET *23 0.000740866
*CONN
*P sideband_out[0] O
*I *3924:X O *D sky130_fd_sc_hd__clkbuf_4
*CAP
1 sideband_out[0] 0.000370433
2 *3924:X 0.000370433
*RES
1 *3924:X sideband_out[0] 45.9957 
*END

*D_NET *24 0.000631201
*CONN
*P sideband_out[1] O
*I *3925:X O *D sky130_fd_sc_hd__clkbuf_4
*CAP
1 sideband_out[1] 0.000315601
2 *3925:X 0.000315601
3 sideband_out[1] *288:27 0
*RES
1 *3925:X sideband_out[1] 48.4047 
*END

*D_NET *25 0.00108977
*CONN
*P sideband_out[2] O
*I *3926:X O *D sky130_fd_sc_hd__clkbuf_4
*CAP
1 sideband_out[2] 0.000473903
2 *3926:X 0.000473903
3 sideband_out[2] *302:6 0.00014196
*RES
1 *3926:X sideband_out[2] 47.57 
*END

*D_NET *26 0.00131866
*CONN
*P sideband_out[3] O
*I *3927:X O *D sky130_fd_sc_hd__clkbuf_4
*CAP
1 sideband_out[3] 0.000646799
2 *3927:X 0.000646799
3 sideband_out[3] *3927:A 2.5059e-05
*RES
1 *3927:X sideband_out[3] 49.9314 
*END

*D_NET *27 0.00060592
*CONN
*P sideband_out[4] O
*I *3928:X O *D sky130_fd_sc_hd__clkbuf_4
*CAP
1 sideband_out[4] 0.00030296
2 *3928:X 0.00030296
*RES
1 *3928:X sideband_out[4] 47.7004 
*END

*D_NET *28 0.000740866
*CONN
*P sideband_out[5] O
*I *3929:X O *D sky130_fd_sc_hd__clkbuf_4
*CAP
1 sideband_out[5] 0.000370433
2 *3929:X 0.000370433
*RES
1 *3929:X sideband_out[5] 45.9957 
*END

*D_NET *29 0.000740866
*CONN
*P sideband_out[6] O
*I *3930:X O *D sky130_fd_sc_hd__clkbuf_4
*CAP
1 sideband_out[6] 0.000370433
2 *3930:X 0.000370433
*RES
1 *3930:X sideband_out[6] 45.9957 
*END

*D_NET *30 0.000561164
*CONN
*P sideband_out[7] O
*I *3931:X O *D sky130_fd_sc_hd__clkbuf_4
*CAP
1 sideband_out[7] 0.000280582
2 *3931:X 0.000280582
*RES
1 *3931:X sideband_out[7] 47.5169 
*END

*D_NET *31 0.00072525
*CONN
*P threshold[0] I
*I *3902:A I *D sky130_fd_sc_hd__buf_1
*CAP
1 threshold[0] 0.000362625
2 *3902:A 0
3 *31:15 0.000362625
*RES
1 threshold[0] *31:15 28.8252 
2 *31:15 *3902:A 23 
*END

*D_NET *32 0.00085858
*CONN
*P threshold[1] I
*I *3903:A I *D sky130_fd_sc_hd__buf_1
*CAP
1 threshold[1] 0.00042929
2 *3903:A 0.00042929
*RES
1 threshold[1] *3903:A 47.4664 
*END

*D_NET *33 0.000574626
*CONN
*P threshold[2] I
*I *3904:A I *D sky130_fd_sc_hd__dlymetal6s2s_1
*CAP
1 threshold[2] 0.000267306
2 *3904:A 0.000267306
3 *3904:A *271:8 4.00129e-05
*RES
1 threshold[2] *3904:A 47.7832 
*END

*D_NET *34 0.00142635
*CONN
*P threshold[3] I
*I *3905:A I *D sky130_fd_sc_hd__clkbuf_2
*CAP
1 threshold[3] 0.000713177
2 *3905:A 0
3 *34:9 0.000713177
*RES
1 threshold[3] *34:9 30.37 
2 *34:9 *3905:A 23 
*END

*D_NET *35 0.00107212
*CONN
*P threshold[4] I
*I *3906:A I *D sky130_fd_sc_hd__buf_1
*CAP
1 threshold[4] 0.000506917
2 *3906:A 0.000506917
3 *3906:A *266:14 5.82853e-05
*RES
1 threshold[4] *3906:A 49.0821 
*END

*D_NET *36 0.00111314
*CONN
*P threshold[5] I
*I *3907:A I *D sky130_fd_sc_hd__buf_1
*CAP
1 threshold[5] 0.000501234
2 *3907:A 0.000501234
3 *3907:A *296:6 1.84917e-05
4 *3907:A *296:12 9.21802e-05
*RES
1 threshold[5] *3907:A 49.0821 
*END

*D_NET *37 0.00117163
*CONN
*P threshold[6] I
*I *3909:A I *D sky130_fd_sc_hd__buf_1
*CAP
1 threshold[6] 0.000443853
2 *3909:A 0.000443853
3 *3909:A *302:6 0.00014196
4 *3909:A *303:12 0.00014196
*RES
1 threshold[6] *3909:A 48.2743 
*END

*D_NET *38 0.000590602
*CONN
*P threshold[7] I
*I *3910:A I *D sky130_fd_sc_hd__clkbuf_2
*CAP
1 threshold[7] 0.000295301
2 *3910:A 0
3 *38:13 0.000295301
*RES
1 threshold[7] *38:13 27.0053 
2 *38:13 *3910:A 23 
*END

*D_NET *39 0.00129947
*CONN
*P valid_in I
*I *3911:A I *D sky130_fd_sc_hd__clkbuf_2
*CAP
1 valid_in 0.000649737
2 *3911:A 0
3 *39:15 0.000649737
*RES
1 valid_in *39:15 30.644 
2 *39:15 *3911:A 23 
*END

*D_NET *40 0.000599998
*CONN
*P valid_out O
*I *3932:X O *D sky130_fd_sc_hd__buf_2
*CAP
1 valid_out 0.000299999
2 *3932:X 0.000299999
3 valid_out *288:27 0
*RES
1 *3932:X valid_out 47.8691 
*END

*D_NET *41 0.00183838
*CONN
*I *3874:D I *D sky130_fd_sc_hd__dfrtp_1
*I *3691:X O *D sky130_fd_sc_hd__o21ba_1
*CAP
1 *3874:D 0
2 *3691:X 0.000312712
3 *41:10 0.000312712
4 *41:10 *3856:A 6.48142e-05
5 *41:10 *3872:A 2.93747e-05
6 *41:10 *3872:B 9.8971e-06
7 *41:10 *210:10 0.000296026
8 *41:10 *210:25 2.93845e-05
9 *41:10 *210:51 0.000222104
10 *41:10 *261:10 0.000129513
11 *41:10 *261:16 0.000218952
12 *41:10 *261:64 0.00021289
*RES
1 *3691:X *41:10 47.1143 
2 *41:10 *3874:D 38 
*END

*D_NET *42 0.00122678
*CONN
*I *3876:D I *D sky130_fd_sc_hd__dfrtp_1
*I *3847:X O *D sky130_fd_sc_hd__a22o_1
*CAP
1 *3876:D 8.65094e-05
2 *3847:X 0.000290481
3 *42:10 0.000376991
4 *3876:D *3876:CLK 7.44354e-05
5 *42:10 *199:16 0.000197956
6 *42:10 *244:64 9.84794e-05
7 *42:10 *261:92 6.48049e-05
8 *42:10 *261:104 3.71198e-05
*RES
1 *3847:X *42:10 44.525 
2 *42:10 *3876:D 39.5743 
*END

*D_NET *43 0.000706353
*CONN
*I *3877:D I *D sky130_fd_sc_hd__dfrtp_2
*I *3851:X O *D sky130_fd_sc_hd__a22o_1
*CAP
1 *3877:D 5.82158e-05
2 *3851:X 7.8075e-05
3 *43:8 0.000136291
4 *3877:D *3877:CLK 6.17437e-06
5 *3877:D *3877:RESET_B 0.000141954
6 *43:8 *244:39 7.89502e-05
7 *43:8 *261:79 6.48049e-05
8 *43:8 *261:92 0.000141888
*RES
1 *3851:X *43:8 40.61 
2 *43:8 *3877:D 39.5743 
*END

*D_NET *44 0.000986618
*CONN
*I *3878:D I *D sky130_fd_sc_hd__dfrtp_1
*I *3855:X O *D sky130_fd_sc_hd__a22o_1
*CAP
1 *3878:D 0
2 *3855:X 0.000388272
3 *44:10 0.000388272
4 *44:10 *278:10 0.000138718
5 *44:10 *301:10 7.1357e-05
*RES
1 *3855:X *44:10 44.7736 
2 *44:10 *3878:D 38 
*END

*D_NET *45 0.000347816
*CONN
*I *3879:D I *D sky130_fd_sc_hd__dfrtp_1
*I *3857:X O *D sky130_fd_sc_hd__a21bo_1
*CAP
1 *3879:D 0
2 *3857:X 0.00013051
3 *45:10 0.00013051
4 *45:10 *211:100 7.28526e-05
5 *45:10 *244:18 1.39431e-05
6 *45:10 *261:64 0
*RES
1 *3857:X *45:10 40.5271 
2 *45:10 *3879:D 38 
*END

*D_NET *46 0.00048649
*CONN
*I *3880:D I *D sky130_fd_sc_hd__dfrtp_1
*I *3859:X O *D sky130_fd_sc_hd__a31o_1
*CAP
1 *3880:D 7.91957e-05
2 *3859:X 0.000110774
3 *46:8 0.00018997
4 *3880:D *293:22 0.00010655
5 *46:8 *211:14 0
6 *46:8 *214:19 0
*RES
1 *3859:X *46:8 39.9057 
2 *46:8 *3880:D 40.0507 
*END

*D_NET *47 0.000493169
*CONN
*I *3881:D I *D sky130_fd_sc_hd__dfrtp_1
*I *3861:X O *D sky130_fd_sc_hd__a31o_1
*CAP
1 *3881:D 0.000198984
2 *3861:X 0.000198984
3 *3881:D *3861:A3 0
4 *3881:D *3881:CLK 2.4754e-05
5 *3881:D *243:104 0
6 *3881:D *243:117 5.50049e-05
7 *3881:D *304:42 1.54424e-05
*RES
1 *3861:X *3881:D 49.0243 
*END

*D_NET *48 0.000252484
*CONN
*I *3882:D I *D sky130_fd_sc_hd__dfrtp_1
*I *3863:X O *D sky130_fd_sc_hd__a31o_1
*CAP
1 *3882:D 0
2 *3863:X 9.81713e-05
3 *48:8 9.81713e-05
4 *48:8 *3864:A 0
5 *48:8 *209:121 5.61414e-05
*RES
1 *3863:X *48:8 40.2579 
2 *48:8 *3882:D 38 
*END

*D_NET *49 0.000316072
*CONN
*I *3883:D I *D sky130_fd_sc_hd__dfrtp_1
*I *3865:X O *D sky130_fd_sc_hd__a31o_1
*CAP
1 *3883:D 0
2 *3865:X 0.000117753
3 *49:10 0.000117753
4 *49:10 *3865:A3 2.30292e-05
5 *49:10 *3883:CLK 3.46181e-05
6 *49:10 *296:85 2.29192e-05
*RES
1 *3865:X *49:10 40.175 
2 *49:10 *3883:D 38 
*END

*D_NET *50 0.000575251
*CONN
*I *3884:D I *D sky130_fd_sc_hd__dfrtp_2
*I *3867:X O *D sky130_fd_sc_hd__a31o_1
*CAP
1 *3884:D 0
2 *3867:X 0.000194942
3 *50:10 0.000194942
4 *50:10 *3867:A1 0.00014196
5 *50:10 *209:121 4.3407e-05
6 *50:10 *211:51 0
*RES
1 *3867:X *50:10 41.48 
2 *50:10 *3884:D 38 
*END

*D_NET *51 0.00069143
*CONN
*I *3885:D I *D sky130_fd_sc_hd__dfrtp_1
*I *3869:X O *D sky130_fd_sc_hd__a31o_1
*CAP
1 *3885:D 2.24548e-05
2 *3869:X 0.0002237
3 *51:8 0.000246155
4 *3885:D *3870:B 5.50106e-05
5 *51:8 *3885:CLK 0
6 *51:8 *3885:RESET_B 0
7 *51:8 *52:8 0.00014411
8 *51:8 *293:38 0
*RES
1 *3869:X *51:8 42.3707 
2 *51:8 *3885:D 38.6214 
*END

*D_NET *52 0.000756549
*CONN
*I *3886:D I *D sky130_fd_sc_hd__dfrtp_1
*I *3871:X O *D sky130_fd_sc_hd__a31o_1
*CAP
1 *3886:D 0.000125852
2 *3871:X 5.78738e-05
3 *52:8 0.000183726
4 *3886:D *3886:RESET_B 2.8521e-05
5 *3886:D *261:33 5.25848e-05
6 *3886:D *293:22 9.76358e-05
7 *3886:D *293:32 2.03425e-05
8 *52:8 *3885:CLK 2.22183e-05
9 *52:8 *261:16 2.36844e-05
10 *51:8 *52:8 0.00014411
*RES
1 *3871:X *52:8 39.9057 
2 *52:8 *3886:D 41.0036 
*END

*D_NET *53 0.000363628
*CONN
*I *3887:D I *D sky130_fd_sc_hd__dfrtp_1
*I *3873:X O *D sky130_fd_sc_hd__a31o_1
*CAP
1 *3887:D 0.000120373
2 *3873:X 0.000120373
3 *3887:D *3887:CLK 2.64616e-05
4 *3887:D *243:47 2.93845e-05
5 *3887:D *243:55 6.70361e-05
*RES
1 *3873:X *3887:D 48.0507 
*END

*D_NET *54 0.00238629
*CONN
*I *3719:A2 I *D sky130_fd_sc_hd__o21ai_1
*I *3732:A I *D sky130_fd_sc_hd__nor2_1
*I *3720:C I *D sky130_fd_sc_hd__or3_1
*I *3707:X O *D sky130_fd_sc_hd__and3_1
*CAP
1 *3719:A2 0.000170755
2 *3732:A 0.000257691
3 *3720:C 0.000297222
4 *3707:X 0
5 *54:6 0.000554914
6 *54:4 0.000170755
7 *3719:A2 *217:43 0.000184527
8 *3719:A2 *217:47 4.66047e-05
9 *3719:A2 *245:56 2.93845e-05
10 *3719:A2 *259:33 2.07744e-05
11 *3720:C *3720:B 0
12 *3720:C *214:19 0.00017731
13 *3720:C *259:33 5.28231e-05
14 *3732:A *79:8 9.84794e-05
15 *3732:A *179:39 4.18957e-05
16 *3732:A *214:19 8.07822e-05
17 *3732:A *245:56 0.000141327
18 *3732:A *259:33 3.76959e-05
19 *3732:A *260:31 2.33476e-05
*RES
1 *3707:X *54:4 23 
2 *54:4 *54:6 15 
3 *54:6 *3720:C 43.8414 
4 *54:6 *3732:A 43.1164 
5 *54:4 *3719:A2 27.205 
*END

*D_NET *55 0.00531345
*CONN
*I *3745:B1_N I *D sky130_fd_sc_hd__a21bo_1
*I *3729:A_N I *D sky130_fd_sc_hd__nand3b_1
*I *3820:A1 I *D sky130_fd_sc_hd__mux2_1
*I *3832:A I *D sky130_fd_sc_hd__and2_1
*I *3822:A1 I *D sky130_fd_sc_hd__o21ai_1
*I *3718:A I *D sky130_fd_sc_hd__xnor2_1
*I *3708:Y O *D sky130_fd_sc_hd__nand2_2
*CAP
1 *3745:B1_N 0.000109123
2 *3729:A_N 0.00010452
3 *3820:A1 0
4 *3832:A 1.97605e-05
5 *3822:A1 0
6 *3718:A 0
7 *3708:Y 1.31028e-05
8 *55:66 0.000592561
9 *55:38 0.000291674
10 *55:26 0.000715264
11 *55:18 0.000664093
12 *55:10 0.000383021
13 *55:6 0.000554301
14 *3729:A_N *3818:A2 9.75779e-05
15 *3729:A_N *260:10 0.000139647
16 *3729:A_N *263:23 0.000141869
17 *3745:B1_N *3729:C 2.96909e-05
18 *3745:B1_N *75:31 1.52259e-05
19 *3745:B1_N *247:14 6.33614e-05
20 *3745:B1_N *260:10 1.01436e-05
21 *3745:B1_N *263:23 0.000261239
22 *3832:A *3819:A3 1.94812e-05
23 *3832:A *3832:B 5.50106e-05
24 *55:6 *3817:B 5.90675e-06
25 *55:10 *3817:B 5.09577e-05
26 *55:10 *3820:S 2.98648e-05
27 *55:18 *3817:B 0.000139346
28 *55:18 *59:10 0
29 *55:18 *164:8 0
30 *55:18 *167:8 2.02517e-05
31 *55:18 *245:12 6.07611e-06
32 *55:18 *302:62 0
33 *55:18 *303:97 3.04021e-05
34 *55:26 *3717:B 3.61695e-05
35 *55:26 *3823:A0 2.41378e-06
36 *55:26 *59:10 0
37 *55:26 *60:8 0
38 *55:26 *252:20 0.000228903
39 *55:26 *257:16 4.61549e-05
40 *55:26 *302:62 0
41 *55:26 *302:71 0
42 *55:38 *3717:B 1.32314e-05
43 *55:38 *3718:B 9.85586e-06
44 *55:38 *3822:A2 5.67058e-05
45 *55:38 *62:10 0
46 *55:38 *65:23 0
47 *55:38 *66:16 1.19692e-05
48 *55:38 *67:10 0
49 *55:38 *168:10 0.000186274
50 *55:38 *168:16 1.32314e-05
51 *55:38 *252:20 4.95081e-05
52 *55:38 *257:16 1.03955e-05
53 *55:66 *3820:S 3.7122e-06
54 *55:66 *247:18 8.78733e-06
55 *55:66 *303:78 4.38638e-05
56 *55:66 *303:97 2.88036e-05
*RES
1 *3708:Y *55:6 23.4971 
2 *55:6 *55:10 2.54786 
3 *55:10 *55:18 19.3293 
4 *55:18 *55:26 23.0993 
5 *55:26 *55:38 35.655 
6 *55:38 *3718:A 23 
7 *55:26 *3822:A1 23 
8 *55:18 *3832:A 38.6214 
9 *55:10 *3820:A1 23 
10 *55:6 *55:66 19.4329 
11 *55:66 *3729:A_N 41.0036 
12 *55:66 *3745:B1_N 41.6664 
*END

*D_NET *56 0.00344704
*CONN
*I *3715:A I *D sky130_fd_sc_hd__and2_1
*I *3821:A I *D sky130_fd_sc_hd__nand2_1
*I *3716:A I *D sky130_fd_sc_hd__nor2_1
*I *3709:X O *D sky130_fd_sc_hd__a31o_1
*CAP
1 *3715:A 0
2 *3821:A 0
3 *3716:A 0
4 *3709:X 0.00065568
5 *56:40 0.000224323
6 *56:23 0.000278063
7 *56:16 0.000199454
8 *56:8 0.000908875
9 *56:8 *61:16 2.30292e-05
10 *56:8 *61:20 7.44161e-06
11 *56:8 *209:10 2.80924e-06
12 *56:8 *249:10 2.93104e-06
13 *56:8 *249:16 2.4754e-05
14 *56:8 *267:44 3.75094e-05
15 *56:8 *301:69 0.000298944
16 *56:16 *3716:B 1.62534e-05
17 *56:16 *61:20 8.06804e-06
18 *56:16 *63:8 8.51243e-05
19 *56:16 *168:10 9.73244e-05
20 *56:23 *3716:B 5.12055e-06
21 *56:23 *61:16 7.11824e-06
22 *56:23 *61:20 5.12055e-06
23 *56:40 *61:20 5.3304e-05
24 *56:40 *61:39 2.08106e-05
25 *56:40 *62:10 0.00012556
26 *56:40 *209:10 0.000130381
27 *56:40 *209:16 0.00011754
28 *56:40 *214:6 0.00010655
29 *56:40 *267:23 4.94766e-06
*RES
1 *3709:X *56:8 32.2179 
2 *56:8 *56:16 33.2521 
3 *56:16 *3716:A 23 
4 *56:8 *56:23 1.20143 
5 *56:23 *3821:A 23 
6 *56:23 *56:40 35.7793 
7 *56:40 *3715:A 23 
*END

*D_NET *57 0.000846627
*CONN
*I *3714:A I *D sky130_fd_sc_hd__xnor2_1
*I *3710:Y O *D sky130_fd_sc_hd__nand2_1
*CAP
1 *3714:A 0
2 *3710:Y 0.000191419
3 *57:10 0.000191419
4 *57:10 *3710:A 2.73782e-05
5 *57:10 *3712:A 6.01055e-05
6 *57:10 *60:8 5.05017e-05
7 *57:10 *217:39 0.000137651
8 *57:10 *267:44 5.05017e-05
9 *57:10 *302:54 0.000137651
*RES
1 *3710:Y *57:10 42.8886 
2 *57:10 *3714:A 38 
*END

*D_NET *58 0.00183566
*CONN
*I *3817:B I *D sky130_fd_sc_hd__nand2_1
*I *3713:B I *D sky130_fd_sc_hd__and3_1
*I *3711:Y O *D sky130_fd_sc_hd__nand2_1
*CAP
1 *3817:B 0.000198925
2 *3713:B 0.000187071
3 *3711:Y 0.000122478
4 *58:8 0.000508474
5 *3713:B *3712:A 3.53997e-05
6 *3713:B *3832:B 5.3304e-05
7 *3713:B *59:10 0.000111852
8 *3713:B *60:8 1.01436e-05
9 *3713:B *166:8 5.45887e-05
10 *3713:B *303:97 5.72749e-05
11 *3817:B *3708:B 0
12 *3817:B *3820:S 1.24376e-05
13 *3817:B *167:8 0.00010018
14 *3817:B *303:97 4.5051e-05
15 *58:8 *3712:A 1.59312e-05
16 *58:8 *166:8 2.96051e-05
17 *58:8 *245:12 3.39231e-05
18 *58:8 *247:33 1.94685e-05
19 *58:8 *272:12 6.07611e-06
20 *58:8 *303:97 3.72639e-05
21 *55:6 *3817:B 5.90675e-06
22 *55:10 *3817:B 5.09577e-05
23 *55:18 *3817:B 0.000139346
*RES
1 *3711:Y *58:8 40.61 
2 *58:8 *3713:B 41.9357 
3 *58:8 *3817:B 42.93 
*END

*D_NET *59 0.00296558
*CONN
*I *3818:A2 I *D sky130_fd_sc_hd__o21ai_1
*I *3819:A2 I *D sky130_fd_sc_hd__a31o_1
*I *3713:C I *D sky130_fd_sc_hd__and3_1
*I *3712:X O *D sky130_fd_sc_hd__or2_1
*CAP
1 *3818:A2 0.000441198
2 *3819:A2 0
3 *3713:C 0
4 *3712:X 0.000221357
5 *59:23 0.000605453
6 *59:14 0.000184731
7 *59:10 0.000241833
8 *3818:A2 *3729:C 5.90675e-06
9 *3818:A2 *3819:B1 1.14154e-05
10 *3818:A2 *3832:B 4.9662e-05
11 *3818:A2 *165:6 0.000454018
12 *3818:A2 *217:27 9.84794e-05
13 *3818:A2 *217:39 5.50106e-05
14 *3818:A2 *300:57 1.24376e-05
15 *59:10 *60:8 2.87445e-05
16 *59:10 *217:43 9.84794e-05
17 *59:10 *303:97 1.14452e-05
18 *59:14 *3819:A3 2.6652e-05
19 *59:23 *3819:A3 0.000197046
20 *59:23 *3832:B 1.22822e-05
21 *3713:B *59:10 0.000111852
22 *3729:A_N *3818:A2 9.75779e-05
23 *55:18 *59:10 0
24 *55:26 *59:10 0
*RES
1 *3712:X *59:10 41.7079 
2 *59:10 *59:14 15.3107 
3 *59:14 *3713:C 23 
4 *59:14 *59:23 3.335 
5 *59:23 *3819:A2 23 
6 *59:23 *3818:A2 33.005 
*END

*D_NET *60 0.000996911
*CONN
*I *3714:B I *D sky130_fd_sc_hd__xnor2_1
*I *3713:X O *D sky130_fd_sc_hd__and3_1
*CAP
1 *3714:B 2.58367e-05
2 *3713:X 0.000225754
3 *60:8 0.000251591
4 *3714:B *252:20 3.71369e-05
5 *3714:B *257:16 5.70419e-05
6 *60:8 *3712:A 6.90024e-05
7 *60:8 *267:44 0
8 *60:8 *302:71 0.000241159
9 *3713:B *60:8 1.01436e-05
10 *55:26 *60:8 0
11 *57:10 *60:8 5.05017e-05
12 *59:10 *60:8 2.87445e-05
*RES
1 *3713:X *60:8 43.075 
2 *60:8 *3714:B 39.0979 
*END

*D_NET *61 0.00169362
*CONN
*I *3821:B I *D sky130_fd_sc_hd__nand2_1
*I *3715:B I *D sky130_fd_sc_hd__and2_1
*I *3716:B I *D sky130_fd_sc_hd__nor2_1
*I *3714:Y O *D sky130_fd_sc_hd__xnor2_1
*CAP
1 *3821:B 0
2 *3715:B 0
3 *3716:B 4.12609e-05
4 *3714:Y 0.000189573
5 *61:39 0.000130462
6 *61:20 0.000272333
7 *61:16 0.000132741
8 *61:10 0.000221705
9 *3716:B *168:10 5.78402e-05
10 *61:10 *62:10 4.55421e-05
11 *61:10 *252:20 4.51908e-05
12 *61:10 *257:16 0.000181125
13 *61:10 *266:45 4.30463e-05
14 *61:16 *209:10 2.32101e-05
15 *61:20 *168:10 4.08664e-05
16 *61:20 *209:10 1.24376e-05
17 *61:39 *62:10 0.000105252
18 *61:39 *63:8 4.77164e-06
19 *56:8 *61:16 2.30292e-05
20 *56:8 *61:20 7.44161e-06
21 *56:16 *3716:B 1.62534e-05
22 *56:16 *61:20 8.06804e-06
23 *56:23 *3716:B 5.12055e-06
24 *56:23 *61:16 7.11824e-06
25 *56:23 *61:20 5.12055e-06
26 *56:40 *61:20 5.3304e-05
27 *56:40 *61:39 2.08106e-05
*RES
1 *3714:Y *61:10 42.3086 
2 *61:10 *61:16 16.1186 
3 *61:16 *61:20 2.07143 
4 *61:20 *3716:B 24.4707 
5 *61:20 *61:39 32.2579 
6 *61:39 *3715:B 23 
7 *61:16 *3821:B 23 
*END

*D_NET *62 0.00114932
*CONN
*I *3717:A I *D sky130_fd_sc_hd__nor2_1
*I *3715:X O *D sky130_fd_sc_hd__and2_1
*CAP
1 *3717:A 0
2 *3715:X 0.000374797
3 *62:10 0.000374797
4 *62:10 *63:8 2.54115e-05
5 *62:10 *64:12 4.29584e-05
6 *62:10 *209:16 5.50049e-05
7 *62:10 *266:45 0
8 *55:38 *62:10 0
9 *56:40 *62:10 0.00012556
10 *61:10 *62:10 4.55421e-05
11 *61:39 *62:10 0.000105252
*RES
1 *3715:X *62:10 43.6964 
2 *62:10 *3717:A 38 
*END

*D_NET *63 0.000853545
*CONN
*I *3717:B I *D sky130_fd_sc_hd__nor2_1
*I *3822:A2 I *D sky130_fd_sc_hd__o21ai_1
*I *3716:Y O *D sky130_fd_sc_hd__nor2_1
*CAP
1 *3717:B 3.51804e-05
2 *3822:A2 1.39194e-05
3 *3716:Y 0.000141934
4 *63:12 6.30222e-05
5 *63:8 0.000155856
6 *3717:B *3823:A0 0
7 *3717:B *257:16 2.02872e-05
8 *3822:A2 *257:16 2.93747e-05
9 *63:8 *64:12 9.60935e-05
10 *63:8 *168:10 5.6211e-05
11 *63:12 *168:16 2.02517e-05
12 *55:26 *3717:B 3.61695e-05
13 *55:38 *3717:B 1.32314e-05
14 *55:38 *3822:A2 5.67058e-05
15 *56:16 *63:8 8.51243e-05
16 *61:39 *63:8 4.77164e-06
17 *62:10 *63:8 2.54115e-05
*RES
1 *3716:Y *63:8 40.9621 
2 *63:8 *63:12 15.4971 
3 *63:12 *3822:A2 23.6214 
4 *63:12 *3717:B 24.1186 
*END

*D_NET *64 0.00110127
*CONN
*I *3718:B I *D sky130_fd_sc_hd__xnor2_1
*I *3717:Y O *D sky130_fd_sc_hd__nor2_1
*CAP
1 *3718:B 5.68189e-05
2 *3717:Y 0.000258395
3 *64:12 0.000315213
4 *3718:B *65:8 1.89095e-05
5 *3718:B *67:10 6.12496e-06
6 *64:12 *260:31 0
7 *64:12 *277:20 0.000296899
8 *55:38 *3718:B 9.85586e-06
9 *62:10 *64:12 4.29584e-05
10 *63:8 *64:12 9.60935e-05
*RES
1 *3717:Y *64:12 47.9487 
2 *64:12 *3718:B 47.1704 
*END

*D_NET *65 0.00180769
*CONN
*I *3719:B1 I *D sky130_fd_sc_hd__o21ai_1
*I *3720:A I *D sky130_fd_sc_hd__or3_1
*I *3718:Y O *D sky130_fd_sc_hd__xnor2_1
*CAP
1 *3719:B1 0
2 *3720:A 0.000158868
3 *3718:Y 6.18878e-05
4 *65:23 0.000194221
5 *65:8 0.000414977
6 *3720:A *3720:B 0.000187129
7 *3720:A *67:10 6.67283e-05
8 *65:8 *67:10 5.50106e-05
9 *65:23 *3720:B 3.1862e-05
10 *65:23 *67:10 0.00034475
11 *65:23 *170:14 0.000273343
12 *65:23 *302:62 0
13 *3718:B *65:8 1.89095e-05
14 *55:38 *65:23 0
*RES
1 *3718:Y *65:8 24.595 
2 *65:8 *3720:A 27.4536 
3 *65:8 *65:23 35.4271 
4 *65:23 *3719:B1 23 
*END

*D_NET *66 0.000772123
*CONN
*I *3721:A I *D sky130_fd_sc_hd__nand2_1
*I *3823:S I *D sky130_fd_sc_hd__mux2_1
*I *3719:Y O *D sky130_fd_sc_hd__o21ai_1
*CAP
1 *3721:A 0
2 *3823:S 0
3 *3719:Y 0.000127181
4 *66:16 0.000176112
5 *66:10 0.000303294
6 *66:10 *217:43 5.56797e-05
7 *66:16 *67:10 9.78872e-05
8 *55:38 *66:16 1.19692e-05
*RES
1 *3719:Y *66:10 25.2164 
2 *66:10 *66:16 32.9621 
3 *66:16 *3823:S 23 
4 *66:10 *3721:A 23 
*END

*D_NET *67 0.00150359
*CONN
*I *3721:B I *D sky130_fd_sc_hd__nand2_1
*I *3720:X O *D sky130_fd_sc_hd__or3_1
*CAP
1 *3721:B 0
2 *3720:X 0.000417303
3 *67:10 0.000417303
4 *67:10 *3720:B 9.84794e-05
5 *3718:B *67:10 6.12496e-06
6 *3720:A *67:10 6.67283e-05
7 *55:38 *67:10 0
8 *65:8 *67:10 5.50106e-05
9 *65:23 *67:10 0.00034475
10 *66:16 *67:10 9.78872e-05
*RES
1 *3720:X *67:10 45.7264 
2 *67:10 *3721:B 38 
*END

*D_NET *68 0.0032919
*CONN
*I *3816:A0 I *D sky130_fd_sc_hd__mux2_1
*I *3826:A1 I *D sky130_fd_sc_hd__o211ai_1
*I *3734:A I *D sky130_fd_sc_hd__xor2_1
*I *3825:A1 I *D sky130_fd_sc_hd__o22a_1
*I *3721:Y O *D sky130_fd_sc_hd__nand2_1
*CAP
1 *3816:A0 6.27163e-05
2 *3826:A1 0
3 *3734:A 4.35715e-05
4 *3825:A1 0
5 *3721:Y 0.000237886
6 *68:42 0.000249494
7 *68:23 0.000448541
8 *68:14 0.000245245
9 *68:10 0.00026494
10 *3734:A *3824:A 1.97597e-05
11 *3734:A *3825:A2 7.37103e-05
12 *3816:A0 *3816:S 9.84851e-05
13 *3816:A0 *3826:C1 6.53382e-05
14 *3816:A0 *162:16 0.000226306
15 *68:10 *3825:B2 6.16531e-05
16 *68:10 *77:14 4.16868e-05
17 *68:10 *79:23 6.6869e-05
18 *68:10 *170:14 0.00022767
19 *68:10 *217:43 5.67058e-05
20 *68:10 *302:62 0
21 *68:14 *3825:A2 5.50106e-05
22 *68:14 *167:8 9.67842e-05
23 *68:23 *3825:A2 0.000367328
24 *68:23 *3825:B1 0
25 *68:23 *81:10 5.67058e-05
26 *68:42 *3824:A 1.32939e-05
27 *68:42 *179:39 4.66036e-05
28 *68:42 *245:37 0.000165593
*RES
1 *3721:Y *68:10 43.3443 
2 *68:10 *68:14 16.0979 
3 *68:14 *3825:A1 23 
4 *68:14 *68:23 5.52036 
5 *68:23 *3734:A 24.7089 
6 *68:23 *68:42 34.0911 
7 *68:42 *3826:A1 23 
8 *68:42 *3816:A0 25.5271 
*END

*D_NET *69 0.00233694
*CONN
*I *3736:A I *D sky130_fd_sc_hd__nand3_1
*I *3737:B1 I *D sky130_fd_sc_hd__a21o_1
*I *3725:A1 I *D sky130_fd_sc_hd__a21bo_1
*I *3722:X O *D sky130_fd_sc_hd__and2_1
*CAP
1 *3736:A 0.000114682
2 *3737:B1 0
3 *3725:A1 1.05327e-05
4 *3722:X 0.000153354
5 *69:29 0.000276084
6 *69:21 0.000471772
7 *69:6 0.000244892
8 *3725:A1 *72:14 5.50049e-05
9 *3736:A *3724:A 7.4573e-05
10 *3736:A *3724:B 1.5769e-05
11 *3736:A *3724:C 6.00453e-05
12 *3736:A *3725:A2 0.000316996
13 *3736:A *3736:C 9.72057e-06
14 *69:6 *72:14 1.24376e-05
15 *69:21 *3724:A 5.64781e-05
16 *69:21 *3725:A2 4.47046e-05
17 *69:21 *72:14 1.48982e-05
18 *69:29 *3743:B 1.14452e-05
19 *69:29 *71:20 4.70953e-05
20 *69:29 *71:33 0.000150047
21 *69:29 *83:10 0.000160191
22 *69:29 *246:85 0
23 *69:29 *296:108 3.62219e-05
*RES
1 *3722:X *69:6 25.0507 
2 *69:6 *3725:A1 23.6214 
3 *69:6 *69:21 2.42357 
4 *69:21 *69:29 34.8886 
5 *69:29 *3737:B1 23 
6 *69:21 *3736:A 27.7643 
*END

*D_NET *70 0.00317865
*CONN
*I *3737:A2 I *D sky130_fd_sc_hd__a21o_1
*I *3725:A2 I *D sky130_fd_sc_hd__a21bo_1
*I *3736:C I *D sky130_fd_sc_hd__nand3_1
*I *3723:X O *D sky130_fd_sc_hd__a22o_1
*CAP
1 *3737:A2 0.000205258
2 *3725:A2 0.00021122
3 *3736:C 4.45069e-05
4 *3723:X 0.000390615
5 *70:12 0.000255727
6 *70:10 0.000595873
7 *3725:A2 *3724:C 2.61526e-05
8 *3725:A2 *71:8 5.3304e-05
9 *3725:A2 *72:14 9.58003e-05
10 *3725:A2 *83:10 0.000139357
11 *3736:C *3724:C 2.93747e-05
12 *3736:C *3779:B1 0
13 *3737:A2 *3742:A1 0
14 *3737:A2 *3749:A 1.14154e-05
15 *3737:A2 *71:41 0.000283873
16 *3737:A2 *82:10 5.75972e-05
17 *3737:A2 *89:8 6.99589e-05
18 *70:10 *3724:C 5.21024e-05
19 *70:10 *71:41 3.70094e-05
20 *70:10 *82:10 2.04774e-05
21 *70:10 *246:62 2.25419e-05
22 *70:10 *247:99 9.36522e-05
23 *70:10 *264:47 5.72853e-05
24 *70:10 *264:51 5.41288e-05
25 *3736:A *3725:A2 0.000316996
26 *3736:A *3736:C 9.72057e-06
27 *69:21 *3725:A2 4.47046e-05
*RES
1 *3723:X *70:10 44.6907 
2 *70:10 *70:12 15 
3 *70:12 *3736:C 24.1186 
4 *70:12 *3725:A2 29.0486 
5 *70:10 *3737:A2 42.6814 
*END

*D_NET *71 0.00318409
*CONN
*I *3737:A1 I *D sky130_fd_sc_hd__a21o_1
*I *3736:B I *D sky130_fd_sc_hd__nand3_1
*I *3725:B1_N I *D sky130_fd_sc_hd__a21bo_1
*I *3724:Y O *D sky130_fd_sc_hd__nand4_1
*CAP
1 *3737:A1 0
2 *3736:B 0
3 *3725:B1_N 0
4 *3724:Y 4.99221e-05
5 *71:41 0.000209702
6 *71:33 0.000379347
7 *71:20 0.000485752
8 *71:8 0.000705319
9 *71:20 *214:88 7.51607e-05
10 *71:20 *214:100 0
11 *71:20 *246:85 9.88083e-06
12 *71:20 *247:112 7.51607e-05
13 *71:33 *3742:A1 5.26556e-05
14 *71:33 *3742:A2 3.91386e-05
15 *71:33 *84:12 0.000139352
16 *71:33 *89:8 8.48502e-06
17 *71:33 *246:85 4.55681e-05
18 *71:41 *82:10 0
19 *71:41 *82:19 0
20 *71:41 *84:12 5.50049e-05
21 *71:41 *89:8 1.40958e-05
22 *71:41 *264:47 0.000268221
23 *3725:A2 *71:8 5.3304e-05
24 *3737:A2 *71:41 0.000283873
25 *69:29 *71:20 4.70953e-05
26 *69:29 *71:33 0.000150047
27 *70:10 *71:41 3.70094e-05
*RES
1 *3724:Y *71:8 38.6214 
2 *71:8 *71:20 33.4415 
3 *71:20 *3725:B1_N 23 
4 *71:8 *71:33 19.3293 
5 *71:33 *71:41 35.2407 
6 *71:41 *3736:B 23 
7 *71:33 *3737:A1 23 
*END

*D_NET *72 0.00254404
*CONN
*I *3727:B I *D sky130_fd_sc_hd__nand3_1
*I *3728:B1 I *D sky130_fd_sc_hd__a21o_1
*I *3725:X O *D sky130_fd_sc_hd__a21bo_1
*CAP
1 *3727:B 1.104e-05
2 *3728:B1 8.73864e-05
3 *3725:X 0.000497572
4 *72:20 0.000208537
5 *72:14 0.000607683
6 *3727:B *3727:C 5.90675e-06
7 *3727:B *3728:A2 5.90675e-06
8 *3728:B1 *3728:A1 1.57571e-05
9 *3728:B1 *3728:A2 5.65874e-05
10 *3728:B1 *74:12 0.000226268
11 *72:14 *3727:A 0
12 *72:14 *213:89 0.000444358
13 *72:14 *214:88 0
14 *72:14 *246:66 9.63918e-05
15 *72:14 *246:85 4.70923e-05
16 *72:20 *3661:A 0
17 *72:20 *3727:C 5.90675e-06
18 *72:20 *3728:A2 4.95081e-05
19 *3725:A1 *72:14 5.50049e-05
20 *3725:A2 *72:14 9.58003e-05
21 *69:6 *72:14 1.24376e-05
22 *69:21 *72:14 1.48982e-05
*RES
1 *3725:X *72:14 47.1764 
2 *72:14 *72:20 17.5479 
3 *72:20 *3728:B1 26.0243 
4 *72:20 *3727:B 23.4971 
*END

*D_NET *73 0.00100396
*CONN
*I *3727:C I *D sky130_fd_sc_hd__nand3_1
*I *3728:A2 I *D sky130_fd_sc_hd__a21o_1
*I *3726:X O *D sky130_fd_sc_hd__a22o_1
*CAP
1 *3727:C 1.104e-05
2 *3728:A2 0.000118485
3 *3726:X 0.000260976
4 *73:12 0.000149582
5 *73:8 0.000281034
6 *3728:A2 *3728:A1 1.24376e-05
7 *73:8 *3664:C_N 4.21594e-06
8 *73:8 *3727:A 4.21594e-06
9 *73:8 *214:77 0
10 *73:8 *217:21 3.81554e-05
11 *73:8 *251:21 0
12 *3727:B *3727:C 5.90675e-06
13 *3727:B *3728:A2 5.90675e-06
14 *3728:B1 *3728:A2 5.65874e-05
15 *72:20 *3727:C 5.90675e-06
16 *72:20 *3728:A2 4.95081e-05
*RES
1 *3726:X *73:8 42.3707 
2 *73:8 *73:12 15.4971 
3 *73:12 *3728:A2 25.5479 
4 *73:12 *3727:C 23.4971 
*END

*D_NET *74 0.00331244
*CONN
*I *3745:A1 I *D sky130_fd_sc_hd__a21bo_1
*I *3730:A I *D sky130_fd_sc_hd__and2_1
*I *3729:B I *D sky130_fd_sc_hd__nand3b_1
*I *3727:Y O *D sky130_fd_sc_hd__nand3_1
*CAP
1 *3745:A1 0
2 *3730:A 0.000111569
3 *3729:B 8.09981e-05
4 *3727:Y 0.000451495
5 *74:25 0.00022231
6 *74:12 0.000643235
7 *3729:B *3729:C 0.00014411
8 *3729:B *260:10 1.80023e-05
9 *3729:B *266:35 0.00019747
10 *3730:A *3730:B 0.000181489
11 *3730:A *272:20 0.000162769
12 *3730:A *302:131 0
13 *74:12 *75:8 0.000517593
14 *74:25 *3729:C 2.55642e-05
15 *74:25 *75:31 5.94125e-05
16 *74:25 *247:14 5.97612e-05
17 *74:25 *266:35 0.00021039
18 *3728:B1 *74:12 0.000226268
*RES
1 *3727:Y *74:12 47.715 
2 *74:12 *3729:B 40.61 
3 *74:12 *74:25 17.9621 
4 *74:25 *3730:A 26.6664 
5 *74:25 *3745:A1 23 
*END

*D_NET *75 0.00313475
*CONN
*I *3745:A2 I *D sky130_fd_sc_hd__a21bo_1
*I *3729:C I *D sky130_fd_sc_hd__nand3b_1
*I *3728:X O *D sky130_fd_sc_hd__a21o_1
*CAP
1 *3745:A2 5.23882e-05
2 *3729:C 0.00010525
3 *3728:X 0.000198014
4 *75:31 0.000329733
5 *75:8 0.00058061
6 *3729:C *260:10 4.334e-05
7 *3745:A2 *3730:B 5.3304e-05
8 *3745:A2 *264:62 2.02872e-05
9 *3745:A2 *272:20 4.67488e-05
10 *75:8 *247:63 0.000472412
11 *75:31 *3724:C 0
12 *75:31 *76:8 0.000136486
13 *75:31 *247:14 1.01436e-05
14 *75:31 *247:63 0.00017761
15 *75:31 *302:131 0.000110922
16 *3729:B *3729:C 0.00014411
17 *3745:B1_N *3729:C 2.96909e-05
18 *3745:B1_N *75:31 1.52259e-05
19 *3818:A2 *3729:C 5.90675e-06
20 *74:12 *75:8 0.000517593
21 *74:25 *3729:C 2.55642e-05
22 *74:25 *75:31 5.94125e-05
*RES
1 *3728:X *75:8 44.3386 
2 *75:8 *3729:C 41.1071 
3 *75:8 *75:31 49.8057 
4 *75:31 *3745:A2 24.0979 
*END

*D_NET *76 0.00340526
*CONN
*I *3746:B I *D sky130_fd_sc_hd__and3_1
*I *3779:A1 I *D sky130_fd_sc_hd__a21oi_1
*I *3730:B I *D sky130_fd_sc_hd__and2_1
*I *3729:Y O *D sky130_fd_sc_hd__nand3b_1
*CAP
1 *3746:B 0.000244771
2 *3779:A1 8.07593e-05
3 *3730:B 0.000137766
4 *3729:Y 0.000178534
5 *76:19 0.000397794
6 *76:8 0.000388565
7 *3730:B *264:62 0.00039238
8 *3730:B *272:20 3.64394e-05
9 *3746:B *3746:A 0.000181131
10 *3746:B *3746:C 2.47702e-05
11 *3746:B *91:8 1.01436e-05
12 *3746:B *91:12 0
13 *3746:B *92:8 5.94125e-05
14 *3746:B *126:10 5.50049e-05
15 *3746:B *266:22 2.24973e-05
16 *3746:B *266:35 4.92689e-05
17 *3779:A1 *247:89 9.5877e-05
18 *76:8 *266:35 0.000366759
19 *76:8 *302:131 9.94908e-05
20 *76:19 *3724:C 0
21 *76:19 *92:8 8.62783e-05
22 *76:19 *266:35 0.000126343
23 *3730:A *3730:B 0.000181489
24 *3745:A2 *3730:B 5.3304e-05
25 *75:31 *76:8 0.000136486
*RES
1 *3729:Y *76:8 43.075 
2 *76:8 *3730:B 42.4329 
3 *76:8 *76:19 1.90571 
4 *76:19 *3779:A1 39.0979 
5 *76:19 *3746:B 43.0543 
*END

*D_NET *77 0.00336408
*CONN
*I *3747:B I *D sky130_fd_sc_hd__xnor2_1
*I *3733:A I *D sky130_fd_sc_hd__or2b_1
*I *3730:X O *D sky130_fd_sc_hd__and2_1
*CAP
1 *3747:B 0
2 *3733:A 0
3 *3730:X 0.000446225
4 *77:14 0.000545638
5 *77:6 0.000991862
6 *77:6 *94:10 5.83407e-05
7 *77:6 *245:12 0.000268074
8 *77:6 *245:23 5.3304e-05
9 *77:6 *247:33 9.58714e-05
10 *77:6 *249:48 8.96703e-05
11 *77:6 *264:62 2.64616e-05
12 *77:6 *272:20 4.21281e-05
13 *77:14 *79:23 0.000350697
14 *77:14 *179:10 0.000354122
15 *77:14 *302:62 0
16 *68:10 *77:14 4.16868e-05
*RES
1 *3730:X *77:6 33.15 
2 *77:6 *77:14 40.44 
3 *77:14 *3733:A 23 
4 *77:6 *3747:B 23 
*END

*D_NET *78 0.000184221
*CONN
*I *3732:B I *D sky130_fd_sc_hd__nor2_1
*I *3731:Y O *D sky130_fd_sc_hd__a21oi_1
*CAP
1 *3732:B 3.90763e-05
2 *3731:Y 3.90763e-05
3 *3732:B *3731:A1 1.76557e-05
4 *3732:B *179:24 4.37033e-05
5 *3732:B *259:18 4.47097e-05
*RES
1 *3731:Y *3732:B 47.6157 
*END

*D_NET *79 0.00216649
*CONN
*I *3747:A I *D sky130_fd_sc_hd__xnor2_1
*I *3733:B_N I *D sky130_fd_sc_hd__or2b_1
*I *3732:Y O *D sky130_fd_sc_hd__nor2_1
*CAP
1 *3747:A 0
2 *3733:B_N 0
3 *3732:Y 0.000158552
4 *79:23 0.000436013
5 *79:8 0.000594565
6 *79:8 *3731:A1 1.41077e-05
7 *79:8 *179:10 0.000121233
8 *79:8 *179:24 0.00012103
9 *79:8 *245:56 6.53382e-05
10 *79:23 *81:10 0
11 *79:23 *172:8 0
12 *79:23 *179:10 0.00013961
13 *79:23 *179:39 0
14 *3732:A *79:8 9.84794e-05
15 *68:10 *79:23 6.6869e-05
16 *77:14 *79:23 0.000350697
*RES
1 *3732:Y *79:8 27.4536 
2 *79:8 *3733:B_N 23 
3 *79:8 *79:23 38.9279 
4 *79:23 *3747:A 23 
*END

*D_NET *80 0.00166706
*CONN
*I *3825:A2 I *D sky130_fd_sc_hd__o22a_1
*I *3734:B I *D sky130_fd_sc_hd__xor2_1
*I *3733:X O *D sky130_fd_sc_hd__or2b_1
*CAP
1 *3825:A2 0.000119985
2 *3734:B 0.000106136
3 *3733:X 0.000115284
4 *80:10 0.000341405
5 *3734:B *179:39 1.02387e-05
6 *3734:B *245:37 5.2497e-05
7 *3825:A2 *3824:A 0.000148688
8 *3825:A2 *3825:B1 0
9 *3825:A2 *167:8 4.34876e-05
10 *3825:A2 *179:39 2.47015e-05
11 *80:10 *179:39 0.000121659
12 *80:10 *245:37 3.02296e-05
13 *80:10 *245:56 5.67058e-05
14 *3734:A *3825:A2 7.37103e-05
15 *68:14 *3825:A2 5.50106e-05
16 *68:23 *3825:A2 0.000367328
*RES
1 *3733:X *80:10 40.3511 
2 *80:10 *3734:B 39.7711 
3 *80:10 *3825:A2 43.2511 
*END

*D_NET *81 0.000464863
*CONN
*I *3816:A1 I *D sky130_fd_sc_hd__mux2_1
*I *3734:X O *D sky130_fd_sc_hd__xor2_1
*CAP
1 *3816:A1 0
2 *3734:X 0.000108143
3 *81:10 0.000108143
4 *81:10 *172:8 5.31444e-05
5 *81:10 *179:39 0.000138727
6 *68:23 *81:10 5.67058e-05
7 *79:23 *81:10 0
*RES
1 *3734:X *81:10 40.5271 
2 *81:10 *3816:A1 38 
*END

*D_NET *82 0.00221467
*CONN
*I *3760:B1 I *D sky130_fd_sc_hd__a21o_1
*I *3744:A1 I *D sky130_fd_sc_hd__a21bo_1
*I *3749:B I *D sky130_fd_sc_hd__nand3_1
*I *3735:X O *D sky130_fd_sc_hd__and2_1
*CAP
1 *3760:B1 8.38885e-05
2 *3744:A1 6.3715e-05
3 *3749:B 0
4 *3735:X 0.000351974
5 *82:19 0.00022741
6 *82:10 0.000431781
7 *3744:A1 *3744:A2 1.24376e-05
8 *3744:A1 *213:70 9.41704e-05
9 *3760:B1 *3749:A 1.12487e-05
10 *3760:B1 *3760:A1 4.07715e-05
11 *3760:B1 *96:8 0.000236614
12 *3760:B1 *213:70 0.000141888
13 *82:10 *3724:C 0.000110922
14 *82:10 *89:12 2.08324e-05
15 *82:10 *91:8 0
16 *82:10 *92:8 0
17 *82:10 *264:62 9.84794e-05
18 *82:19 *3749:A 6.42505e-05
19 *82:19 *89:12 8.68016e-06
20 *82:19 *96:8 0.000137535
21 *82:19 *264:47 0
22 *3737:A2 *82:10 5.75972e-05
23 *70:10 *82:10 2.04774e-05
24 *71:41 *82:10 0
25 *71:41 *82:19 0
*RES
1 *3735:X *82:10 44.525 
2 *82:10 *3749:B 38 
3 *82:10 *82:19 2.25786 
4 *82:19 *3744:A1 39.0979 
5 *82:19 *3760:B1 41.3143 
*END

*D_NET *83 0.0018617
*CONN
*I *3743:B I *D sky130_fd_sc_hd__nand3_1
*I *3742:A1 I *D sky130_fd_sc_hd__a21o_1
*I *3736:Y O *D sky130_fd_sc_hd__nand3_1
*CAP
1 *3743:B 0.000124139
2 *3742:A1 0.000116862
3 *3736:Y 0.000200746
4 *83:10 0.000441746
5 *3742:A1 *3742:A2 6.26126e-05
6 *3742:A1 *84:12 1.03955e-05
7 *3742:A1 *89:8 0.000221992
8 *3742:A1 *214:100 2.18409e-05
9 *3742:A1 *279:29 0
10 *3743:B *84:12 1.38338e-05
11 *3743:B *214:100 0
12 *3743:B *246:85 0
13 *3743:B *296:108 0.000120537
14 *83:10 *296:108 0.000163352
15 *3725:A2 *83:10 0.000139357
16 *3737:A2 *3742:A1 0
17 *69:29 *3743:B 1.14452e-05
18 *69:29 *83:10 0.000160191
19 *71:33 *3742:A1 5.26556e-05
*RES
1 *3736:Y *83:10 41.8321 
2 *83:10 *3742:A1 41.5214 
3 *83:10 *3743:B 40.2579 
*END

*D_NET *84 0.00109189
*CONN
*I *3742:A2 I *D sky130_fd_sc_hd__a21o_1
*I *3743:C I *D sky130_fd_sc_hd__nand3_1
*I *3737:X O *D sky130_fd_sc_hd__a21o_1
*CAP
1 *3742:A2 3.57514e-05
2 *3743:C 0
3 *3737:X 0
4 *84:12 0.000226565
5 *84:4 0.000262316
6 *3742:A2 *214:100 5.23699e-05
7 *84:12 *264:47 0.000111971
8 *84:12 *296:108 8.25811e-05
9 *3742:A1 *3742:A2 6.26126e-05
10 *3742:A1 *84:12 1.03955e-05
11 *3743:B *84:12 1.38338e-05
12 *71:33 *3742:A2 3.91386e-05
13 *71:33 *84:12 0.000139352
14 *71:41 *84:12 5.50049e-05
*RES
1 *3737:X *84:4 23 
2 *84:4 *84:12 34.0807 
3 *84:12 *3743:C 23 
4 *84:4 *3742:A2 24.4707 
*END

*D_NET *85 0.00181094
*CONN
*I *3752:B1 I *D sky130_fd_sc_hd__a21o_1
*I *3751:B I *D sky130_fd_sc_hd__nand3_1
*I *3741:A1 I *D sky130_fd_sc_hd__a21bo_1
*I *3738:X O *D sky130_fd_sc_hd__and2_1
*CAP
1 *3752:B1 0.000178925
2 *3751:B 2.34823e-05
3 *3741:A1 5.45272e-05
4 *3738:X 0.000212534
5 *85:21 0.000302675
6 *85:6 0.000367328
7 *3741:A1 *3741:A2 9.75779e-05
8 *3751:B *3757:A2 0
9 *3752:B1 *3751:C 5.3304e-05
10 *3752:B1 *3757:A2 8.85483e-05
11 *3752:B1 *99:6 2.4754e-05
12 *85:6 *3741:A2 0.000123506
13 *85:21 *87:20 0.000141888
14 *85:21 *296:34 0.000141888
*RES
1 *3738:X *85:6 26.48 
2 *85:6 *3741:A1 24.0979 
3 *85:6 *85:21 32.755 
4 *85:21 *3751:B 23.4971 
5 *85:21 *3752:B1 26.5007 
*END

*D_NET *86 0.00175082
*CONN
*I *3752:A2 I *D sky130_fd_sc_hd__a21o_1
*I *3751:C I *D sky130_fd_sc_hd__nand3_1
*I *3741:A2 I *D sky130_fd_sc_hd__a21bo_1
*I *3739:X O *D sky130_fd_sc_hd__a22o_1
*CAP
1 *3752:A2 0
2 *3751:C 2.32701e-05
3 *3741:A2 0.000128495
4 *3739:X 5.41676e-05
5 *86:21 0.000108328
6 *86:8 0.000267721
7 *3741:A2 *87:20 7.15126e-05
8 *3751:C *3757:A2 5.3304e-05
9 *86:8 *3752:A1 6.25829e-05
10 *86:8 *87:10 8.62783e-05
11 *86:8 *301:136 0.000141879
12 *86:21 *3752:A1 0.000234373
13 *86:21 *301:136 0.000244517
14 *3741:A1 *3741:A2 9.75779e-05
15 *3752:B1 *3751:C 5.3304e-05
16 *85:6 *3741:A2 0.000123506
*RES
1 *3739:X *86:8 39.9057 
2 *86:8 *3741:A2 41.0036 
3 *86:8 *86:21 18.3143 
4 *86:21 *3751:C 23.6214 
5 *86:21 *3752:A2 23 
*END

*D_NET *87 0.00364399
*CONN
*I *3752:A1 I *D sky130_fd_sc_hd__a21o_1
*I *3741:B1_N I *D sky130_fd_sc_hd__a21bo_1
*I *3751:A I *D sky130_fd_sc_hd__nand3_1
*I *3740:Y O *D sky130_fd_sc_hd__nand4_1
*CAP
1 *3752:A1 0.000210183
2 *3741:B1_N 0
3 *3751:A 0
4 *3740:Y 0.000463307
5 *87:20 0.000269061
6 *87:12 0.000269061
7 *87:10 0.000673489
8 *3752:A1 *3757:A2 9.67842e-05
9 *3752:A1 *98:17 1.01436e-05
10 *3752:A1 *296:34 0.000288117
11 *3752:A1 *301:136 2.24973e-05
12 *87:10 *3743:A 5.41288e-05
13 *87:10 *246:85 1.21972e-05
14 *87:10 *279:37 0.000139357
15 *87:10 *296:34 0.000136486
16 *87:10 *296:36 0.000167443
17 *87:10 *296:98 2.35663e-05
18 *87:10 *301:136 0.000105072
19 *87:20 *88:8 0
20 *87:20 *102:8 0
21 *87:20 *296:34 0.000106461
22 *3741:A2 *87:20 7.15126e-05
23 *85:21 *87:20 0.000141888
24 *86:8 *3752:A1 6.25829e-05
25 *86:8 *87:10 8.62783e-05
26 *86:21 *3752:A1 0.000234373
*RES
1 *3740:Y *87:10 46.4514 
2 *87:10 *87:12 15 
3 *87:12 *87:20 35.5929 
4 *87:20 *3751:A 23 
5 *87:12 *3741:B1_N 23 
6 *87:10 *3752:A1 43.8207 
*END

*D_NET *88 0.00195878
*CONN
*I *3743:A I *D sky130_fd_sc_hd__nand3_1
*I *3742:B1 I *D sky130_fd_sc_hd__a21o_1
*I *3741:X O *D sky130_fd_sc_hd__a21bo_1
*CAP
1 *3743:A 0.000139158
2 *3742:B1 0.000170153
3 *3741:X 0.000187096
4 *88:8 0.000496406
5 *3742:B1 *89:8 3.22879e-05
6 *3742:B1 *212:136 0
7 *3742:B1 *213:83 7.76267e-05
8 *3742:B1 *213:89 4.6318e-06
9 *3742:B1 *214:100 5.50106e-05
10 *3742:B1 *246:85 0.000187986
11 *3742:B1 *246:91 6.16531e-05
12 *3743:A *3744:B1_N 0
13 *3743:A *212:136 5.50106e-05
14 *3743:A *246:85 5.3304e-05
15 *3743:A *296:98 2.32004e-05
16 *3743:A *296:108 2.9938e-05
17 *88:8 *102:8 0.000140958
18 *88:8 *212:136 0
19 *88:8 *246:91 0.000190227
20 *88:8 *296:34 0
21 *87:10 *3743:A 5.41288e-05
22 *87:20 *88:8 0
*RES
1 *3741:X *88:8 42.3707 
2 *88:8 *3742:B1 41.9357 
3 *88:8 *3743:A 41.5214 
*END

*D_NET *89 0.00354122
*CONN
*I *3749:C I *D sky130_fd_sc_hd__nand3_1
*I *3760:A2 I *D sky130_fd_sc_hd__a21o_1
*I *3744:A2 I *D sky130_fd_sc_hd__a21bo_1
*I *3742:X O *D sky130_fd_sc_hd__a21o_1
*CAP
1 *3749:C 0
2 *3760:A2 0.000327775
3 *3744:A2 7.66957e-05
4 *3742:X 0.000339485
5 *89:12 0.000485812
6 *89:8 0.000420826
7 *3744:A2 *213:70 2.32004e-05
8 *3760:A2 *3755:D 1.37232e-05
9 *3760:A2 *96:8 0.000216484
10 *3760:A2 *212:86 0.000117923
11 *3760:A2 *213:70 0.000111301
12 *3760:A2 *266:22 0
13 *89:8 *3749:A 3.22879e-05
14 *89:8 *213:138 2.64616e-05
15 *89:8 *214:100 2.07791e-05
16 *89:8 *279:29 0.000811488
17 *89:12 *91:8 4.33941e-05
18 *89:12 *96:8 8.48124e-05
19 *3737:A2 *89:8 6.99589e-05
20 *3742:A1 *89:8 0.000221992
21 *3742:B1 *89:8 3.22879e-05
22 *3744:A1 *3744:A2 1.24376e-05
23 *71:33 *89:8 8.48502e-06
24 *71:41 *89:8 1.40958e-05
25 *82:10 *89:12 2.08324e-05
26 *82:19 *89:12 8.68016e-06
*RES
1 *3742:X *89:8 33.0464 
2 *89:8 *89:12 16.9057 
3 *89:12 *3744:A2 39.6157 
4 *89:12 *3760:A2 44.8357 
5 *89:8 *3749:C 23 
*END

*D_NET *90 0.00156324
*CONN
*I *3760:A1 I *D sky130_fd_sc_hd__a21o_1
*I *3749:A I *D sky130_fd_sc_hd__nand3_1
*I *3744:B1_N I *D sky130_fd_sc_hd__a21bo_1
*I *3743:Y O *D sky130_fd_sc_hd__nand3_1
*CAP
1 *3760:A1 0.000100801
2 *3749:A 0.000240666
3 *3744:B1_N 2.34823e-05
4 *3743:Y 0.000180452
5 *90:17 0.000364949
6 *90:6 0.000227416
7 *3749:A *213:70 6.48142e-05
8 *3749:A *264:47 6.95681e-05
9 *3760:A1 *213:70 7.70737e-05
10 *3760:A1 *264:47 5.15848e-05
11 *90:6 *296:108 2.45549e-06
12 *3737:A2 *3749:A 1.14154e-05
13 *3743:A *3744:B1_N 0
14 *3760:B1 *3749:A 1.12487e-05
15 *3760:B1 *3760:A1 4.07715e-05
16 *82:19 *3749:A 6.42505e-05
17 *89:8 *3749:A 3.22879e-05
*RES
1 *3743:Y *90:6 25.5271 
2 *90:6 *3744:B1_N 23.4971 
3 *90:6 *90:17 15.4971 
4 *90:17 *3749:A 42.4329 
5 *90:17 *3760:A1 40.2579 
*END

*D_NET *91 0.00149734
*CONN
*I *3779:B1 I *D sky130_fd_sc_hd__a21oi_1
*I *3746:A I *D sky130_fd_sc_hd__and3_1
*I *3744:X O *D sky130_fd_sc_hd__a21bo_1
*CAP
1 *3779:B1 4.94715e-05
2 *3746:A 0.000109239
3 *3744:X 0.000204483
4 *91:12 0.000177013
5 *91:8 0.000222786
6 *3746:A *3746:C 0.000199659
7 *3746:A *126:10 2.32101e-05
8 *3779:B1 *126:10 8.1796e-05
9 *3779:B1 *247:89 7.27182e-05
10 *91:8 *126:10 7.91493e-05
11 *91:8 *266:22 4.31504e-05
12 *3736:C *3779:B1 0
13 *3746:B *3746:A 0.000181131
14 *3746:B *91:8 1.01436e-05
15 *3746:B *91:12 0
16 *82:10 *91:8 0
17 *89:12 *91:8 4.33941e-05
*RES
1 *3744:X *91:8 42.3707 
2 *91:8 *91:12 15.4971 
3 *91:12 *3746:A 26.3764 
4 *91:12 *3779:B1 25.0714 
*END

*D_NET *92 0.0011735
*CONN
*I *3779:A2 I *D sky130_fd_sc_hd__a21oi_1
*I *3746:C I *D sky130_fd_sc_hd__and3_1
*I *3745:X O *D sky130_fd_sc_hd__a21bo_1
*CAP
1 *3779:A2 0
2 *3746:C 0.000227583
3 *3745:X 0.000101208
4 *92:10 0.000227583
5 *92:8 0.000101208
6 *3746:C *247:10 2.88979e-05
7 *3746:C *247:89 0.000116902
8 *3746:A *3746:C 0.000199659
9 *3746:B *3746:C 2.47702e-05
10 *3746:B *92:8 5.94125e-05
11 *76:19 *92:8 8.62783e-05
12 *82:10 *92:8 0
*RES
1 *3745:X *92:8 39.9057 
2 *92:8 *92:10 15 
3 *92:10 *3746:C 27.8471 
4 *92:10 *3779:A2 23 
*END

*D_NET *93 0.00190498
*CONN
*I *3780:A I *D sky130_fd_sc_hd__nor2_1
*I *3748:A I *D sky130_fd_sc_hd__or2_1
*I *3814:A I *D sky130_fd_sc_hd__and2_1
*I *3746:X O *D sky130_fd_sc_hd__and3_1
*CAP
1 *3780:A 3.94573e-05
2 *3748:A 0
3 *3814:A 6.12081e-05
4 *3746:X 0.000123869
5 *93:14 0.000386097
6 *93:10 0.000364346
7 *93:8 0.000123869
8 *3780:A *279:29 1.83716e-05
9 *3814:A *3748:B 5.67058e-05
10 *3814:A *94:16 0
11 *3814:A *95:16 2.9938e-05
12 *3814:A *279:29 0.000143655
13 *93:8 *263:23 0.000163352
14 *93:8 *267:44 7.81176e-05
15 *93:8 *267:59 4.6318e-06
16 *93:14 *3693:A 5.50049e-05
17 *93:14 *95:16 9.84794e-05
18 *93:14 *279:29 0.000157882
*RES
1 *3746:X *93:8 40.2579 
2 *93:8 *93:10 15 
3 *93:10 *93:14 6.35929 
4 *93:14 *3814:A 25.4236 
5 *93:14 *3748:A 23 
6 *93:10 *3780:A 23.6214 
*END

*D_NET *94 0.00117064
*CONN
*I *3748:B I *D sky130_fd_sc_hd__or2_1
*I *3814:B I *D sky130_fd_sc_hd__and2_1
*I *3747:Y O *D sky130_fd_sc_hd__xnor2_1
*CAP
1 *3748:B 2.25634e-05
2 *3814:B 0
3 *3747:Y 0.000359904
4 *94:16 5.90297e-05
5 *94:10 0.00039637
6 *3748:B *95:16 8.1796e-05
7 *3748:B *279:29 4.19743e-05
8 *94:10 *3827:A 2.11827e-05
9 *94:10 *162:10 0
10 *94:10 *249:54 0
11 *94:16 *95:16 4.33916e-05
12 *94:16 *279:29 2.93845e-05
13 *3814:A *3748:B 5.67058e-05
14 *3814:A *94:16 0
15 *77:6 *94:10 5.83407e-05
*RES
1 *3747:Y *94:10 44.2971 
2 *94:10 *94:16 16.1186 
3 *94:16 *3814:B 23 
4 *94:16 *3748:B 24.5743 
*END

*D_NET *95 0.00169802
*CONN
*I *3815:A1 I *D sky130_fd_sc_hd__a21oi_1
*I *3827:B_N I *D sky130_fd_sc_hd__or2b_1
*I *3748:X O *D sky130_fd_sc_hd__or2_1
*CAP
1 *3815:A1 0
2 *3827:B_N 0
3 *3748:X 0.000315925
4 *95:29 0.000263154
5 *95:16 0.000579079
6 *95:16 *161:8 5.29599e-05
7 *95:16 *279:29 3.65274e-05
8 *95:29 *3815:A2 7.53384e-06
9 *95:29 *3815:B1 8.04817e-05
10 *95:29 *3827:A 6.48049e-05
11 *95:29 *249:54 0
12 *95:29 *249:66 4.39488e-05
13 *3748:B *95:16 8.1796e-05
14 *3814:A *95:16 2.9938e-05
15 *93:14 *95:16 9.84794e-05
16 *94:16 *95:16 4.33916e-05
*RES
1 *3748:X *95:16 29.3593 
2 *95:16 *3827:B_N 23 
3 *95:16 *95:29 33.48 
4 *95:29 *3815:A1 23 
*END

*D_NET *96 0.00193418
*CONN
*I *3762:A1 I *D sky130_fd_sc_hd__a21oi_1
*I *3761:A I *D sky130_fd_sc_hd__and3_2
*I *3749:Y O *D sky130_fd_sc_hd__nand3_1
*CAP
1 *3762:A1 0.000109517
2 *3761:A 0
3 *3749:Y 0.000282826
4 *96:8 0.000392343
5 *3762:A1 *3762:A2 0.000265339
6 *3762:A1 *106:18 8.41115e-05
7 *3762:A1 *264:47 0
8 *96:8 *3762:A2 1.14452e-05
9 *96:8 *107:8 0.000113153
10 *96:8 *264:47 0
11 *96:8 *266:22 0
12 *3760:A2 *96:8 0.000216484
13 *3760:B1 *96:8 0.000236614
14 *82:19 *96:8 0.000137535
15 *89:12 *96:8 8.48124e-05
*RES
1 *3749:Y *96:8 45.1879 
2 *96:8 *3761:A 38 
3 *96:8 *3762:A1 41.6664 
*END

*D_NET *97 0.00144165
*CONN
*I *3774:B1 I *D sky130_fd_sc_hd__a21o_1
*I *3759:A1 I *D sky130_fd_sc_hd__a21bo_1
*I *3763:B I *D sky130_fd_sc_hd__nand3_1
*I *3750:X O *D sky130_fd_sc_hd__and2_1
*CAP
1 *3774:B1 7.86843e-05
2 *3759:A1 0
3 *3763:B 0.000144693
4 *3750:X 0.000116029
5 *97:10 0.000223377
6 *97:8 0.000116029
7 *3763:B *104:16 0
8 *3763:B *105:18 0.000192661
9 *3763:B *121:10 3.83498e-05
10 *3774:B1 *3774:A2 3.53115e-05
11 *3774:B1 *103:22 0.000182826
12 *3774:B1 *105:18 6.51746e-05
13 *3774:B1 *121:10 0.000123944
14 *97:8 *3774:A2 8.94394e-05
15 *97:8 *102:8 0
16 *97:8 *104:25 1.14452e-05
17 *97:8 *264:47 2.36844e-05
*RES
1 *3750:X *97:8 40.2579 
2 *97:8 *97:10 15 
3 *97:10 *3763:B 26.0243 
4 *97:10 *3759:A1 23 
5 *97:10 *3774:B1 26.48 
*END

*D_NET *98 0.00116398
*CONN
*I *3758:A I *D sky130_fd_sc_hd__nand3_1
*I *3757:A1 I *D sky130_fd_sc_hd__a21o_1
*I *3751:Y O *D sky130_fd_sc_hd__nand3_1
*CAP
1 *3758:A 0
2 *3757:A1 0.000267142
3 *3751:Y 0
4 *98:17 9.39672e-05
5 *98:4 0.000361109
6 *3757:A1 *3757:A2 0.000313255
7 *3757:A1 *103:22 6.17437e-06
8 *98:17 *103:8 1.14452e-05
9 *98:17 *296:34 6.88732e-05
10 *98:17 *301:136 3.18683e-05
11 *3752:A1 *98:17 1.01436e-05
*RES
1 *3751:Y *98:4 23 
2 *98:4 *3757:A1 26.9564 
3 *98:4 *98:17 31.9057 
4 *98:17 *3758:A 23 
*END

*D_NET *99 0.00166077
*CONN
*I *3758:C I *D sky130_fd_sc_hd__nand3_1
*I *3757:A2 I *D sky130_fd_sc_hd__a21o_1
*I *3752:X O *D sky130_fd_sc_hd__a21o_1
*CAP
1 *3758:C 0
2 *3757:A2 0.000233435
3 *3752:X 9.33337e-05
4 *99:23 0.000125343
5 *99:6 0.000452112
6 *99:23 *265:57 4.34173e-05
7 *99:23 *301:136 0.000136486
8 *3751:B *3757:A2 0
9 *3751:C *3757:A2 5.3304e-05
10 *3752:A1 *3757:A2 9.67842e-05
11 *3752:B1 *3757:A2 8.85483e-05
12 *3752:B1 *99:6 2.4754e-05
13 *3757:A1 *3757:A2 0.000313255
*RES
1 *3752:X *99:6 24.5743 
2 *99:6 *3757:A2 28.8829 
3 *99:6 *99:23 32.5271 
4 *99:23 *3758:C 23 
*END

*D_NET *100 0.00177692
*CONN
*I *3765:B I *D sky130_fd_sc_hd__nand3_1
*I *3766:B1 I *D sky130_fd_sc_hd__a21o_1
*I *3756:A1 I *D sky130_fd_sc_hd__a21bo_1
*I *3753:X O *D sky130_fd_sc_hd__and2_1
*CAP
1 *3765:B 0.00012863
2 *3766:B1 0
3 *3756:A1 0
4 *3753:X 0.000151085
5 *100:23 0.000171288
6 *100:14 0.000133143
7 *100:6 0.000326886
8 *3765:B *3766:A1 9.67842e-05
9 *3765:B *3766:A2 5.36743e-05
10 *3765:B *113:10 3.06213e-05
11 *3765:B *296:139 2.75763e-05
12 *100:6 *3767:A 5.67058e-05
13 *100:6 *113:10 5.3304e-05
14 *100:6 *296:22 0.000202654
15 *100:6 *296:139 5.61255e-06
16 *100:14 *3756:A2 5.3304e-05
17 *100:14 *264:35 4.80535e-05
18 *100:14 *296:34 0.00015795
19 *100:23 *3766:A2 0
20 *100:23 *113:10 1.57571e-05
21 *100:23 *296:139 6.38926e-05
*RES
1 *3753:X *100:6 26.48 
2 *100:6 *100:14 32.8793 
3 *100:14 *3756:A1 23 
4 *100:6 *100:23 1.47071 
5 *100:23 *3766:B1 23 
6 *100:23 *3765:B 26.0243 
*END

*D_NET *101 0.00285752
*CONN
*I *3756:A2 I *D sky130_fd_sc_hd__a21bo_1
*I *3765:C I *D sky130_fd_sc_hd__nand3_1
*I *3766:A2 I *D sky130_fd_sc_hd__a21o_1
*I *3754:X O *D sky130_fd_sc_hd__a22o_1
*CAP
1 *3756:A2 0.000217519
2 *3765:C 0
3 *3766:A2 0.000119378
4 *3754:X 0.000248993
5 *101:14 0.000288501
6 *101:6 0.000635634
7 *3756:A2 *3756:B1_N 1.05235e-05
8 *3756:A2 *114:16 0.00047934
9 *3766:A2 *3789:A1 5.50049e-05
10 *3766:A2 *112:10 1.40958e-05
11 *3766:A2 *113:10 4.96717e-05
12 *3766:A2 *118:23 4.00259e-06
13 *101:6 *114:16 0.000530622
14 *101:6 *212:114 6.17437e-06
15 *101:14 *3789:A1 5.24977e-05
16 *101:14 *102:23 0
17 *101:14 *112:10 2.93845e-05
18 *101:14 *113:10 9.20311e-06
19 *101:14 *120:8 0
20 *3765:B *3766:A2 5.36743e-05
21 *100:14 *3756:A2 5.3304e-05
22 *100:23 *3766:A2 0
*RES
1 *3754:X *101:6 29.815 
2 *101:6 *101:14 33.2314 
3 *101:14 *3766:A2 26.045 
4 *101:14 *3765:C 23 
5 *101:6 *3756:A2 28.8829 
*END

*D_NET *102 0.00309458
*CONN
*I *3766:A1 I *D sky130_fd_sc_hd__a21o_1
*I *3765:A I *D sky130_fd_sc_hd__nand3_1
*I *3756:B1_N I *D sky130_fd_sc_hd__a21bo_1
*I *3755:Y O *D sky130_fd_sc_hd__nand4_2
*CAP
1 *3766:A1 0.000102224
2 *3765:A 0
3 *3756:B1_N 5.80982e-05
4 *3755:Y 0
5 *102:23 0.000297726
6 *102:8 0.00099996
7 *102:6 0.000746359
8 *3766:A1 *113:10 5.24393e-05
9 *3766:A1 *264:35 2.96051e-05
10 *102:8 *103:22 0.000161121
11 *102:8 *104:25 0
12 *102:8 *120:8 0
13 *102:8 *121:10 0
14 *102:8 *212:136 2.76611e-06
15 *102:8 *264:35 0.000136486
16 *102:8 *264:47 0
17 *102:8 *296:34 0
18 *102:23 *113:10 8.9458e-05
19 *102:23 *120:8 0
20 *102:23 *264:35 0.000170076
21 *3756:A2 *3756:B1_N 1.05235e-05
22 *3765:B *3766:A1 9.67842e-05
23 *87:20 *102:8 0
24 *88:8 *102:8 0.000140958
25 *97:8 *102:8 0
26 *101:14 *102:23 0
*RES
1 *3755:Y *102:6 38 
2 *102:6 *102:8 13.1743 
3 *102:8 *3756:B1_N 38.6214 
4 *102:8 *102:23 4.785 
5 *102:23 *3765:A 38 
6 *102:23 *3766:A1 39.9471 
*END

*D_NET *103 0.00221507
*CONN
*I *3758:B I *D sky130_fd_sc_hd__nand3_1
*I *3757:B1 I *D sky130_fd_sc_hd__a21o_1
*I *3756:X O *D sky130_fd_sc_hd__a21bo_1
*CAP
1 *3758:B 0
2 *3757:B1 0
3 *3756:X 0.000241524
4 *103:22 0.000328463
5 *103:10 0.000328463
6 *103:8 0.000241524
7 *103:8 *265:57 0
8 *103:8 *296:34 0.000122247
9 *103:8 *301:136 0.000124873
10 *103:22 *3774:A2 8.91129e-05
11 *103:22 *105:6 9.67842e-05
12 *103:22 *105:8 0.000227208
13 *103:22 *105:18 5.3304e-05
14 *103:22 *264:47 0
15 *3757:A1 *103:22 6.17437e-06
16 *3774:B1 *103:22 0.000182826
17 *98:17 *103:8 1.14452e-05
18 *102:8 *103:22 0.000161121
*RES
1 *3756:X *103:8 43.075 
2 *103:8 *103:10 15 
3 *103:10 *103:22 38.2857 
4 *103:22 *3757:B1 23 
5 *103:10 *3758:B 23 
*END

*D_NET *104 0.00276456
*CONN
*I *3774:A2 I *D sky130_fd_sc_hd__a21o_1
*I *3759:A2 I *D sky130_fd_sc_hd__a21bo_1
*I *3763:C I *D sky130_fd_sc_hd__nand3_1
*I *3757:X O *D sky130_fd_sc_hd__a21o_1
*CAP
1 *3774:A2 0.000530478
2 *3759:A2 0
3 *3763:C 0
4 *3757:X 0
5 *104:25 0.00064057
6 *104:16 0.000332251
7 *104:4 0.000442343
8 *3774:A2 *121:10 0.000267173
9 *3774:A2 *264:47 3.97502e-05
10 *104:16 *106:12 0.000139346
11 *104:16 *212:114 0
12 *104:16 *264:47 5.31444e-05
13 *104:25 *105:18 5.94125e-05
14 *104:25 *106:8 3.47879e-05
15 *3763:B *104:16 0
16 *3774:B1 *3774:A2 3.53115e-05
17 *97:8 *3774:A2 8.94394e-05
18 *97:8 *104:25 1.14452e-05
19 *102:8 *104:25 0
20 *103:22 *3774:A2 8.91129e-05
*RES
1 *3757:X *104:4 23 
2 *104:4 *104:16 35.1993 
3 *104:16 *3763:C 23 
4 *104:4 *104:25 16.9057 
5 *104:25 *3759:A2 38 
6 *104:25 *3774:A2 47.9843 
*END

*D_NET *105 0.00178434
*CONN
*I *3774:A1 I *D sky130_fd_sc_hd__a21o_1
*I *3759:B1_N I *D sky130_fd_sc_hd__a21bo_1
*I *3763:A I *D sky130_fd_sc_hd__nand3_1
*I *3758:Y O *D sky130_fd_sc_hd__nand3_1
*CAP
1 *3774:A1 0
2 *3759:B1_N 0
3 *3763:A 0
4 *3758:Y 6.78727e-05
5 *105:18 0.000281463
6 *105:8 0.000430063
7 *105:6 0.000216472
8 *105:18 *106:8 1.14452e-05
9 *105:18 *121:10 4.67488e-05
10 *105:18 *264:47 3.57337e-05
11 *3763:B *105:18 0.000192661
12 *3774:B1 *105:18 6.51746e-05
13 *103:22 *105:6 9.67842e-05
14 *103:22 *105:8 0.000227208
15 *103:22 *105:18 5.3304e-05
16 *104:25 *105:18 5.94125e-05
*RES
1 *3758:Y *105:6 24.0979 
2 *105:6 *105:8 2.52714 
3 *105:8 *105:18 34.9507 
4 *105:18 *3763:A 23 
5 *105:8 *3759:B1_N 23 
6 *105:6 *3774:A1 23 
*END

*D_NET *106 0.0010677
*CONN
*I *3762:B1 I *D sky130_fd_sc_hd__a21oi_1
*I *3761:B I *D sky130_fd_sc_hd__and3_2
*I *3759:X O *D sky130_fd_sc_hd__a21bo_1
*CAP
1 *3762:B1 0
2 *3761:B 0
3 *3759:X 6.41765e-05
4 *106:18 0.000149733
5 *106:12 0.000276282
6 *106:8 0.000190725
7 *106:8 *264:47 0.000110922
8 *106:12 *109:12 6.17437e-06
9 *106:18 *212:114 0
10 *106:18 *264:47 0
11 *3762:A1 *106:18 8.41115e-05
12 *104:16 *106:12 0.000139346
13 *104:25 *106:8 3.47879e-05
14 *105:18 *106:8 1.14452e-05
*RES
1 *3759:X *106:8 39.5536 
2 *106:8 *106:12 17.5271 
3 *106:12 *106:18 32.61 
4 *106:18 *3761:B 23 
5 *106:12 *3762:B1 23 
*END

*D_NET *107 0.00120827
*CONN
*I *3762:A2 I *D sky130_fd_sc_hd__a21oi_1
*I *3761:C I *D sky130_fd_sc_hd__and3_2
*I *3760:X O *D sky130_fd_sc_hd__a21o_1
*CAP
1 *3762:A2 0.000136326
2 *3761:C 0.000138854
3 *3760:X 9.67757e-05
4 *107:8 0.000371955
5 *3761:C *108:6 7.44257e-05
6 *3761:C *108:14 0
7 *3762:A2 *212:114 0
8 *107:8 *212:114 0
9 *3762:A1 *3762:A2 0.000265339
10 *96:8 *3762:A2 1.14452e-05
11 *96:8 *107:8 0.000113153
*RES
1 *3760:X *107:8 39.5536 
2 *107:8 *3761:C 40.0714 
3 *107:8 *3762:A2 41.6664 
*END

*D_NET *108 0.00292318
*CONN
*I *3781:A I *D sky130_fd_sc_hd__xor2_2
*I *3777:A1 I *D sky130_fd_sc_hd__o21ba_1
*I *3776:A I *D sky130_fd_sc_hd__nor3b_1
*I *3811:A1 I *D sky130_fd_sc_hd__o21a_1
*I *3761:X O *D sky130_fd_sc_hd__and3_2
*CAP
1 *3781:A 0.000324115
2 *3777:A1 0
3 *3776:A 0
4 *3811:A1 7.86964e-05
5 *3761:X 0.000302694
6 *108:32 0.000403415
7 *108:14 0.000220319
8 *108:6 0.000523616
9 *3781:A *3777:B1_N 9.84794e-05
10 *3781:A *109:12 8.50067e-05
11 *3781:A *124:8 3.3577e-05
12 *3811:A1 *109:22 5.67058e-05
13 *3811:A1 *123:6 1.94693e-05
14 *3811:A1 *127:14 0.000138444
15 *108:14 *3811:B1 0
16 *108:14 *109:22 5.52056e-05
17 *108:14 *127:14 1.14154e-05
18 *108:32 *212:114 0.000249918
19 *108:32 *266:22 0.000247678
20 *3761:C *108:6 7.44257e-05
21 *3761:C *108:14 0
*RES
1 *3761:X *108:6 28.3857 
2 *108:6 *108:14 3.19 
3 *108:14 *3811:A1 25.0507 
4 *108:14 *3776:A 23 
5 *108:6 *108:32 33.3143 
6 *108:32 *3777:A1 23 
7 *108:32 *3781:A 28.4271 
*END

*D_NET *109 0.00164923
*CONN
*I *3777:A2 I *D sky130_fd_sc_hd__o21ba_1
*I *3776:B I *D sky130_fd_sc_hd__nor3b_1
*I *3762:Y O *D sky130_fd_sc_hd__a21oi_1
*CAP
1 *3777:A2 0
2 *3776:B 0
3 *3762:Y 0.00037497
4 *109:22 0.000173351
5 *109:12 0.000548321
6 *109:22 *3776:C_N 0.000169674
7 *109:22 *122:16 1.01436e-05
8 *109:22 *266:22 0.000169674
9 *3781:A *109:12 8.50067e-05
10 *3811:A1 *109:22 5.67058e-05
11 *106:12 *109:12 6.17437e-06
12 *108:14 *109:22 5.52056e-05
*RES
1 *3762:Y *109:12 29.0486 
2 *109:12 *109:22 34.6814 
3 *109:22 *3776:B 23 
4 *109:12 *3777:A2 23 
*END

*D_NET *110 0.00102876
*CONN
*I *3775:A I *D sky130_fd_sc_hd__and3_1
*I *3801:A1 I *D sky130_fd_sc_hd__a21oi_1
*I *3763:Y O *D sky130_fd_sc_hd__nand3_1
*CAP
1 *3775:A 6.27479e-05
2 *3801:A1 9.67381e-05
3 *3763:Y 4.00848e-05
4 *110:12 0.000189104
5 *110:8 6.97033e-05
6 *3775:A *3801:A2 2.02517e-05
7 *3775:A *264:47 6.17437e-06
8 *3775:A *301:136 0
9 *3801:A1 *3775:B 2.02872e-05
10 *3801:A1 *3801:A2 0.000118138
11 *3801:A1 *3801:B1 0.000181092
12 *3801:A1 *121:14 4.63078e-06
13 *3801:A1 *122:10 2.4754e-05
14 *110:8 *121:10 8.62783e-05
15 *110:8 *264:47 8.85189e-05
16 *110:12 *3801:B1 2.02517e-05
*RES
1 *3763:Y *110:8 39.2014 
2 *110:8 *110:12 15.8493 
3 *110:12 *3801:A1 26.0243 
4 *110:12 *3775:A 24.4707 
*END

*D_NET *111 0.00295283
*CONN
*I *3782:B I *D sky130_fd_sc_hd__nand3_1
*I *3773:A1 I *D sky130_fd_sc_hd__a21bo_1
*I *3789:B1 I *D sky130_fd_sc_hd__a21o_1
*I *3764:X O *D sky130_fd_sc_hd__and2_1
*CAP
1 *3782:B 0
2 *3773:A1 6.54261e-05
3 *3789:B1 0.000188005
4 *3764:X 0
5 *111:50 0.000488768
6 *111:10 0.000532556
7 *111:4 0.000767892
8 *3773:A1 *3771:B1 0
9 *3773:A1 *3773:A2 3.04596e-05
10 *3773:A1 *118:6 3.7122e-06
11 *3773:A1 *296:139 9.84851e-05
12 *3789:B1 *3789:A1 0
13 *3789:B1 *112:10 0
14 *3789:B1 *114:16 0
15 *3789:B1 *118:23 4.334e-05
16 *3789:B1 *120:8 0.000141888
17 *111:10 *3764:A 3.70553e-06
18 *111:10 *3764:B 2.65879e-05
19 *111:10 *3772:A 0
20 *111:10 *3783:B 0
21 *111:50 *3764:B 0.000104267
22 *111:50 *3771:B1 3.84128e-05
23 *111:50 *3782:A 7.60413e-05
24 *111:50 *3782:C 9.84851e-05
25 *111:50 *118:6 5.50049e-05
26 *111:50 *264:35 0.000133316
27 *111:50 *296:139 5.64787e-05
*RES
1 *3764:X *111:4 23 
2 *111:4 *111:10 18.8321 
3 *111:10 *3789:B1 41.2314 
4 *111:10 *3773:A1 39.595 
5 *111:4 *111:50 39.425 
6 *111:50 *3782:B 23 
*END

*D_NET *112 0.00154654
*CONN
*I *3772:A I *D sky130_fd_sc_hd__nand3_1
*I *3771:A1 I *D sky130_fd_sc_hd__a21o_1
*I *3765:Y O *D sky130_fd_sc_hd__nand3_1
*CAP
1 *3772:A 0.000147987
2 *3771:A1 8.69907e-05
3 *3765:Y 0.0001979
4 *112:10 0.000432878
5 *3771:A1 *3771:B1 8.38623e-05
6 *3771:A1 *3773:A2 1.00493e-05
7 *3771:A1 *118:6 0.000180224
8 *3771:A1 *296:139 1.41077e-05
9 *3772:A *3771:B1 8.7901e-05
10 *3772:A *3772:B 0.000156379
11 *112:10 *3771:B1 1.05441e-05
12 *112:10 *3789:A1 5.33861e-05
13 *112:10 *118:23 4.08537e-05
14 *3766:A2 *112:10 1.40958e-05
15 *3789:B1 *112:10 0
16 *101:14 *112:10 2.93845e-05
17 *111:10 *3772:A 0
*RES
1 *3765:Y *112:10 41.0036 
2 *112:10 *3771:A1 40.5479 
3 *112:10 *3772:A 41.3143 
*END

*D_NET *113 0.00194032
*CONN
*I *3772:C I *D sky130_fd_sc_hd__nand3_1
*I *3771:A2 I *D sky130_fd_sc_hd__a21o_1
*I *3766:X O *D sky130_fd_sc_hd__a21o_1
*CAP
1 *3772:C 0.00014799
2 *3771:A2 0
3 *3766:X 0.000396995
4 *113:10 0.000544985
5 *3772:C *3772:B 4.07715e-05
6 *3772:C *119:8 8.62876e-05
7 *3772:C *119:10 7.41959e-05
8 *3772:C *264:35 6.92375e-05
9 *113:10 *3789:A1 0.000236719
10 *113:10 *119:10 1.05441e-05
11 *113:10 *264:35 3.21361e-05
12 *3765:B *113:10 3.06213e-05
13 *3766:A1 *113:10 5.24393e-05
14 *3766:A2 *113:10 4.96717e-05
15 *100:6 *113:10 5.3304e-05
16 *100:23 *113:10 1.57571e-05
17 *101:14 *113:10 9.20311e-06
18 *102:23 *113:10 8.9458e-05
*RES
1 *3766:X *113:10 45.1464 
2 *113:10 *3771:A2 38 
3 *113:10 *3772:C 41.3143 
*END

*D_NET *114 0.00482882
*CONN
*I *3783:B I *D sky130_fd_sc_hd__nand3_1
*I *3770:A1 I *D sky130_fd_sc_hd__a21bo_1
*I *3784:B1 I *D sky130_fd_sc_hd__a21o_1
*I *3767:X O *D sky130_fd_sc_hd__and2_1
*CAP
1 *3783:B 0.000314873
2 *3770:A1 0
3 *3784:B1 0.000244602
4 *3767:X 6.28669e-05
5 *114:18 0.000244602
6 *114:16 0.00133072
7 *114:8 0.00107871
8 *3783:B *3783:A 0
9 *3783:B *115:29 0.000111148
10 *3783:B *266:20 0
11 *3784:B1 *3770:A2 4.6595e-05
12 *3784:B1 *3770:B1_N 9.41704e-05
13 *3784:B1 *3788:A2 1.00493e-05
14 *3784:B1 *115:14 9.41704e-05
15 *3784:B1 *115:23 7.11824e-05
16 *3784:B1 *136:14 1.24376e-05
17 *3784:B1 *296:139 1.57571e-05
18 *3784:B1 *296:141 2.93104e-06
19 *114:8 *265:57 0
20 *114:8 *296:34 8.4047e-05
21 *114:16 *120:8 0
22 *114:16 *266:20 0
23 *3756:A2 *114:16 0.00047934
24 *3789:B1 *114:16 0
25 *101:6 *114:16 0.000530622
26 *111:10 *3783:B 0
*RES
1 *3767:X *114:8 39.2014 
2 *114:8 *114:16 45.8257 
3 *114:16 *114:18 15 
4 *114:18 *3784:B1 27.9507 
5 *114:18 *3770:A1 23 
6 *114:16 *3783:B 43.8621 
*END

*D_NET *115 0.00240675
*CONN
*I *3770:A2 I *D sky130_fd_sc_hd__a21bo_1
*I *3783:C I *D sky130_fd_sc_hd__nand3_1
*I *3784:A2 I *D sky130_fd_sc_hd__a21o_1
*I *3768:X O *D sky130_fd_sc_hd__a22o_1
*CAP
1 *3770:A2 4.67588e-05
2 *3783:C 0
3 *3784:A2 0
4 *3768:X 0.000280152
5 *115:29 9.00925e-05
6 *115:23 0.000209292
7 *115:14 0.00011902
8 *115:10 0.000326731
9 *3770:A2 *296:139 0.000139357
10 *115:10 *3754:B1 1.32939e-05
11 *115:10 *3754:B2 2.30292e-05
12 *115:10 *3783:A 4.66241e-05
13 *115:10 *116:10 0.000289704
14 *115:10 *132:29 0
15 *115:10 *134:8 4.91022e-05
16 *115:10 *136:10 0.000161121
17 *115:14 *296:139 4.05745e-05
18 *115:23 *296:139 0.000137651
19 *115:23 *296:141 0
20 *115:29 *266:20 0.000111148
21 *3783:B *115:29 0.000111148
22 *3784:B1 *3770:A2 4.6595e-05
23 *3784:B1 *115:14 9.41704e-05
24 *3784:B1 *115:23 7.11824e-05
*RES
1 *3768:X *115:10 43.8207 
2 *115:10 *115:14 16.0979 
3 *115:14 *3784:A2 23 
4 *115:14 *115:23 2.07143 
5 *115:23 *115:29 32.9621 
6 *115:29 *3783:C 23 
7 *115:23 *3770:A2 24.5743 
*END

*D_NET *116 0.00252557
*CONN
*I *3783:A I *D sky130_fd_sc_hd__nand3_1
*I *3770:B1_N I *D sky130_fd_sc_hd__a21bo_1
*I *3784:A1 I *D sky130_fd_sc_hd__a21o_1
*I *3769:Y O *D sky130_fd_sc_hd__nand4_1
*CAP
1 *3783:A 0.000217963
2 *3770:B1_N 8.81957e-05
3 *3784:A1 0
4 *3769:Y 0.000417371
5 *116:12 8.81957e-05
6 *116:10 0.000635334
7 *3783:A *3796:A_N 1.59975e-05
8 *3783:A *130:8 0.000211625
9 *3783:A *134:8 4.73627e-05
10 *116:10 *3768:B2 0
11 *116:10 *122:16 6.17437e-06
12 *116:10 *130:8 0.000110913
13 *116:10 *132:29 0
14 *116:10 *149:8 3.22118e-05
15 *116:10 *263:42 2.93845e-05
16 *116:10 *266:20 0.000101472
17 *116:10 *266:22 9.28739e-05
18 *116:10 *267:68 0
19 *3783:B *3783:A 0
20 *3784:B1 *3770:B1_N 9.41704e-05
21 *115:10 *3783:A 4.66241e-05
22 *115:10 *116:10 0.000289704
*RES
1 *3769:Y *116:10 46.8864 
2 *116:10 *116:12 15 
3 *116:12 *3784:A1 23 
4 *116:12 *3770:B1_N 24.0979 
5 *116:10 *3783:A 42.93 
*END

*D_NET *117 0.00234248
*CONN
*I *3772:B I *D sky130_fd_sc_hd__nand3_1
*I *3771:B1 I *D sky130_fd_sc_hd__a21o_1
*I *3770:X O *D sky130_fd_sc_hd__a21bo_1
*CAP
1 *3772:B 6.08366e-05
2 *3771:B1 0.000161154
3 *3770:X 0.000307396
4 *117:8 0.000529386
5 *3771:B1 *3789:A1 1.05441e-05
6 *3771:B1 *118:6 3.17516e-05
7 *3771:B1 *119:10 7.41959e-05
8 *3771:B1 *296:139 0.000221992
9 *3772:B *119:8 7.6144e-05
10 *3772:B *119:10 1.01436e-05
11 *117:8 *296:139 0.000441065
12 *3771:A1 *3771:B1 8.38623e-05
13 *3772:A *3771:B1 8.7901e-05
14 *3772:A *3772:B 0.000156379
15 *3772:C *3772:B 4.07715e-05
16 *3773:A1 *3771:B1 0
17 *111:50 *3771:B1 3.84128e-05
18 *112:10 *3771:B1 1.05441e-05
*RES
1 *3770:X *117:8 42.9093 
2 *117:8 *3771:B1 42.7229 
3 *117:8 *3772:B 40.2579 
*END

*D_NET *118 0.00189432
*CONN
*I *3782:C I *D sky130_fd_sc_hd__nand3_1
*I *3789:A2 I *D sky130_fd_sc_hd__a21o_1
*I *3773:A2 I *D sky130_fd_sc_hd__a21bo_1
*I *3771:X O *D sky130_fd_sc_hd__a21o_1
*CAP
1 *3782:C 0.000155357
2 *3789:A2 0
3 *3773:A2 8.29083e-05
4 *3771:X 0
5 *118:23 9.42928e-05
6 *118:6 0.000523973
7 *118:4 0.000502129
8 *118:6 *296:139 2.63595e-05
9 *118:23 *3789:A1 1.14154e-05
10 *3766:A2 *118:23 4.00259e-06
11 *3771:A1 *3773:A2 1.00493e-05
12 *3771:A1 *118:6 0.000180224
13 *3771:B1 *118:6 3.17516e-05
14 *3773:A1 *3773:A2 3.04596e-05
15 *3773:A1 *118:6 3.7122e-06
16 *3789:B1 *118:23 4.334e-05
17 *111:50 *3782:C 9.84851e-05
18 *111:50 *118:6 5.50049e-05
19 *112:10 *118:23 4.08537e-05
*RES
1 *3771:X *118:4 23 
2 *118:4 *118:6 4.90929 
3 *118:6 *3773:A2 24.4707 
4 *118:6 *118:23 32.0507 
5 *118:23 *3789:A2 23 
6 *118:4 *3782:C 25.5479 
*END

*D_NET *119 0.00257621
*CONN
*I *3782:A I *D sky130_fd_sc_hd__nand3_1
*I *3773:B1_N I *D sky130_fd_sc_hd__a21bo_1
*I *3789:A1 I *D sky130_fd_sc_hd__a21o_1
*I *3772:Y O *D sky130_fd_sc_hd__nand3_1
*CAP
1 *3782:A 0.000338708
2 *3773:B1_N 0
3 *3789:A1 0.000324486
4 *3772:Y 3.62107e-05
5 *119:10 0.000368196
6 *119:8 0.000418629
7 *3782:A *296:139 0.000262858
8 *3766:A2 *3789:A1 5.50049e-05
9 *3771:B1 *3789:A1 1.05441e-05
10 *3771:B1 *119:10 7.41959e-05
11 *3772:B *119:8 7.6144e-05
12 *3772:B *119:10 1.01436e-05
13 *3772:C *119:8 8.62876e-05
14 *3772:C *119:10 7.41959e-05
15 *3789:B1 *3789:A1 0
16 *101:14 *3789:A1 5.24977e-05
17 *111:50 *3782:A 7.60413e-05
18 *112:10 *3789:A1 5.33861e-05
19 *113:10 *3789:A1 0.000236719
20 *113:10 *119:10 1.05441e-05
21 *118:23 *3789:A1 1.14154e-05
*RES
1 *3772:Y *119:8 39.2014 
2 *119:8 *119:10 1.20143 
3 *119:10 *3789:A1 44.6907 
4 *119:10 *3773:B1_N 38 
5 *119:8 *3782:A 43.7793 
*END

*D_NET *120 0.00199659
*CONN
*I *3775:B I *D sky130_fd_sc_hd__and3_1
*I *3801:B1 I *D sky130_fd_sc_hd__a21oi_1
*I *3773:X O *D sky130_fd_sc_hd__a21bo_1
*CAP
1 *3775:B 4.8697e-05
2 *3801:B1 0.000127704
3 *3773:X 0.000520256
4 *120:10 0.000176401
5 *120:8 0.000520256
6 *3801:B1 *3802:B 6.20905e-05
7 *3801:B1 *122:10 6.89881e-05
8 *120:8 *121:10 0.000108681
9 *120:8 *212:114 0
10 *3789:B1 *120:8 0.000141888
11 *3801:A1 *3775:B 2.02872e-05
12 *3801:A1 *3801:B1 0.000181092
13 *101:14 *120:8 0
14 *102:8 *120:8 0
15 *102:23 *120:8 0
16 *110:12 *3801:B1 2.02517e-05
17 *114:16 *120:8 0
*RES
1 *3773:X *120:8 46.5964 
2 *120:8 *120:10 15 
3 *120:10 *3801:B1 27.0186 
4 *120:10 *3775:B 23.6214 
*END

*D_NET *121 0.00178994
*CONN
*I *3775:C I *D sky130_fd_sc_hd__and3_1
*I *3801:A2 I *D sky130_fd_sc_hd__a21oi_1
*I *3774:X O *D sky130_fd_sc_hd__a21o_1
*CAP
1 *3775:C 0
2 *3801:A2 7.37966e-05
3 *3774:X 0.000346078
4 *121:14 8.85831e-05
5 *121:10 0.000360865
6 *3801:A2 *122:10 6.81213e-05
7 *121:10 *212:114 0
8 *121:10 *264:47 3.83059e-05
9 *3763:B *121:10 3.83498e-05
10 *3774:A2 *121:10 0.000267173
11 *3774:B1 *121:10 0.000123944
12 *3775:A *3801:A2 2.02517e-05
13 *3801:A1 *3801:A2 0.000118138
14 *3801:A1 *121:14 4.63078e-06
15 *102:8 *121:10 0
16 *105:18 *121:10 4.67488e-05
17 *110:8 *121:10 8.62783e-05
18 *120:8 *121:10 0.000108681
*RES
1 *3774:X *121:10 45.8714 
2 *121:10 *121:14 15.2537 
3 *121:14 *3801:A2 25.1077 
4 *121:14 *3775:C 23 
*END

*D_NET *122 0.00237481
*CONN
*I *3802:A I *D sky130_fd_sc_hd__nor2_1
*I *3777:B1_N I *D sky130_fd_sc_hd__o21ba_1
*I *3776:C_N I *D sky130_fd_sc_hd__nor3b_1
*I *3775:X O *D sky130_fd_sc_hd__and3_1
*CAP
1 *3802:A 0
2 *3777:B1_N 4.26123e-05
3 *3776:C_N 9.0418e-05
4 *3775:X 0.0002153
5 *122:16 0.000423212
6 *122:10 0.000505481
7 *3776:C_N *263:42 8.68575e-05
8 *3776:C_N *266:22 4.07715e-05
9 *122:10 *3802:B 5.54148e-05
10 *122:10 *149:8 2.80512e-05
11 *122:10 *263:42 0
12 *122:16 *149:8 9.62764e-05
13 *122:16 *263:42 0.000132496
14 *122:16 *266:22 0.000211588
15 *122:16 *267:68 0
16 *3781:A *3777:B1_N 9.84794e-05
17 *3801:A1 *122:10 2.4754e-05
18 *3801:A2 *122:10 6.81213e-05
19 *3801:B1 *122:10 6.89881e-05
20 *109:22 *3776:C_N 0.000169674
21 *109:22 *122:16 1.01436e-05
22 *116:10 *122:16 6.17437e-06
*RES
1 *3775:X *122:10 27.9507 
2 *122:10 *122:16 22.83 
3 *122:16 *3776:C_N 41.3143 
4 *122:16 *3777:B1_N 39.0979 
5 *122:10 *3802:A 23 
*END

*D_NET *123 0.00157652
*CONN
*I *3811:A2 I *D sky130_fd_sc_hd__o21a_1
*I *3839:A_N I *D sky130_fd_sc_hd__and2b_1
*I *3778:A I *D sky130_fd_sc_hd__nor2_1
*I *3776:Y O *D sky130_fd_sc_hd__nor3b_1
*CAP
1 *3811:A2 0
2 *3839:A_N 0
3 *3778:A 0.000147312
4 *3776:Y 8.20474e-05
5 *123:27 0.000110374
6 *123:8 0.000356939
7 *123:6 0.0001813
8 *3778:A *3811:B1 1.89493e-05
9 *3778:A *3812:A1 0
10 *3778:A *3812:B1 5.50106e-05
11 *123:6 *127:14 7.44161e-06
12 *123:8 *3811:B1 9.88574e-06
13 *123:8 *127:14 1.05235e-05
14 *123:27 *3781:B 0.000166522
15 *123:27 *132:29 8.15327e-05
16 *123:27 *245:98 0.000329214
17 *3811:A1 *123:6 1.94693e-05
*RES
1 *3776:Y *123:6 24.0979 
2 *123:6 *123:8 1.09786 
3 *123:8 *3778:A 26.0657 
4 *123:8 *123:27 34.3707 
5 *123:27 *3839:A_N 23 
6 *123:6 *3811:A2 23 
*END

*D_NET *124 0.00243385
*CONN
*I *3778:B I *D sky130_fd_sc_hd__nor2_1
*I *3842:A1 I *D sky130_fd_sc_hd__o21ba_1
*I *3777:X O *D sky130_fd_sc_hd__o21ba_1
*CAP
1 *3778:B 0
2 *3842:A1 0.000249592
3 *3777:X 0.00038936
4 *124:23 0.000199379
5 *124:8 0.000838331
6 *3842:A1 *3842:A2 0.000308039
7 *3842:A1 *128:34 6.08617e-05
8 *3842:A1 *156:21 6.17437e-06
9 *124:8 *128:34 1.14876e-05
10 *124:23 *3812:B1 5.50106e-05
11 *124:23 *125:23 0.000167443
12 *124:23 *186:10 4.07715e-05
13 *124:23 *272:12 7.38195e-05
14 *3781:A *124:8 3.3577e-05
*RES
1 *3777:X *124:8 28.7586 
2 *124:8 *3842:A1 27.9093 
3 *124:8 *124:23 33.9357 
4 *124:23 *3778:B 23 
*END

*D_NET *125 0.00200016
*CONN
*I *3804:A I *D sky130_fd_sc_hd__and4_1
*I *3835:A I *D sky130_fd_sc_hd__inv_2
*I *3812:A1 I *D sky130_fd_sc_hd__a31o_1
*I *3778:Y O *D sky130_fd_sc_hd__nor2_1
*CAP
1 *3804:A 1.22655e-05
2 *3835:A 0.000189317
3 *3812:A1 7.91845e-05
4 *3778:Y 8.05017e-05
5 *125:23 0.000357686
6 *125:6 0.00031579
7 *3804:A *3804:B 4.2573e-05
8 *3804:A *186:10 5.50106e-05
9 *3812:A1 *3812:B1 1.32314e-05
10 *3835:A *3804:B 5.3304e-05
11 *3835:A *3804:D 5.3304e-05
12 *3835:A *3837:A2 5.41288e-05
13 *3835:A *151:10 2.64616e-05
14 *3835:A *186:10 5.3304e-05
15 *125:6 *3812:B1 4.5051e-05
16 *125:23 *128:34 5.31444e-05
17 *125:23 *186:10 0.000348456
18 *125:23 *272:12 0
19 *3778:A *3812:A1 0
20 *124:23 *125:23 0.000167443
*RES
1 *3778:Y *125:6 24.0979 
2 *125:6 *3812:A1 24.6157 
3 *125:6 *125:23 34.7229 
4 *125:23 *3835:A 26.48 
5 *125:23 *3804:A 23.6214 
*END

*D_NET *126 0.00118613
*CONN
*I *3780:B I *D sky130_fd_sc_hd__nor2_1
*I *3779:Y O *D sky130_fd_sc_hd__a21oi_1
*CAP
1 *3780:B 0.000121246
2 *3779:Y 0.000238217
3 *126:10 0.000359463
4 *3780:B *279:29 6.15314e-05
5 *126:10 *266:22 0.000166513
6 *3746:A *126:10 2.32101e-05
7 *3746:B *126:10 5.50049e-05
8 *3779:B1 *126:10 8.1796e-05
9 *91:8 *126:10 7.91493e-05
*RES
1 *3779:Y *126:10 42.785 
2 *126:10 *3780:B 40.0507 
*END

*D_NET *127 0.00260978
*CONN
*I *3781:B I *D sky130_fd_sc_hd__xor2_2
*I *3811:B1 I *D sky130_fd_sc_hd__o21a_1
*I *3780:Y O *D sky130_fd_sc_hd__nor2_1
*CAP
1 *3781:B 0.000127077
2 *3811:B1 5.51145e-05
3 *3780:Y 0.000330897
4 *127:14 0.000351861
5 *127:8 0.000500567
6 *3781:B *132:29 0.000274553
7 *3781:B *245:98 5.20202e-05
8 *127:8 *3785:A 4.87216e-05
9 *127:8 *263:23 0.000108978
10 *127:8 *263:42 0.000396805
11 *127:8 *266:22 0
12 *3778:A *3811:B1 1.89493e-05
13 *3811:A1 *127:14 0.000138444
14 *108:14 *3811:B1 0
15 *108:14 *127:14 1.14154e-05
16 *123:6 *127:14 7.44161e-06
17 *123:8 *3811:B1 9.88574e-06
18 *123:8 *127:14 1.05235e-05
19 *123:27 *3781:B 0.000166522
*RES
1 *3780:Y *127:8 44.8357 
2 *127:8 *127:14 18.0243 
3 *127:14 *3811:B1 24.1186 
4 *127:14 *3781:B 33.6664 
*END

*D_NET *128 0.00269296
*CONN
*I *3839:B I *D sky130_fd_sc_hd__and2b_1
*I *3804:B I *D sky130_fd_sc_hd__and4_1
*I *3812:A2 I *D sky130_fd_sc_hd__a31o_1
*I *3842:A2 I *D sky130_fd_sc_hd__o21ba_1
*I *3781:X O *D sky130_fd_sc_hd__xor2_2
*CAP
1 *3839:B 9.29071e-05
2 *3804:B 9.37847e-05
3 *3812:A2 0
4 *3842:A2 0.000240402
5 *3781:X 0
6 *128:34 0.000440375
7 *128:19 8.12255e-05
8 *128:4 0.000575311
9 *3804:B *186:10 2.18409e-05
10 *3839:B *186:10 6.17437e-06
11 *3842:A2 *156:21 3.34129e-05
12 *3842:A2 *177:16 1.37232e-05
13 *128:19 *3840:A1 1.14452e-05
14 *128:19 *157:39 0.0002499
15 *128:19 *186:10 0.0002499
16 *128:34 *272:12 5.31444e-05
17 *3804:A *3804:B 4.2573e-05
18 *3835:A *3804:B 5.3304e-05
19 *3842:A1 *3842:A2 0.000308039
20 *3842:A1 *128:34 6.08617e-05
21 *124:8 *128:34 1.14876e-05
22 *125:23 *128:34 5.31444e-05
*RES
1 *3781:X *128:4 23 
2 *128:4 *3842:A2 27.93 
3 *128:4 *128:19 33.3143 
4 *128:19 *3812:A2 23 
5 *128:4 *128:34 34.1014 
6 *128:34 *3804:B 24.5743 
7 *128:34 *3839:B 24.8229 
*END

*D_NET *129 0.00441737
*CONN
*I *3790:A I *D sky130_fd_sc_hd__and3_1
*I *3791:A1 I *D sky130_fd_sc_hd__a21oi_1
*I *3782:Y O *D sky130_fd_sc_hd__nand3_1
*CAP
1 *3790:A 0
2 *3791:A1 0.000137404
3 *3782:Y 6.01543e-05
4 *129:18 0.00171095
5 *129:10 0.0016337
6 *3791:A1 *3790:C 0.000105592
7 *3791:A1 *3791:A2 0.000269775
8 *3791:A1 *3791:B1 2.18506e-05
9 *129:10 *296:14 0
10 *129:10 *296:139 7.53721e-05
11 *129:18 *133:29 0.000392306
12 *129:18 *144:8 1.02561e-05
*RES
1 *3782:Y *129:10 47.0254 
2 *129:10 *129:18 27.0693 
3 *129:18 *3791:A1 26.48 
4 *129:18 *3790:A 23 
*END

*D_NET *130 0.00173919
*CONN
*I *3786:A1 I *D sky130_fd_sc_hd__a21o_1
*I *3787:A I *D sky130_fd_sc_hd__and3_1
*I *3783:Y O *D sky130_fd_sc_hd__nand3_1
*CAP
1 *3786:A1 0.000259448
2 *3787:A 0
3 *3783:Y 0.000196006
4 *130:10 0.000259448
5 *130:8 0.000196006
6 *3786:A1 *3787:C 0.000164303
7 *3786:A1 *136:10 3.22087e-05
8 *130:8 *266:20 0.000309233
9 *3783:A *130:8 0.000211625
10 *116:10 *130:8 0.000110913
*RES
1 *3783:Y *130:8 42.3707 
2 *130:8 *130:10 15 
3 *130:10 *3787:A 23 
4 *130:10 *3786:A1 26.5007 
*END

*D_NET *131 0.00136909
*CONN
*I *3786:A2 I *D sky130_fd_sc_hd__a21o_1
*I *3787:B I *D sky130_fd_sc_hd__and3_1
*I *3784:X O *D sky130_fd_sc_hd__a21o_1
*CAP
1 *3786:A2 0
2 *3787:B 0.00014008
3 *3784:X 0.000349775
4 *131:22 0.000159667
5 *131:18 0.000369362
6 *3787:B *3787:C 3.03981e-05
7 *3787:B *136:10 5.50049e-05
8 *131:18 *132:29 1.01436e-05
9 *131:18 *133:29 4.51403e-05
10 *131:18 *134:8 6.77823e-05
11 *131:18 *142:10 4.6318e-06
12 *131:18 *245:98 2.87913e-05
13 *131:18 *272:12 0
14 *131:18 *296:139 5.3304e-05
15 *131:22 *3787:C 5.50106e-05
*RES
1 *3784:X *131:18 43.8207 
2 *131:18 *131:22 15.6214 
3 *131:22 *3787:B 25.9207 
4 *131:22 *3786:A2 23 
*END

*D_NET *132 0.0049824
*CONN
*I *3787:C I *D sky130_fd_sc_hd__and3_1
*I *3786:B1 I *D sky130_fd_sc_hd__a21o_1
*I *3792:A I *D sky130_fd_sc_hd__inv_2
*I *3785:X O *D sky130_fd_sc_hd__and4_1
*CAP
1 *3787:C 0.000117324
2 *3786:B1 3.76539e-05
3 *3792:A 0
4 *3785:X 7.19288e-05
5 *132:29 0.000866776
6 *132:18 0.000280476
7 *132:8 0.0010642
8 *3787:C *136:10 1.94052e-05
9 *132:8 *213:42 1.14154e-05
10 *132:8 *213:51 9.84851e-05
11 *132:18 *139:6 9.58714e-05
12 *132:18 *213:42 0.00015275
13 *132:18 *213:51 1.08233e-05
14 *132:18 *245:92 0.000161121
15 *132:18 *272:12 0.00015795
16 *132:29 *3768:B2 2.60152e-05
17 *132:29 *3794:A 2.96154e-05
18 *132:29 *134:8 2.96805e-05
19 *132:29 *140:8 0.000160191
20 *132:29 *245:92 2.79167e-05
21 *132:29 *245:98 0.000215909
22 *132:29 *263:55 0.000166522
23 *132:29 *266:105 8.4047e-05
24 *132:29 *267:59 0.00040842
25 *132:29 *267:68 5.9679e-05
26 *132:29 *274:29 1.22803e-05
27 *3781:B *132:29 0.000274553
28 *3786:A1 *3787:C 0.000164303
29 *3787:B *3787:C 3.03981e-05
30 *115:10 *132:29 0
31 *116:10 *132:29 0
32 *123:27 *132:29 8.15327e-05
33 *131:18 *132:29 1.01436e-05
34 *131:22 *3787:C 5.50106e-05
*RES
1 *3785:X *132:8 24.595 
2 *132:8 *132:18 35.4064 
3 *132:18 *3792:A 23 
4 *132:8 *132:29 49.1607 
5 *132:29 *3786:B1 23.6214 
6 *132:29 *3787:C 25.8586 
*END

*D_NET *133 0.00196876
*CONN
*I *3796:B I *D sky130_fd_sc_hd__and2b_1
*I *3788:A3 I *D sky130_fd_sc_hd__a31o_1
*I *3786:X O *D sky130_fd_sc_hd__a21o_1
*CAP
1 *3796:B 0
2 *3788:A3 0
3 *3786:X 0.000268402
4 *133:29 0.000317644
5 *133:10 0.000586046
6 *133:10 *272:12 0.000160591
7 *133:29 *3796:A_N 2.68751e-05
8 *133:29 *134:8 0.000119044
9 *133:29 *142:10 2.93666e-05
10 *133:29 *144:8 0
11 *133:29 *272:12 2.33476e-05
12 *129:18 *133:29 0.000392306
13 *131:18 *133:29 4.51403e-05
*RES
1 *3786:X *133:10 41.8321 
2 *133:10 *3788:A3 38 
3 *133:10 *133:29 34.1458 
4 *133:29 *3796:B 23 
*END

*D_NET *134 0.00219027
*CONN
*I *3796:A_N I *D sky130_fd_sc_hd__and2b_1
*I *3788:B1 I *D sky130_fd_sc_hd__a31o_1
*I *3787:X O *D sky130_fd_sc_hd__and3_1
*CAP
1 *3796:A_N 0.000127504
2 *3788:B1 4.22989e-05
3 *3787:X 0.00025975
4 *134:20 0.000345244
5 *134:8 0.000690201
6 *3796:A_N *142:10 0
7 *3796:A_N *266:20 0
8 *134:8 *136:10 0.000163343
9 *134:20 *3795:A 1.97125e-05
10 *134:20 *3797:B 7.44257e-05
11 *134:20 *142:10 8.4047e-05
12 *134:20 *272:12 2.79004e-05
13 *3783:A *3796:A_N 1.59975e-05
14 *3783:A *134:8 4.73627e-05
15 *115:10 *134:8 4.91022e-05
16 *131:18 *134:8 6.77823e-05
17 *132:29 *134:8 2.96805e-05
18 *133:29 *3796:A_N 2.68751e-05
19 *133:29 *134:8 0.000119044
*RES
1 *3787:X *134:8 43.7793 
2 *134:8 *134:20 49.35 
3 *134:20 *3788:B1 23.8493 
4 *134:8 *3796:A_N 40.4236 
*END

*D_NET *135 0.000995228
*CONN
*I *3790:B I *D sky130_fd_sc_hd__and3_1
*I *3791:B1 I *D sky130_fd_sc_hd__a21oi_1
*I *3788:X O *D sky130_fd_sc_hd__a31o_1
*CAP
1 *3790:B 0
2 *3791:B1 0.000195981
3 *3788:X 0.000145538
4 *135:6 0.000341519
5 *3791:B1 *3791:A2 0.000185428
6 *3791:B1 *138:10 5.41288e-05
7 *135:6 *3791:A2 4.56338e-05
8 *135:6 *136:14 5.14746e-06
9 *3791:A1 *3791:B1 2.18506e-05
*RES
1 *3788:X *135:6 25.0507 
2 *135:6 *3791:B1 27.8264 
3 *135:6 *3790:B 23 
*END

*D_NET *136 0.003588
*CONN
*I *3791:A2 I *D sky130_fd_sc_hd__a21oi_1
*I *3790:C I *D sky130_fd_sc_hd__and3_1
*I *3789:X O *D sky130_fd_sc_hd__a21o_1
*CAP
1 *3791:A2 0.000111115
2 *3790:C 0.000104212
3 *3789:X 0.00043942
4 *136:14 0.000679048
5 *136:10 0.000903141
6 *136:14 *3788:A2 0.000267178
7 *136:14 *296:139 2.87922e-05
8 *3784:B1 *136:14 1.24376e-05
9 *3786:A1 *136:10 3.22087e-05
10 *3787:B *136:10 5.50049e-05
11 *3787:C *136:10 1.94052e-05
12 *3791:A1 *3790:C 0.000105592
13 *3791:A1 *3791:A2 0.000269775
14 *3791:B1 *3791:A2 0.000185428
15 *115:10 *136:10 0.000161121
16 *134:8 *136:10 0.000163343
17 *135:6 *3791:A2 4.56338e-05
18 *135:6 *136:14 5.14746e-06
*RES
1 *3789:X *136:10 46.5964 
2 *136:10 *136:14 21.3386 
3 *136:14 *3790:C 24.6571 
4 *136:14 *3791:A2 27.3293 
*END

*D_NET *137 0.00291793
*CONN
*I *3798:A_N I *D sky130_fd_sc_hd__and4bb_1
*I *3810:A1 I *D sky130_fd_sc_hd__o21a_1
*I *3799:B1 I *D sky130_fd_sc_hd__o2bb2a_1
*I *3803:A I *D sky130_fd_sc_hd__xor2_1
*I *3790:X O *D sky130_fd_sc_hd__and3_1
*CAP
1 *3798:A_N 7.08176e-05
2 *3810:A1 0
3 *3799:B1 0
4 *3803:A 0.000211469
5 *3790:X 9.7277e-05
6 *137:16 0.000254485
7 *137:12 0.000147312
8 *137:8 0.000272391
9 *3798:A_N *3798:C 0.000228001
10 *3798:A_N *3798:D 1.39317e-05
11 *3798:A_N *145:14 0.000313249
12 *3803:A *3799:A1_N 0.000154923
13 *3803:A *3803:B 0.000123116
14 *3803:A *144:16 0.000228909
15 *3803:A *144:26 0.000351519
16 *3803:A *146:10 7.82213e-06
17 *137:8 *3799:B2 1.34354e-05
18 *137:8 *138:10 4.59027e-05
19 *137:8 *144:8 3.62323e-05
20 *137:8 *144:16 6.01596e-05
21 *137:12 *3799:B2 3.21223e-05
22 *137:12 *144:16 3.47879e-05
23 *137:12 *145:48 8.62783e-05
24 *137:12 *146:10 0
25 *137:16 *3803:B 9.84794e-05
26 *137:16 *144:16 3.53115e-05
*RES
1 *3790:X *137:8 40.61 
2 *137:8 *137:12 17.2579 
3 *137:12 *137:16 1.595 
4 *137:16 *3803:A 30.9543 
5 *137:16 *3799:B1 23 
6 *137:12 *3810:A1 23 
7 *137:8 *3798:A_N 41.48 
*END

*D_NET *138 0.00134156
*CONN
*I *3798:B_N I *D sky130_fd_sc_hd__and4bb_1
*I *3799:B2 I *D sky130_fd_sc_hd__o2bb2a_1
*I *3791:Y O *D sky130_fd_sc_hd__a21oi_1
*CAP
1 *3798:B_N 0.000101419
2 *3799:B2 0.000134985
3 *3791:Y 0.000268866
4 *138:10 0.000505269
5 *3798:B_N *3798:C 0.000185428
6 *3799:B2 *3798:C 0
7 *138:10 *144:8 0
8 *3791:B1 *138:10 5.41288e-05
9 *137:8 *3799:B2 1.34354e-05
10 *137:8 *138:10 4.59027e-05
11 *137:12 *3799:B2 3.21223e-05
*RES
1 *3791:Y *138:10 42.7643 
2 *138:10 *3799:B2 40.2579 
3 *138:10 *3798:B_N 40.5479 
*END

*D_NET *139 0.00121706
*CONN
*I *3794:C I *D sky130_fd_sc_hd__and4_2
*I *3806:B1 I *D sky130_fd_sc_hd__a22o_1
*I *3792:Y O *D sky130_fd_sc_hd__inv_2
*CAP
1 *3794:C 0.000140808
2 *3806:B1 2.21624e-05
3 *3792:Y 0.000113805
4 *139:6 0.000276774
5 *3794:C *3794:A 0.000123506
6 *3794:C *3794:D 9.02461e-05
7 *3794:C *3806:A2 2.79543e-05
8 *3794:C *141:8 6.37845e-05
9 *3806:B1 *3794:D 5.90675e-06
10 *3806:B1 *3806:A2 4.26942e-06
11 *139:6 *3794:A 5.50106e-05
12 *139:6 *3806:A2 4.22306e-05
13 *139:6 *141:8 5.62507e-05
14 *139:6 *153:20 9.84794e-05
15 *132:18 *139:6 9.58714e-05
*RES
1 *3792:Y *139:6 26.0036 
2 *139:6 *3806:B1 23.4971 
3 *139:6 *3794:C 26.5007 
*END

*D_NET *140 0.00103146
*CONN
*I *3794:D I *D sky130_fd_sc_hd__and4_2
*I *3806:B2 I *D sky130_fd_sc_hd__a22o_1
*I *3793:X O *D sky130_fd_sc_hd__a22o_1
*CAP
1 *3794:D 0.000105982
2 *3806:B2 0
3 *3793:X 8.0326e-05
4 *140:10 0.000105982
5 *140:8 8.0326e-05
6 *3794:D *3806:A2 0.00014074
7 *3794:D *141:8 1.32939e-05
8 *3794:D *212:88 8.60475e-05
9 *140:8 *267:59 0.000162422
10 *3794:C *3794:D 9.02461e-05
11 *3806:B1 *3794:D 5.90675e-06
12 *132:29 *140:8 0.000160191
*RES
1 *3793:X *140:8 40.2579 
2 *140:8 *140:10 15 
3 *140:10 *3806:B2 23 
4 *140:10 *3794:D 26.0243 
*END

*D_NET *141 0.0100539
*CONN
*I *3798:C I *D sky130_fd_sc_hd__and4bb_1
*I *3799:A1_N I *D sky130_fd_sc_hd__o2bb2a_1
*I *3805:A I *D sky130_fd_sc_hd__inv_2
*I *3829:A I *D sky130_fd_sc_hd__nor2_1
*I *3794:X O *D sky130_fd_sc_hd__and4_2
*CAP
1 *3798:C 0.000330291
2 *3799:A1_N 4.92177e-05
3 *3805:A 3.80527e-05
4 *3829:A 0
5 *3794:X 0.000790569
6 *141:44 0.000832783
7 *141:28 0.00043539
8 *141:16 0.000706278
9 *141:14 0.00114566
10 *141:8 0.00125012
11 *3798:C *145:14 0.000155283
12 *3798:C *146:10 0
13 *3798:C *150:10 1.58805e-05
14 *3799:A1_N *3803:B 3.85902e-05
15 *3799:A1_N *146:10 3.82151e-05
16 *3805:A *154:46 5.90675e-06
17 *141:8 *3794:A 0.000180212
18 *141:8 *153:20 0.000488055
19 *141:8 *212:88 8.84817e-06
20 *141:14 *3813:B1 0.000136738
21 *141:14 *3831:A 0.000161121
22 *141:14 *3844:C 7.56331e-05
23 *141:14 *3844:D_N 2.64616e-05
24 *141:14 *151:10 4.92689e-05
25 *141:14 *182:36 0.000238185
26 *141:16 *3844:C 5.37348e-06
27 *141:16 *152:21 2.13733e-05
28 *141:16 *153:28 0.000228903
29 *141:16 *154:46 3.17516e-05
30 *141:28 *3829:B 3.52815e-05
31 *141:28 *3830:B 6.09117e-05
32 *141:28 *3852:A 0.000182832
33 *141:28 *3854:A1 5.67058e-05
34 *141:28 *3854:B1 5.12254e-05
35 *141:28 *153:28 0.000230604
36 *141:28 *154:25 2.25927e-05
37 *141:28 *154:46 0.000120178
38 *141:28 *280:12 0.000201454
39 *141:44 *145:14 8.22585e-05
40 *141:44 *150:10 7.97723e-05
41 *141:44 *156:21 0
42 *141:44 *177:10 0
43 *141:44 *177:31 7.76364e-06
44 *141:44 *185:10 0.000200024
45 *141:44 *188:10 0.000166522
46 *141:44 *189:10 0.000369929
47 *3794:C *141:8 6.37845e-05
48 *3794:D *141:8 1.32939e-05
49 *3798:A_N *3798:C 0.000228001
50 *3798:B_N *3798:C 0.000185428
51 *3799:B2 *3798:C 0
52 *3803:A *3799:A1_N 0.000154923
53 *139:6 *141:8 5.62507e-05
*RES
1 *3794:X *141:8 49.5793 
2 *141:8 *141:14 23.8036 
3 *141:14 *141:16 4.90929 
4 *141:16 *141:28 41.9314 
5 *141:28 *3829:A 23 
6 *141:16 *3805:A 23.8493 
7 *141:14 *141:44 25.7093 
8 *141:44 *3799:A1_N 39.7452 
9 *141:44 *3798:C 45.395 
*END

*D_NET *142 0.000616324
*CONN
*I *3797:A I *D sky130_fd_sc_hd__xnor2_2
*I *3795:Y O *D sky130_fd_sc_hd__nand2_1
*CAP
1 *3797:A 5.76547e-05
2 *3795:Y 0.000156522
3 *142:10 0.000214177
4 *3797:A *3797:B 5.50049e-05
5 *142:10 *3788:A2 1.10417e-05
6 *142:10 *3795:A 3.87786e-06
7 *142:10 *272:12 0
8 *3796:A_N *142:10 0
9 *131:18 *142:10 4.6318e-06
10 *133:29 *142:10 2.93666e-05
11 *134:20 *142:10 8.4047e-05
*RES
1 *3795:Y *142:10 40.8793 
2 *142:10 *3797:A 39.0979 
*END

*D_NET *143 0.000251151
*CONN
*I *3797:B I *D sky130_fd_sc_hd__xnor2_2
*I *3796:X O *D sky130_fd_sc_hd__and2b_1
*CAP
1 *3797:B 6.08599e-05
2 *3796:X 6.08599e-05
3 *3797:A *3797:B 5.50049e-05
4 *134:20 *3797:B 7.44257e-05
*RES
1 *3796:X *3797:B 47.5743 
*END

*D_NET *144 0.00513822
*CONN
*I *3798:D I *D sky130_fd_sc_hd__and4bb_1
*I *3799:A2_N I *D sky130_fd_sc_hd__o2bb2a_1
*I *3809:A I *D sky130_fd_sc_hd__and2_1
*I *3830:A I *D sky130_fd_sc_hd__xnor2_1
*I *3797:Y O *D sky130_fd_sc_hd__xnor2_2
*CAP
1 *3798:D 0.000138269
2 *3799:A2_N 0
3 *3809:A 0
4 *3830:A 0.000119377
5 *3797:Y 0.000321169
6 *144:26 0.000924281
7 *144:16 0.00128319
8 *144:8 0.000937726
9 *3798:D *145:14 2.92911e-06
10 *3830:A *3809:B 0.000145258
11 *3830:A *3829:B 9.67842e-05
12 *3830:A *3830:B 0
13 *3830:A *177:10 2.4754e-05
14 *144:8 *272:12 0
15 *144:16 *3803:B 2.65879e-05
16 *144:16 *145:48 8.62783e-05
17 *144:16 *146:10 0
18 *144:16 *149:14 1.44546e-05
19 *144:16 *272:12 0
20 *144:26 *3809:B 4.95081e-05
21 *144:26 *145:14 0
22 *144:26 *147:12 0
23 *144:26 *177:10 0.000141954
24 *144:26 *213:8 0
25 *144:26 *274:12 5.45887e-05
26 *144:26 *280:12 0
27 *3798:A_N *3798:D 1.39317e-05
28 *3803:A *144:16 0.000228909
29 *3803:A *144:26 0.000351519
30 *129:18 *144:8 1.02561e-05
31 *133:29 *144:8 0
32 *137:8 *144:8 3.62323e-05
33 *137:8 *144:16 6.01596e-05
34 *137:12 *144:16 3.47879e-05
35 *137:16 *144:16 3.53115e-05
36 *138:10 *144:8 0
*RES
1 *3797:Y *144:8 42.7229 
2 *144:8 *144:16 24.3007 
3 *144:16 *144:26 43.5886 
4 *144:26 *3830:A 26.0243 
5 *144:26 *3809:A 23 
6 *144:16 *3799:A2_N 23 
7 *144:8 *3798:D 39.5743 
*END

*D_NET *145 0.00411238
*CONN
*I *3810:A2 I *D sky130_fd_sc_hd__o21a_1
*I *3800:A I *D sky130_fd_sc_hd__nor2_1
*I *3837:A1 I *D sky130_fd_sc_hd__o221a_1
*I *3798:X O *D sky130_fd_sc_hd__and4bb_1
*CAP
1 *3810:A2 0
2 *3800:A 0.000106236
3 *3837:A1 0.000233955
4 *3798:X 0
5 *145:48 3.90016e-05
6 *145:14 0.0011806
7 *145:4 0.000879412
8 *3800:A *3800:B 5.90675e-06
9 *3800:A *147:19 5.3304e-05
10 *3800:A *274:21 1.14762e-05
11 *3837:A1 *3837:A2 2.02872e-05
12 *3837:A1 *3837:B1 8.09695e-05
13 *3837:A1 *3837:C1 9.46262e-06
14 *3837:A1 *3841:A1 0.000187681
15 *3837:A1 *147:12 0.000146945
16 *3837:A1 *182:6 5.3304e-05
17 *3837:A1 *182:23 9.58714e-05
18 *3837:A1 *188:10 5.89166e-05
19 *3837:A1 *189:10 0.000136486
20 *145:14 *147:12 2.46345e-05
21 *145:14 *189:10 6.16531e-05
22 *145:14 *274:12 0
23 *3798:A_N *145:14 0.000313249
24 *3798:C *145:14 0.000155283
25 *3798:D *145:14 2.92911e-06
26 *137:12 *145:48 8.62783e-05
27 *141:44 *145:14 8.22585e-05
28 *144:16 *145:48 8.62783e-05
29 *144:26 *145:14 0
*RES
1 *3798:X *145:4 23 
2 *145:4 *145:14 28.485 
3 *145:14 *3837:A1 44.7529 
4 *145:14 *3800:A 39.9471 
5 *145:4 *145:48 31.2014 
6 *145:48 *3810:A2 23 
*END

*D_NET *146 0.00136594
*CONN
*I *3800:B I *D sky130_fd_sc_hd__nor2_1
*I *3843:A1 I *D sky130_fd_sc_hd__o211a_1
*I *3799:X O *D sky130_fd_sc_hd__o2bb2a_1
*CAP
1 *3800:B 0.000114738
2 *3843:A1 0
3 *3799:X 0.000226552
4 *146:14 0.000128276
5 *146:10 0.000240091
6 *3800:B *147:19 0.000107466
7 *3800:B *274:21 0.000223704
8 *146:10 *3803:B 9.84794e-05
9 *146:10 *150:10 9.4389e-05
10 *146:10 *157:14 0
11 *146:10 *184:10 1.74874e-06
12 *146:14 *147:19 5.67058e-05
13 *146:14 *274:21 2.18409e-05
14 *3798:C *146:10 0
15 *3799:A1_N *146:10 3.82151e-05
16 *3800:A *3800:B 5.90675e-06
17 *3803:A *146:10 7.82213e-06
18 *137:12 *146:10 0
19 *144:16 *146:10 0
*RES
1 *3799:X *146:10 42.4121 
2 *146:10 *146:14 15.6214 
3 *146:14 *3843:A1 23 
4 *146:14 *3800:B 26.5214 
*END

*D_NET *147 0.00240192
*CONN
*I *3804:C I *D sky130_fd_sc_hd__and4_1
*I *3838:A I *D sky130_fd_sc_hd__nor2_1
*I *3841:B1 I *D sky130_fd_sc_hd__o21ai_1
*I *3800:Y O *D sky130_fd_sc_hd__nor2_1
*CAP
1 *3804:C 0
2 *3838:A 2.43873e-05
3 *3841:B1 0
4 *3800:Y 0
5 *147:36 0.000277384
6 *147:19 0.000540198
7 *147:12 0.000117456
8 *147:4 0.000355883
9 *147:12 *3837:C1 8.22726e-06
10 *147:12 *177:10 9.48381e-06
11 *147:12 *189:10 1.47563e-05
12 *147:19 *185:10 0.000227208
13 *147:19 *274:21 9.50292e-05
14 *147:36 *157:14 0.000194318
15 *147:36 *186:10 6.38845e-05
16 *147:36 *272:12 0
17 *147:36 *274:21 8.46456e-05
18 *3800:A *147:19 5.3304e-05
19 *3800:B *147:19 0.000107466
20 *3837:A1 *147:12 0.000146945
21 *144:26 *147:12 0
22 *145:14 *147:12 2.46345e-05
23 *146:14 *147:19 5.67058e-05
*RES
1 *3800:Y *147:4 23 
2 *147:4 *147:12 32.812 
3 *147:12 *3841:B1 23 
4 *147:4 *147:19 5.86214 
5 *147:19 *3838:A 23.4971 
6 *147:19 *147:36 35.9864 
7 *147:36 *3804:C 23 
*END

*D_NET *148 0.000256684
*CONN
*I *3802:B I *D sky130_fd_sc_hd__nor2_1
*I *3801:Y O *D sky130_fd_sc_hd__a21oi_1
*CAP
1 *3802:B 6.29739e-05
2 *3801:Y 6.29739e-05
3 *3802:B *149:8 1.32314e-05
4 *3801:B1 *3802:B 6.20905e-05
5 *122:10 *3802:B 5.54148e-05
*RES
1 *3801:Y *3802:B 48.0921 
*END

*D_NET *149 0.0035283
*CONN
*I *3803:B I *D sky130_fd_sc_hd__xor2_1
*I *3810:B1 I *D sky130_fd_sc_hd__o21a_1
*I *3802:Y O *D sky130_fd_sc_hd__nor2_1
*CAP
1 *3803:B 0.000525484
2 *3810:B1 0
3 *3802:Y 0.000571783
4 *149:14 0.000737359
5 *149:8 0.000783658
6 *149:8 *3769:D 3.22879e-05
7 *149:8 *263:42 8.71791e-05
8 *149:8 *274:21 7.92316e-05
9 *149:14 *157:14 0.00014184
10 *149:14 *272:12 0
11 *3799:A1_N *3803:B 3.85902e-05
12 *3802:B *149:8 1.32314e-05
13 *3803:A *3803:B 0.000123116
14 *116:10 *149:8 3.22118e-05
15 *122:10 *149:8 2.80512e-05
16 *122:16 *149:8 9.62764e-05
17 *137:16 *3803:B 9.84794e-05
18 *144:16 *3803:B 2.65879e-05
19 *144:16 *149:14 1.44546e-05
20 *146:10 *3803:B 9.84794e-05
*RES
1 *3802:Y *149:8 48.15 
2 *149:8 *149:14 19.4121 
3 *149:14 *3810:B1 23 
4 *149:14 *3803:B 33.2536 
*END

*D_NET *150 0.00239539
*CONN
*I *3834:A I *D sky130_fd_sc_hd__inv_2
*I *3804:D I *D sky130_fd_sc_hd__and4_1
*I *3843:A2 I *D sky130_fd_sc_hd__o211a_1
*I *3803:X O *D sky130_fd_sc_hd__xor2_1
*CAP
1 *3834:A 0
2 *3804:D 0.000169326
3 *3843:A2 0
4 *3803:X 0.000184029
5 *150:27 0.000671922
6 *150:10 0.000686624
7 *3804:D *3837:B1 7.71315e-05
8 *3804:D *157:14 0.000252483
9 *3804:D *181:8 8.85189e-05
10 *3804:D *184:10 0
11 *150:10 *188:10 1.14452e-05
12 *150:27 *157:14 1.05658e-05
13 *3798:C *150:10 1.58805e-05
14 *3835:A *3804:D 5.3304e-05
15 *141:44 *150:10 7.97723e-05
16 *146:10 *150:10 9.4389e-05
*RES
1 *3803:X *150:10 41.5836 
2 *150:10 *3843:A2 38 
3 *150:10 *150:27 17.2357 
4 *150:27 *3804:D 42.2879 
5 *150:27 *3834:A 38 
*END

*D_NET *151 0.00174021
*CONN
*I *3813:A1 I *D sky130_fd_sc_hd__a21o_1
*I *3831:A I *D sky130_fd_sc_hd__and3_1
*I *3804:X O *D sky130_fd_sc_hd__and4_1
*CAP
1 *3813:A1 6.62505e-05
2 *3831:A 0.00014254
3 *3804:X 0.000233722
4 *151:10 0.000442513
5 *3813:A1 *3813:B1 2.02872e-05
6 *3813:A1 *3844:C 9.8173e-05
7 *3813:A1 *156:29 5.3304e-05
8 *3831:A *3840:A1 1.59312e-05
9 *3831:A *182:36 5.50106e-05
10 *3831:A *186:10 0
11 *3831:A *187:8 8.62783e-05
12 *151:10 *3837:B1 2.24608e-05
13 *151:10 *3840:A1 1.19692e-05
14 *151:10 *157:39 0.000102362
15 *151:10 *182:36 0.000152553
16 *3835:A *151:10 2.64616e-05
17 *141:14 *3831:A 0.000161121
18 *141:14 *151:10 4.92689e-05
*RES
1 *3804:X *151:10 43.6964 
2 *151:10 *3831:A 40.8793 
3 *151:10 *3813:A1 39.595 
*END

*D_NET *152 0.000970155
*CONN
*I *3853:A1 I *D sky130_fd_sc_hd__a21o_1
*I *3808:A I *D sky130_fd_sc_hd__and3_1
*I *3805:Y O *D sky130_fd_sc_hd__inv_2
*CAP
1 *3853:A1 0
2 *3808:A 8.21921e-05
3 *3805:Y 0
4 *152:21 0.000208265
5 *152:4 0.000290457
6 *3808:A *154:46 9.87821e-05
7 *152:21 *153:28 8.62783e-05
8 *152:21 *154:46 0.000182808
9 *141:16 *152:21 2.13733e-05
*RES
1 *3805:Y *152:4 23 
2 *152:4 *3808:A 24.595 
3 *152:4 *152:21 33.7286 
4 *152:21 *3853:A1 23 
*END

*D_NET *153 0.00369967
*CONN
*I *3853:A2 I *D sky130_fd_sc_hd__a21o_1
*I *3808:B I *D sky130_fd_sc_hd__and3_1
*I *3806:X O *D sky130_fd_sc_hd__a22o_1
*CAP
1 *3853:A2 0
2 *3808:B 0
3 *3806:X 0.000450789
4 *153:28 0.000428023
5 *153:20 0.000878812
6 *153:20 *3828:A 1.86564e-05
7 *153:20 *3828:B 5.50049e-05
8 *153:20 *3831:B 4.95081e-05
9 *153:20 *3840:A1 5.29672e-05
10 *153:20 *177:31 8.29066e-05
11 *153:20 *178:10 0.000226351
12 *153:20 *182:36 0.000132544
13 *153:28 *3844:A 2.04774e-05
14 *153:28 *154:46 2.71951e-05
15 *153:28 *177:31 0
16 *153:28 *191:8 0.00014411
17 *139:6 *153:20 9.84794e-05
18 *141:8 *153:20 0.000488055
19 *141:16 *153:28 0.000228903
20 *141:28 *153:28 0.000230604
21 *152:21 *153:28 8.62783e-05
*RES
1 *3806:X *153:20 37.4793 
2 *153:20 *153:28 38.5757 
3 *153:28 *3808:B 23 
4 *153:20 *3853:A2 23 
*END

*D_NET *154 0.00227861
*CONN
*I *3853:B1 I *D sky130_fd_sc_hd__a21o_1
*I *3808:C I *D sky130_fd_sc_hd__and3_1
*I *3848:A I *D sky130_fd_sc_hd__inv_2
*I *3807:X O *D sky130_fd_sc_hd__and4_1
*CAP
1 *3853:B1 0
2 *3808:C 0
3 *3848:A 6.00413e-05
4 *3807:X 0
5 *154:46 0.000227189
6 *154:25 0.000529581
7 *154:4 0.000362433
8 *3848:A *213:42 1.94411e-05
9 *154:25 *3850:A2 4.0773e-05
10 *154:25 *3850:B1 0.000168754
11 *154:25 *3854:A2 6.7177e-06
12 *154:25 *3854:B1 0.000205211
13 *154:25 *213:42 5.90675e-06
14 *154:25 *280:12 0.000163352
15 *154:46 *213:8 0
16 *3805:A *154:46 5.90675e-06
17 *3808:A *154:46 9.87821e-05
18 *141:16 *154:46 3.17516e-05
19 *141:28 *154:25 2.25927e-05
20 *141:28 *154:46 0.000120178
21 *152:21 *154:46 0.000182808
22 *153:28 *154:46 2.71951e-05
*RES
1 *3807:X *154:4 23 
2 *154:4 *3848:A 24.4707 
3 *154:4 *154:25 36.9807 
4 *154:25 *3808:C 23 
5 *154:25 *154:46 37.105 
6 *154:46 *3853:B1 23 
*END

*D_NET *155 0.00301685
*CONN
*I *3809:B I *D sky130_fd_sc_hd__and2_1
*I *3829:B I *D sky130_fd_sc_hd__nor2_1
*I *3852:A I *D sky130_fd_sc_hd__inv_2
*I *3808:X O *D sky130_fd_sc_hd__and3_1
*CAP
1 *3809:B 0.000137594
2 *3829:B 0.000209159
3 *3852:A 0.000373647
4 *3808:X 0
5 *155:21 0.000462529
6 *155:4 0.000489423
7 *3809:B *3841:A1 0
8 *3829:B *3830:B 5.10805e-05
9 *3852:A *3847:B2 0.000111189
10 *3852:A *3854:A1 0.000180476
11 *155:21 *213:8 0.000327903
12 *155:21 *280:12 0.00016419
13 *3830:A *3809:B 0.000145258
14 *3830:A *3829:B 9.67842e-05
15 *141:28 *3829:B 3.52815e-05
16 *141:28 *3852:A 0.000182832
17 *144:26 *3809:B 4.95081e-05
*RES
1 *3808:X *155:4 23 
2 *155:4 *3852:A 30.2086 
3 *155:4 *155:21 34.3707 
4 *155:21 *3829:B 26.9771 
5 *155:21 *3809:B 26.0243 
*END

*D_NET *156 0.00242362
*CONN
*I *3813:A2 I *D sky130_fd_sc_hd__a21o_1
*I *3836:A I *D sky130_fd_sc_hd__inv_2
*I *3809:X O *D sky130_fd_sc_hd__and2_1
*CAP
1 *3813:A2 0
2 *3836:A 0
3 *3809:X 2.268e-05
4 *156:29 0.000138053
5 *156:21 0.000735454
6 *156:6 0.000620082
7 *156:6 *177:10 3.22879e-05
8 *156:21 *177:10 0.000194428
9 *156:21 *177:16 0.000133901
10 *156:21 *177:31 2.64616e-05
11 *156:21 *183:6 5.50049e-05
12 *156:21 *213:8 0
13 *156:29 *3813:B1 9.41704e-05
14 *156:29 *3844:C 2.88979e-05
15 *156:29 *182:36 0.000188926
16 *156:29 *190:10 6.03841e-05
17 *3813:A1 *156:29 5.3304e-05
18 *3842:A1 *156:21 6.17437e-06
19 *3842:A2 *156:21 3.34129e-05
20 *141:44 *156:21 0
*RES
1 *3809:X *156:6 23.6214 
2 *156:6 *3836:A 23 
3 *156:6 *156:21 41.2271 
4 *156:21 *156:29 33.7079 
5 *156:29 *3813:A2 23 
*END

*D_NET *157 0.00429548
*CONN
*I *3812:A3 I *D sky130_fd_sc_hd__a31o_1
*I *3840:A1 I *D sky130_fd_sc_hd__o21a_1
*I *3837:B1 I *D sky130_fd_sc_hd__o221a_1
*I *3810:X O *D sky130_fd_sc_hd__o21a_1
*CAP
1 *3812:A3 0
2 *3840:A1 0.000204331
3 *3837:B1 0.000626644
4 *3810:X 0.000353362
5 *157:39 0.000344392
6 *157:14 0.00112007
7 *3837:B1 *3837:A2 8.9605e-05
8 *3837:B1 *182:23 2.32004e-05
9 *3837:B1 *184:10 4.6318e-06
10 *3837:B1 *188:10 5.50106e-05
11 *3837:B1 *190:10 5.02657e-05
12 *3840:A1 *3806:A2 0
13 *3840:A1 *182:36 1.32314e-05
14 *3840:A1 *186:10 8.15327e-05
15 *3840:A1 *187:8 4.08537e-05
16 *157:14 *186:10 2.03909e-05
17 *157:14 *272:12 0
18 *157:39 *186:10 4.36207e-05
19 *3804:D *3837:B1 7.71315e-05
20 *3804:D *157:14 0.000252483
21 *3831:A *3840:A1 1.59312e-05
22 *3837:A1 *3837:B1 8.09695e-05
23 *128:19 *3840:A1 1.14452e-05
24 *128:19 *157:39 0.0002499
25 *146:10 *157:14 0
26 *147:36 *157:14 0.000194318
27 *149:14 *157:14 0.00014184
28 *150:27 *157:14 1.05658e-05
29 *151:10 *3837:B1 2.24608e-05
30 *151:10 *3840:A1 1.19692e-05
31 *151:10 *157:39 0.000102362
32 *153:20 *3840:A1 5.29672e-05
*RES
1 *3810:X *157:14 45.8196 
2 *157:14 *3837:B1 48.3468 
3 *157:14 *157:39 4.54679 
4 *157:39 *3840:A1 42.8264 
5 *157:39 *3812:A3 38 
*END

*D_NET *158 0.000396934
*CONN
*I *3812:B1 I *D sky130_fd_sc_hd__a31o_1
*I *3811:X O *D sky130_fd_sc_hd__o21a_1
*CAP
1 *3812:B1 0.000114315
2 *3811:X 0.000114315
3 *3778:A *3812:B1 5.50106e-05
4 *3812:A1 *3812:B1 1.32314e-05
5 *124:23 *3812:B1 5.50106e-05
6 *125:6 *3812:B1 4.5051e-05
*RES
1 *3811:X *3812:B1 48.5271 
*END

*D_NET *159 0.000559658
*CONN
*I *3813:B1 I *D sky130_fd_sc_hd__a21o_1
*I *3812:X O *D sky130_fd_sc_hd__a31o_1
*CAP
1 *3813:B1 0.000135756
2 *3812:X 0.000135756
3 *3813:B1 *3844:C 3.69513e-05
4 *3813:A1 *3813:B1 2.02872e-05
5 *141:14 *3813:B1 0.000136738
6 *156:29 *3813:B1 9.41704e-05
*RES
1 *3812:X *3813:B1 49.0243 
*END

*D_NET *160 0.00103975
*CONN
*I *3828:B I *D sky130_fd_sc_hd__xnor2_1
*I *3815:A2 I *D sky130_fd_sc_hd__a21oi_1
*I *3813:X O *D sky130_fd_sc_hd__a21o_1
*CAP
1 *3828:B 1.50079e-05
2 *3815:A2 0.000215571
3 *3813:X 0.0001211
4 *160:8 0.000351678
5 *3815:A2 *174:12 7.08407e-05
6 *3815:A2 *249:66 5.50049e-05
7 *3828:B *178:10 5.50049e-05
8 *160:8 *3831:B 0
9 *160:8 *174:12 6.7177e-06
10 *160:8 *177:31 8.62876e-05
11 *160:8 *182:36 0
12 *95:29 *3815:A2 7.53384e-06
13 *153:20 *3828:B 5.50049e-05
*RES
1 *3813:X *160:8 40.2579 
2 *160:8 *3815:A2 41.5836 
3 *160:8 *3828:B 38.6214 
*END

*D_NET *161 0.000727451
*CONN
*I *3815:B1 I *D sky130_fd_sc_hd__a21oi_1
*I *3827:A I *D sky130_fd_sc_hd__or2b_1
*I *3814:X O *D sky130_fd_sc_hd__and2_1
*CAP
1 *3815:B1 8.84009e-05
2 *3827:A 7.67024e-05
3 *3814:X 8.39588e-05
4 *161:8 0.000249062
5 *3815:B1 *174:12 0
6 *3827:A *162:10 0
7 *3827:A *174:12 0
8 *161:8 *279:29 9.8971e-06
9 *94:10 *3827:A 2.11827e-05
10 *95:16 *161:8 5.29599e-05
11 *95:29 *3815:B1 8.04817e-05
12 *95:29 *3827:A 6.48049e-05
*RES
1 *3814:X *161:8 39.0979 
2 *161:8 *3827:A 39.9057 
3 *161:8 *3815:B1 39.5536 
*END

*D_NET *162 0.00312136
*CONN
*I *3816:S I *D sky130_fd_sc_hd__mux2_1
*I *3826:A2 I *D sky130_fd_sc_hd__o211ai_1
*I *3815:Y O *D sky130_fd_sc_hd__a21oi_1
*CAP
1 *3816:S 3.52389e-05
2 *3826:A2 0
3 *3815:Y 0.00043421
4 *162:16 0.00034362
5 *162:10 0.000742591
6 *3816:S *3826:C1 0.000139352
7 *162:10 *3833:A1 3.06079e-05
8 *162:10 *3833:B1 3.7122e-06
9 *162:10 *163:8 0.000202805
10 *162:10 *174:12 0.000183239
11 *162:10 *178:10 1.19727e-05
12 *162:10 *179:39 0
13 *162:10 *213:42 0.000223698
14 *162:10 *214:110 9.7017e-05
15 *162:10 *249:66 0.000188444
16 *162:16 *3826:C1 1.80984e-05
17 *162:16 *173:10 0.00014196
18 *3816:A0 *3816:S 9.84851e-05
19 *3816:A0 *162:16 0.000226306
20 *3827:A *162:10 0
21 *94:10 *162:10 0
*RES
1 *3815:Y *162:10 49.1236 
2 *162:10 *162:16 21.7114 
3 *162:16 *3826:A2 23 
4 *162:16 *3816:S 24.5743 
*END

*D_NET *163 0.00238116
*CONN
*I *3833:A1 I *D sky130_fd_sc_hd__a31o_1
*I *3845:A1 I *D sky130_fd_sc_hd__o31a_1
*I *3816:X O *D sky130_fd_sc_hd__mux2_1
*CAP
1 *3833:A1 0.000128537
2 *3845:A1 0
3 *3816:X 0.000232325
4 *163:16 0.000341948
5 *163:8 0.00070281
6 *3833:A1 *3831:B 0
7 *3833:A1 *178:10 1.14452e-05
8 *3833:A1 *179:39 0
9 *3833:A1 *214:110 7.17297e-05
10 *3833:A1 *249:66 3.3746e-05
11 *163:8 *179:39 0
12 *163:8 *214:110 3.47781e-05
13 *163:8 *249:66 2.71291e-05
14 *163:8 *249:76 2.36844e-05
15 *163:16 *3849:A1 0.000138444
16 *163:16 *173:10 0.000138718
17 *163:16 *214:110 0.000182826
18 *163:16 *245:33 7.03766e-05
19 *163:16 *279:29 9.24795e-06
20 *162:10 *3833:A1 3.06079e-05
21 *162:10 *163:8 0.000202805
*RES
1 *3816:X *163:8 43.7793 
2 *163:8 *163:16 35.8621 
3 *163:16 *3845:A1 38 
4 *163:8 *3833:A1 40.5271 
*END

*D_NET *164 0.00148677
*CONN
*I *3819:A3 I *D sky130_fd_sc_hd__a31o_1
*I *3817:Y O *D sky130_fd_sc_hd__nand2_1
*CAP
1 *3819:A3 0.000417797
2 *3817:Y 5.60739e-05
3 *164:8 0.000473871
4 *3819:A3 *3832:B 0.000176695
5 *3819:A3 *179:10 3.06338e-05
6 *164:8 *302:62 8.85189e-05
7 *3832:A *3819:A3 1.94812e-05
8 *55:18 *164:8 0
9 *59:14 *3819:A3 2.6652e-05
10 *59:23 *3819:A3 0.000197046
*RES
1 *3817:Y *164:8 39.2014 
2 *164:8 *3819:A3 45.8093 
*END

*D_NET *165 0.0027596
*CONN
*I *3819:B1 I *D sky130_fd_sc_hd__a31o_1
*I *3832:B I *D sky130_fd_sc_hd__and2_1
*I *3818:Y O *D sky130_fd_sc_hd__o21ai_1
*CAP
1 *3819:B1 2.0995e-05
2 *3832:B 0.000361295
3 *3818:Y 0.000194017
4 *165:6 0.000576307
5 *3832:B *246:25 5.3304e-05
6 *165:6 *217:27 4.34745e-05
7 *165:6 *217:39 5.50106e-05
8 *165:6 *246:25 0.000587795
9 *165:6 *246:42 5.50106e-05
10 *3713:B *3832:B 5.3304e-05
11 *3818:A2 *3819:B1 1.14154e-05
12 *3818:A2 *3832:B 4.9662e-05
13 *3818:A2 *165:6 0.000454018
14 *3819:A3 *3832:B 0.000176695
15 *3832:A *3832:B 5.50106e-05
16 *59:23 *3832:B 1.22822e-05
*RES
1 *3818:Y *165:6 30.2914 
2 *165:6 *3832:B 30.1879 
3 *165:6 *3819:B1 23.4971 
*END

*D_NET *166 0.000658039
*CONN
*I *3820:S I *D sky130_fd_sc_hd__mux2_1
*I *3819:X O *D sky130_fd_sc_hd__a31o_1
*CAP
1 *3820:S 4.0046e-05
2 *3819:X 9.22209e-05
3 *166:8 0.000132267
4 *3820:S *303:97 9.67842e-05
5 *166:8 *3712:A 0.000166513
6 *3713:B *166:8 5.45887e-05
7 *3817:B *3820:S 1.24376e-05
8 *55:10 *3820:S 2.98648e-05
9 *55:66 *3820:S 3.7122e-06
10 *58:8 *166:8 2.96051e-05
*RES
1 *3819:X *166:8 40.2579 
2 *166:8 *3820:S 39.0979 
*END

*D_NET *167 0.00206142
*CONN
*I *3825:B1 I *D sky130_fd_sc_hd__o22a_1
*I *3824:A I *D sky130_fd_sc_hd__nand2_1
*I *3820:X O *D sky130_fd_sc_hd__mux2_1
*CAP
1 *3825:B1 2.34823e-05
2 *3824:A 0.000151192
3 *3820:X 0.000384568
4 *167:8 0.000559242
5 *3824:A *3824:B 0.000458714
6 *167:8 *3824:B 4.17736e-05
7 *3734:A *3824:A 1.97597e-05
8 *3817:B *167:8 0.00010018
9 *3825:A2 *3824:A 0.000148688
10 *3825:A2 *3825:B1 0
11 *3825:A2 *167:8 4.34876e-05
12 *55:18 *167:8 2.02517e-05
13 *68:14 *167:8 9.67842e-05
14 *68:23 *3825:B1 0
15 *68:42 *3824:A 1.32939e-05
*RES
1 *3820:X *167:8 29.8357 
2 *167:8 *3824:A 28.4064 
3 *167:8 *3825:B1 23.4971 
*END

*D_NET *168 0.00172403
*CONN
*I *3823:A0 I *D sky130_fd_sc_hd__mux2_1
*I *3822:B1 I *D sky130_fd_sc_hd__o21ai_1
*I *3821:Y O *D sky130_fd_sc_hd__nand2_1
*CAP
1 *3823:A0 9.00428e-05
2 *3822:B1 0
3 *3821:Y 0.000331701
4 *168:16 0.000127794
5 *168:10 0.000369452
6 *3823:A0 *3823:A1 0.000182826
7 *3823:A0 *252:20 2.81138e-05
8 *3823:A0 *257:16 8.2832e-05
9 *168:16 *252:20 1.03955e-05
10 *168:16 *257:16 2.64616e-05
11 *3716:B *168:10 5.78402e-05
12 *3717:B *3823:A0 0
13 *55:26 *3823:A0 2.41378e-06
14 *55:38 *168:10 0.000186274
15 *55:38 *168:16 1.32314e-05
16 *56:16 *168:10 9.73244e-05
17 *61:20 *168:10 4.08664e-05
18 *63:8 *168:10 5.6211e-05
19 *63:12 *168:16 2.02517e-05
*RES
1 *3821:Y *168:10 43.8414 
2 *168:10 *168:16 16.1186 
3 *168:16 *3822:B1 23 
4 *168:16 *3823:A0 26.0243 
*END

*D_NET *169 0.000445419
*CONN
*I *3823:A1 I *D sky130_fd_sc_hd__mux2_1
*I *3822:Y O *D sky130_fd_sc_hd__o21ai_1
*CAP
1 *3823:A1 3.90332e-05
2 *3822:Y 3.90332e-05
3 *3823:A1 *252:20 0.000184527
4 *3823:A0 *3823:A1 0.000182826
*RES
1 *3822:Y *3823:A1 48.0507 
*END

*D_NET *170 0.00324217
*CONN
*I *3825:B2 I *D sky130_fd_sc_hd__o22a_1
*I *3824:B I *D sky130_fd_sc_hd__nand2_1
*I *3823:X O *D sky130_fd_sc_hd__mux2_1
*CAP
1 *3825:B2 5.00727e-05
2 *3824:B 0.000461605
3 *3823:X 0.000450988
4 *170:14 0.000962666
5 *3825:B2 *179:39 0
6 *170:14 *3719:A1 6.49723e-05
7 *170:14 *3720:B 5.6652e-05
8 *170:14 *179:39 0
9 *170:14 *245:56 0
10 *170:14 *252:20 3.3577e-05
11 *170:14 *257:16 9.84851e-05
12 *170:14 *302:62 0
13 *3824:A *3824:B 0.000458714
14 *65:23 *170:14 0.000273343
15 *68:10 *3825:B2 6.16531e-05
16 *68:10 *170:14 0.00022767
17 *167:8 *3824:B 4.17736e-05
*RES
1 *3823:X *170:14 48.1086 
2 *170:14 *3824:B 45.1879 
3 *170:14 *3825:B2 38.8493 
*END

*D_NET *171 0.000340031
*CONN
*I *3826:B1 I *D sky130_fd_sc_hd__o211ai_1
*I *3824:Y O *D sky130_fd_sc_hd__nand2_1
*CAP
1 *3826:B1 0
2 *3824:Y 9.95364e-05
3 *171:8 9.95364e-05
4 *171:8 *214:19 0.000140958
*RES
1 *3824:Y *171:8 39.9057 
2 *171:8 *3826:B1 38 
*END

*D_NET *172 0.00111991
*CONN
*I *3826:C1 I *D sky130_fd_sc_hd__o211ai_1
*I *3825:X O *D sky130_fd_sc_hd__o22a_1
*CAP
1 *3826:C1 0.00032799
2 *3825:X 8.01904e-05
3 *172:8 0.00040818
4 *3826:C1 *173:10 2.76123e-05
5 *3816:A0 *3826:C1 6.53382e-05
6 *3816:S *3826:C1 0.000139352
7 *79:23 *172:8 0
8 *81:10 *172:8 5.31444e-05
9 *162:16 *3826:C1 1.80984e-05
*RES
1 *3825:X *172:8 39.5536 
2 *172:8 *3826:C1 43.4064 
*END

*D_NET *173 0.00263538
*CONN
*I *3833:A2 I *D sky130_fd_sc_hd__a31o_1
*I *3845:A2 I *D sky130_fd_sc_hd__o31a_1
*I *3826:Y O *D sky130_fd_sc_hd__o211ai_1
*CAP
1 *3833:A2 9.84931e-05
2 *3845:A2 0
3 *3826:Y 0.000497558
4 *173:12 9.84931e-05
5 *173:10 0.000497558
6 *3833:A2 *3833:B1 0.000120857
7 *3833:A2 *3845:A3 0.000143655
8 *3833:A2 *179:39 6.46726e-05
9 *3833:A2 *180:14 1.8104e-05
10 *3833:A2 *213:42 0.000100257
11 *173:10 *179:39 0.000555015
12 *173:10 *245:33 7.76364e-06
13 *173:10 *245:37 0.000124668
14 *3826:C1 *173:10 2.76123e-05
15 *162:16 *173:10 0.00014196
16 *163:16 *173:10 0.000138718
*RES
1 *3826:Y *173:10 48.5436 
2 *173:10 *173:12 15 
3 *173:12 *3845:A2 23 
4 *173:12 *3833:A2 26.9771 
*END

*D_NET *174 0.00110372
*CONN
*I *3828:A I *D sky130_fd_sc_hd__xnor2_1
*I *3827:X O *D sky130_fd_sc_hd__or2b_1
*CAP
1 *3828:A 1.33043e-05
2 *3827:X 0.000369477
3 *174:12 0.000382781
4 *174:12 *3831:B 4.08641e-05
5 *174:12 *178:10 1.78402e-05
6 *3815:A2 *174:12 7.08407e-05
7 *3815:B1 *174:12 0
8 *3827:A *174:12 0
9 *153:20 *3828:A 1.86564e-05
10 *160:8 *174:12 6.7177e-06
11 *162:10 *174:12 0.000183239
*RES
1 *3827:X *174:12 43.8414 
2 *174:12 *3828:A 38.2175 
*END

*D_NET *175 0.00136459
*CONN
*I *3831:B I *D sky130_fd_sc_hd__and3_1
*I *3844:A I *D sky130_fd_sc_hd__or4b_1
*I *3828:Y O *D sky130_fd_sc_hd__xnor2_1
*CAP
1 *3831:B 0.00035033
2 *3844:A 8.61624e-05
3 *3828:Y 0
4 *175:6 0.000436493
5 *3831:B *177:31 0
6 *3831:B *178:10 0.000304188
7 *3831:B *191:8 3.32282e-05
8 *3844:A *177:31 0
9 *3844:A *191:8 4.334e-05
10 *3833:A1 *3831:B 0
11 *153:20 *3831:B 4.95081e-05
12 *153:28 *3844:A 2.04774e-05
13 *160:8 *3831:B 0
14 *174:12 *3831:B 4.08641e-05
*RES
1 *3828:Y *175:6 38 
2 *175:6 *3844:A 39.9057 
3 *175:6 *3831:B 44.4836 
*END

*D_NET *176 0.000344262
*CONN
*I *3830:B I *D sky130_fd_sc_hd__xnor2_1
*I *3829:Y O *D sky130_fd_sc_hd__nor2_1
*CAP
1 *3830:B 0.000116135
2 *3829:Y 0.000116135
3 *3829:B *3830:B 5.10805e-05
4 *3830:A *3830:B 0
5 *141:28 *3830:B 6.09117e-05
*RES
1 *3829:Y *3830:B 48.5479 
*END

*D_NET *177 0.00311844
*CONN
*I *3831:C I *D sky130_fd_sc_hd__and3_1
*I *3842:B1_N I *D sky130_fd_sc_hd__o21ba_1
*I *3830:Y O *D sky130_fd_sc_hd__xnor2_1
*CAP
1 *3831:C 0
2 *3842:B1_N 0
3 *3830:Y 0.00034459
4 *177:31 0.000354804
5 *177:16 0.000555381
6 *177:10 0.000545168
7 *177:10 *183:6 9.84794e-05
8 *177:10 *189:10 0
9 *177:10 *213:8 0
10 *177:16 *189:10 5.50049e-05
11 *177:31 *182:36 0
12 *177:31 *185:10 0.000166522
13 *177:31 *190:10 0.000244535
14 *3830:A *177:10 2.4754e-05
15 *3831:B *177:31 0
16 *3842:A2 *177:16 1.37232e-05
17 *3844:A *177:31 0
18 *141:44 *177:10 0
19 *141:44 *177:31 7.76364e-06
20 *144:26 *177:10 0.000141954
21 *147:12 *177:10 9.48381e-06
22 *153:20 *177:31 8.29066e-05
23 *153:28 *177:31 0
24 *156:6 *177:10 3.22879e-05
25 *156:21 *177:10 0.000194428
26 *156:21 *177:16 0.000133901
27 *156:21 *177:31 2.64616e-05
28 *160:8 *177:31 8.62876e-05
*RES
1 *3830:Y *177:10 45.395 
2 *177:10 *177:16 19.4536 
3 *177:16 *3842:B1_N 23 
4 *177:16 *177:31 37.6125 
5 *177:31 *3831:C 23 
*END

*D_NET *178 0.00117359
*CONN
*I *3833:A3 I *D sky130_fd_sc_hd__a31o_1
*I *3831:X O *D sky130_fd_sc_hd__and3_1
*CAP
1 *3833:A3 0
2 *3831:X 0.000240991
3 *178:10 0.000240991
4 *178:10 *191:8 6.48105e-05
5 *178:10 *245:33 0
6 *3828:B *178:10 5.50049e-05
7 *3831:B *178:10 0.000304188
8 *3833:A1 *178:10 1.14452e-05
9 *153:20 *178:10 0.000226351
10 *162:10 *178:10 1.19727e-05
11 *174:12 *178:10 1.78402e-05
*RES
1 *3831:X *178:10 44.09 
2 *178:10 *3833:A3 38 
*END

*D_NET *179 0.00707547
*CONN
*I *3845:B1 I *D sky130_fd_sc_hd__o31a_1
*I *3833:B1 I *D sky130_fd_sc_hd__a31o_1
*I *3856:C I *D sky130_fd_sc_hd__or3_1
*I *3832:X O *D sky130_fd_sc_hd__and2_1
*CAP
1 *3845:B1 4.15832e-06
2 *3833:B1 0.000112689
3 *3856:C 0
4 *3832:X 0.000379046
5 *179:39 0.000872692
6 *179:24 0.000951889
7 *179:10 0.00208678
8 *3833:B1 *180:14 0.00010018
9 *3833:B1 *213:42 1.89178e-05
10 *3833:B1 *249:66 0.000220269
11 *179:24 *3690:A 0
12 *179:24 *3731:A1 2.80924e-06
13 *179:24 *3856:B 2.1939e-05
14 *179:24 *3857:A1 0
15 *179:24 *211:73 0
16 *179:24 *214:19 6.60558e-05
17 *179:24 *244:18 0.000105586
18 *179:24 *259:18 3.17989e-05
19 *179:39 *180:14 2.43092e-05
20 *179:39 *214:19 0
21 *179:39 *245:37 0
22 *179:39 *245:56 0.000115022
23 *179:39 *249:76 2.29192e-05
24 *3732:A *179:39 4.18957e-05
25 *3732:B *179:24 4.37033e-05
26 *3734:B *179:39 1.02387e-05
27 *3819:A3 *179:10 3.06338e-05
28 *3825:A2 *179:39 2.47015e-05
29 *3825:B2 *179:39 0
30 *3833:A1 *179:39 0
31 *3833:A2 *3833:B1 0.000120857
32 *3833:A2 *179:39 6.46726e-05
33 *68:42 *179:39 4.66036e-05
34 *77:14 *179:10 0.000354122
35 *79:8 *179:10 0.000121233
36 *79:8 *179:24 0.00012103
37 *79:23 *179:10 0.00013961
38 *79:23 *179:39 0
39 *80:10 *179:39 0.000121659
40 *81:10 *179:39 0.000138727
41 *162:10 *3833:B1 3.7122e-06
42 *162:10 *179:39 0
43 *163:8 *179:39 0
44 *170:14 *179:39 0
45 *173:10 *179:39 0.000555015
*RES
1 *3832:X *179:10 31.8864 
2 *179:10 *179:24 45.2043 
3 *179:24 *3856:C 23 
4 *179:10 *179:39 45.7325 
5 *179:39 *3833:B1 27.4432 
6 *179:39 *3845:B1 23.1761 
*END

*D_NET *180 0.00358694
*CONN
*I *3846:A3 I *D sky130_fd_sc_hd__a31o_1
*I *3854:A2 I *D sky130_fd_sc_hd__a31o_1
*I *3850:A2 I *D sky130_fd_sc_hd__a31o_1
*I *3833:X O *D sky130_fd_sc_hd__a31o_1
*CAP
1 *3846:A3 0
2 *3854:A2 0.000108715
3 *3850:A2 0.000307327
4 *3833:X 0.000411687
5 *180:20 0.000578761
6 *180:16 0.000162719
7 *180:14 0.000411687
8 *3850:A2 *3847:A1 0
9 *3850:A2 *3850:B1 0
10 *3850:A2 *194:8 8.85189e-05
11 *3850:A2 *211:117 0
12 *3850:A2 *298:8 0
13 *3854:A2 *3847:A1 0
14 *3854:A2 *193:10 0.000114083
15 *3854:A2 *198:12 0.000140958
16 *3854:A2 *280:12 3.72742e-05
17 *180:14 *3807:A 9.84794e-05
18 *180:14 *3807:D 5.50049e-05
19 *180:14 *3849:A2 1.14452e-05
20 *180:14 *213:8 0.000222113
21 *180:14 *213:42 8.08462e-05
22 *180:14 *214:25 0.000118737
23 *180:14 *214:38 0.000219891
24 *180:20 *192:16 9.41704e-05
25 *180:20 *198:12 3.59538e-05
26 *180:20 *280:8 9.84851e-05
27 *3833:A2 *180:14 1.8104e-05
28 *3833:B1 *180:14 0.00010018
29 *154:25 *3850:A2 4.0773e-05
30 *154:25 *3854:A2 6.7177e-06
31 *179:39 *180:14 2.43092e-05
*RES
1 *3833:X *180:14 47.3421 
2 *180:14 *180:16 15 
3 *180:16 *180:20 18.0036 
4 *180:20 *3850:A2 44.1936 
5 *180:20 *3854:A2 40.9621 
6 *180:16 *3846:A3 23 
*END

*D_NET *181 0.00102671
*CONN
*I *3837:A2 I *D sky130_fd_sc_hd__o221a_1
*I *3834:Y O *D sky130_fd_sc_hd__inv_2
*CAP
1 *3837:A2 0.000240913
2 *3834:Y 6.50475e-05
3 *181:8 0.00030596
4 *3837:A2 *182:6 5.22426e-05
5 *3837:A2 *182:23 5.3304e-05
6 *3837:A2 *184:10 5.67058e-05
7 *181:8 *184:10 0
8 *3804:D *181:8 8.85189e-05
9 *3835:A *3837:A2 5.41288e-05
10 *3837:A1 *3837:A2 2.02872e-05
11 *3837:B1 *3837:A2 8.9605e-05
*RES
1 *3834:Y *181:8 39.2014 
2 *181:8 *3837:A2 43.5721 
*END

*D_NET *182 0.00349513
*CONN
*I *3840:B1 I *D sky130_fd_sc_hd__o21a_1
*I *3837:B2 I *D sky130_fd_sc_hd__o221a_1
*I *3841:A1 I *D sky130_fd_sc_hd__o21ai_1
*I *3835:Y O *D sky130_fd_sc_hd__inv_2
*CAP
1 *3840:B1 0
2 *3837:B2 0
3 *3841:A1 0.000344111
4 *3835:Y 0
5 *182:36 0.000425433
6 *182:23 6.72143e-05
7 *182:6 0.000583549
8 *182:4 0.000597656
9 *3841:A1 *3837:C1 9.81783e-05
10 *3841:A1 *183:6 1.41077e-05
11 *182:23 *185:10 5.94125e-05
12 *182:23 *190:10 5.94125e-05
13 *182:36 *190:10 0
14 *3809:B *3841:A1 0
15 *3831:A *182:36 5.50106e-05
16 *3837:A1 *3841:A1 0.000187681
17 *3837:A1 *182:6 5.3304e-05
18 *3837:A1 *182:23 9.58714e-05
19 *3837:A2 *182:6 5.22426e-05
20 *3837:A2 *182:23 5.3304e-05
21 *3837:B1 *182:23 2.32004e-05
22 *3840:A1 *182:36 1.32314e-05
23 *141:14 *182:36 0.000238185
24 *151:10 *182:36 0.000152553
25 *153:20 *182:36 0.000132544
26 *156:29 *182:36 0.000188926
27 *160:8 *182:36 0
28 *177:31 *182:36 0
*RES
1 *3835:Y *182:4 23 
2 *182:4 *182:6 2.52714 
3 *182:6 *3841:A1 28.2821 
4 *182:6 *182:23 31.9471 
5 *182:23 *3837:B2 23 
6 *182:4 *182:36 40.0671 
7 *182:36 *3840:B1 23 
*END

*D_NET *183 0.000532268
*CONN
*I *3841:A2 I *D sky130_fd_sc_hd__o21ai_1
*I *3837:C1 I *D sky130_fd_sc_hd__o221a_1
*I *3836:Y O *D sky130_fd_sc_hd__inv_2
*CAP
1 *3841:A2 0
2 *3837:C1 4.97114e-05
3 *3836:Y 5.76555e-05
4 *183:6 0.000107367
5 *3837:C1 *188:10 3.4074e-05
6 *3837:A1 *3837:C1 9.46262e-06
7 *3841:A1 *3837:C1 9.81783e-05
8 *3841:A1 *183:6 1.41077e-05
9 *147:12 *3837:C1 8.22726e-06
10 *156:21 *183:6 5.50049e-05
11 *177:10 *183:6 9.84794e-05
*RES
1 *3836:Y *183:6 24.5743 
2 *183:6 *3837:C1 25.3511 
3 *183:6 *3841:A2 23 
*END

*D_NET *184 0.000450827
*CONN
*I *3838:B I *D sky130_fd_sc_hd__nor2_1
*I *3837:X O *D sky130_fd_sc_hd__o221a_1
*CAP
1 *3838:B 0
2 *3837:X 0.000183794
3 *184:10 0.000183794
4 *184:10 *185:10 0
5 *184:10 *188:10 0
6 *184:10 *190:10 2.01531e-05
7 *3804:D *184:10 0
8 *3837:A2 *184:10 5.67058e-05
9 *3837:B1 *184:10 4.6318e-06
10 *146:10 *184:10 1.74874e-06
11 *181:8 *184:10 0
*RES
1 *3837:X *184:10 40.8793 
2 *184:10 *3838:B 38 
*END

*D_NET *185 0.00181971
*CONN
*I *3844:B I *D sky130_fd_sc_hd__or4b_1
*I *3838:Y O *D sky130_fd_sc_hd__nor2_1
*CAP
1 *3844:B 0
2 *3838:Y 0.000414436
3 *185:10 0.000414436
4 *185:10 *188:10 0.000114083
5 *185:10 *190:10 0.000223593
6 *141:44 *185:10 0.000200024
7 *147:19 *185:10 0.000227208
8 *177:31 *185:10 0.000166522
9 *182:23 *185:10 5.94125e-05
10 *184:10 *185:10 0
*RES
1 *3838:Y *185:10 47.715 
2 *185:10 *3844:B 38 
*END

*D_NET *186 0.00186314
*CONN
*I *3840:A2 I *D sky130_fd_sc_hd__o21a_1
*I *3839:X O *D sky130_fd_sc_hd__and2b_1
*CAP
1 *3840:A2 0
2 *3839:X 0.000439126
3 *186:10 0.000439126
4 *186:10 *272:12 0
5 *3804:A *186:10 5.50106e-05
6 *3804:B *186:10 2.18409e-05
7 *3831:A *186:10 0
8 *3835:A *186:10 5.3304e-05
9 *3839:B *186:10 6.17437e-06
10 *3840:A1 *186:10 8.15327e-05
11 *124:23 *186:10 4.07715e-05
12 *125:23 *186:10 0.000348456
13 *128:19 *186:10 0.0002499
14 *147:36 *186:10 6.38845e-05
15 *157:14 *186:10 2.03909e-05
16 *157:39 *186:10 4.36207e-05
*RES
1 *3839:X *186:10 48.1707 
2 *186:10 *3840:A2 38 
*END

*D_NET *187 0.00125632
*CONN
*I *3844:C I *D sky130_fd_sc_hd__or4b_1
*I *3840:X O *D sky130_fd_sc_hd__o21a_1
*CAP
1 *3844:C 0.000369517
2 *3840:X 4.50565e-05
3 *187:8 0.000414573
4 *3844:C *3844:D_N 5.50106e-05
5 *3813:A1 *3844:C 9.8173e-05
6 *3813:B1 *3844:C 3.69513e-05
7 *3831:A *187:8 8.62783e-05
8 *3840:A1 *187:8 4.08537e-05
9 *141:14 *3844:C 7.56331e-05
10 *141:16 *3844:C 5.37348e-06
11 *156:29 *3844:C 2.88979e-05
*RES
1 *3840:X *187:8 39.2014 
2 *187:8 *3844:C 44.525 
*END

*D_NET *188 0.00096247
*CONN
*I *3843:B1 I *D sky130_fd_sc_hd__o211a_1
*I *3841:Y O *D sky130_fd_sc_hd__o21ai_1
*CAP
1 *3843:B1 0
2 *3841:Y 0.000261209
3 *188:10 0.000261209
4 *3837:A1 *188:10 5.89166e-05
5 *3837:B1 *188:10 5.50106e-05
6 *3837:C1 *188:10 3.4074e-05
7 *141:44 *188:10 0.000166522
8 *150:10 *188:10 1.14452e-05
9 *184:10 *188:10 0
10 *185:10 *188:10 0.000114083
*RES
1 *3841:Y *188:10 42.785 
2 *188:10 *3843:B1 38 
*END

*D_NET *189 0.00118445
*CONN
*I *3843:C1 I *D sky130_fd_sc_hd__o211a_1
*I *3842:X O *D sky130_fd_sc_hd__o21ba_1
*CAP
1 *3843:C1 0
2 *3842:X 0.000273309
3 *189:10 0.000273309
4 *3837:A1 *189:10 0.000136486
5 *141:44 *189:10 0.000369929
6 *145:14 *189:10 6.16531e-05
7 *147:12 *189:10 1.47563e-05
8 *177:10 *189:10 0
9 *177:16 *189:10 5.50049e-05
*RES
1 *3842:X *189:10 43.6964 
2 *189:10 *3843:C1 38 
*END

*D_NET *190 0.00165198
*CONN
*I *3844:D_N I *D sky130_fd_sc_hd__or4b_1
*I *3843:X O *D sky130_fd_sc_hd__o211a_1
*CAP
1 *3844:D_N 2.3577e-05
2 *3843:X 0.000432508
3 *190:10 0.000456085
4 *3837:B1 *190:10 5.02657e-05
5 *3844:C *3844:D_N 5.50106e-05
6 *141:14 *3844:D_N 2.64616e-05
7 *156:29 *190:10 6.03841e-05
8 *177:31 *190:10 0.000244535
9 *182:23 *190:10 5.94125e-05
10 *182:36 *190:10 0
11 *184:10 *190:10 2.01531e-05
12 *185:10 *190:10 0.000223593
*RES
1 *3843:X *190:10 46.99 
2 *190:10 *3844:D_N 38.6214 
*END

*D_NET *191 0.000998725
*CONN
*I *3845:A3 I *D sky130_fd_sc_hd__o31a_1
*I *3844:X O *D sky130_fd_sc_hd__or4b_1
*CAP
1 *3845:A3 2.12203e-05
2 *3844:X 0.000192593
3 *191:8 0.000213814
4 *3845:A3 *213:42 0.000141954
5 *191:8 *3846:A1 0
6 *3831:B *191:8 3.32282e-05
7 *3833:A2 *3845:A3 0.000143655
8 *3844:A *191:8 4.334e-05
9 *153:28 *191:8 0.00014411
10 *178:10 *191:8 6.48105e-05
*RES
1 *3844:X *191:8 42.3707 
2 *191:8 *3845:A3 39.5743 
*END

*D_NET *192 0.0030122
*CONN
*I *3846:B1 I *D sky130_fd_sc_hd__a31o_1
*I *3854:B1 I *D sky130_fd_sc_hd__a31o_1
*I *3850:B1 I *D sky130_fd_sc_hd__a31o_1
*I *3845:X O *D sky130_fd_sc_hd__o31a_1
*CAP
1 *3846:B1 0
2 *3854:B1 0.000137666
3 *3850:B1 0.000267752
4 *3845:X 0.000124681
5 *192:16 0.000491877
6 *192:12 8.64591e-05
7 *192:10 0.000124681
8 *3850:B1 *3849:A2 0.000194327
9 *3850:B1 *194:8 0
10 *3850:B1 *195:8 8.1796e-05
11 *3850:B1 *213:8 0.000238454
12 *3854:B1 *213:8 0.000185755
13 *3854:B1 *280:12 1.22803e-05
14 *192:10 *3846:A1 0.000139647
15 *192:10 *213:42 5.50049e-05
16 *192:10 *214:38 7.28526e-05
17 *192:16 *3846:A1 5.50049e-05
18 *192:16 *198:12 0.0002246
19 *3850:A2 *3850:B1 0
20 *141:28 *3854:B1 5.12254e-05
21 *154:25 *3850:B1 0.000168754
22 *154:25 *3854:B1 0.000205211
23 *180:20 *192:16 9.41704e-05
*RES
1 *3845:X *192:10 40.8793 
2 *192:10 *192:12 15 
3 *192:12 *192:16 17.5271 
4 *192:16 *3850:B1 45.3536 
5 *192:16 *3854:B1 41.7079 
6 *192:12 *3846:B1 23 
*END

*D_NET *193 0.00148973
*CONN
*I *3847:B2 I *D sky130_fd_sc_hd__a22o_1
*I *3846:X O *D sky130_fd_sc_hd__a31o_1
*CAP
1 *3847:B2 0.000190737
2 *3846:X 0.000168516
3 *193:10 0.000359253
4 *3847:B2 *3854:A1 0.000111923
5 *3847:B2 *199:16 0.000185434
6 *193:10 *198:12 0.000136738
7 *193:10 *280:12 0.000111852
8 *3852:A *3847:B2 0.000111189
9 *3854:A2 *193:10 0.000114083
*RES
1 *3846:X *193:10 41.1279 
2 *193:10 *3847:B2 42.4536 
*END

*D_NET *194 0.000285961
*CONN
*I *3850:A1 I *D sky130_fd_sc_hd__a31o_1
*I *3848:Y O *D sky130_fd_sc_hd__inv_2
*CAP
1 *3850:A1 4.17283e-05
2 *3848:Y 5.69925e-05
3 *194:8 9.87208e-05
4 *3850:A1 *3851:B1 0
5 *3850:A1 *3851:B2 0
6 *3850:A2 *194:8 8.85189e-05
7 *3850:B1 *194:8 0
*RES
1 *3848:Y *194:8 39.2014 
2 *194:8 *3850:A1 38.8493 
*END

*D_NET *195 0.00130247
*CONN
*I *3850:A3 I *D sky130_fd_sc_hd__a31o_1
*I *3849:X O *D sky130_fd_sc_hd__a22o_1
*CAP
1 *3850:A3 0
2 *3849:X 0.000213828
3 *195:8 0.000213828
4 *195:8 *3849:A2 6.82514e-05
5 *195:8 *3851:B2 5.90675e-06
6 *195:8 *249:76 0.000264564
7 *195:8 *279:12 9.41704e-05
8 *195:8 *279:29 8.60475e-05
9 *195:8 *299:12 0.000274078
10 *3850:B1 *195:8 8.1796e-05
*RES
1 *3849:X *195:8 30.3121 
2 *195:8 *3850:A3 23 
*END

*D_NET *196 0.000122015
*CONN
*I *3851:B2 I *D sky130_fd_sc_hd__a22o_1
*I *3850:X O *D sky130_fd_sc_hd__a31o_1
*CAP
1 *3851:B2 4.65394e-05
2 *3850:X 4.65394e-05
3 *3851:B2 *299:12 2.30292e-05
4 *3850:A1 *3851:B2 0
5 *195:8 *3851:B2 5.90675e-06
*RES
1 *3850:X *3851:B2 47.1186 
*END

*D_NET *197 0.00048442
*CONN
*I *3854:A1 I *D sky130_fd_sc_hd__a31o_1
*I *3852:Y O *D sky130_fd_sc_hd__inv_2
*CAP
1 *3854:A1 6.76572e-05
2 *3852:Y 6.76572e-05
3 *3847:B2 *3854:A1 0.000111923
4 *3852:A *3854:A1 0.000180476
5 *141:28 *3854:A1 5.67058e-05
*RES
1 *3852:Y *3854:A1 49.0036 
*END

*D_NET *198 0.00149627
*CONN
*I *3854:A3 I *D sky130_fd_sc_hd__a31o_1
*I *3853:X O *D sky130_fd_sc_hd__a21o_1
*CAP
1 *3854:A3 0
2 *3853:X 0.000399193
3 *198:12 0.000399193
4 *198:12 *3846:A1 2.02872e-05
5 *198:12 *3847:A1 0
6 *198:12 *280:8 0.000139352
7 *3854:A2 *198:12 0.000140958
8 *180:20 *198:12 3.59538e-05
9 *192:16 *198:12 0.0002246
10 *193:10 *198:12 0.000136738
*RES
1 *3853:X *198:12 46.265 
2 *198:12 *3854:A3 38 
*END

*D_NET *199 0.00196464
*CONN
*I *3855:B2 I *D sky130_fd_sc_hd__a22o_1
*I *3854:X O *D sky130_fd_sc_hd__a31o_1
*CAP
1 *3855:B2 4.94334e-05
2 *3854:X 0.000482412
3 *199:16 0.000531846
4 *3855:B2 *3851:B1 2.02872e-05
5 *3855:B2 *3855:B1 5.3304e-05
6 *3855:B2 *211:117 2.18409e-05
7 *3855:B2 *244:64 2.64616e-05
8 *199:16 *3847:A1 0.000297838
9 *199:16 *211:117 1.22904e-05
10 *199:16 *244:39 1.408e-05
11 *199:16 *244:54 4.27794e-05
12 *199:16 *261:92 2.86716e-05
13 *3847:B2 *199:16 0.000185434
14 *42:10 *199:16 0.000197956
*RES
1 *3854:X *199:16 49.455 
2 *199:16 *3855:B2 39.0979 
*END

*D_NET *200 0.000719659
*CONN
*I *3857:B1_N I *D sky130_fd_sc_hd__a21bo_1
*I *3856:X O *D sky130_fd_sc_hd__or3_1
*CAP
1 *3857:B1_N 0.000303803
2 *3856:X 0.000303803
3 *3857:B1_N *3857:A1 5.70419e-05
4 *3857:B1_N *244:18 5.50106e-05
*RES
1 *3856:X *3857:B1_N 49.9564 
*END

*D_NET *201 0.000826748
*CONN
*I *3859:B1 I *D sky130_fd_sc_hd__a31o_1
*I *3858:X O *D sky130_fd_sc_hd__and2_1
*CAP
1 *3859:B1 8.96236e-05
2 *3858:X 0.000120914
3 *201:8 0.000210537
4 *3859:B1 *3859:A1 6.17437e-06
5 *3859:B1 *209:16 0.00019975
6 *3859:B1 *214:6 0.00019975
7 *201:8 *214:19 0
*RES
1 *3858:X *201:8 39.9057 
2 *201:8 *3859:B1 41.9564 
*END

*D_NET *202 0.00132177
*CONN
*I *3861:B1 I *D sky130_fd_sc_hd__a31o_1
*I *3860:X O *D sky130_fd_sc_hd__and2_1
*CAP
1 *3861:B1 4.45668e-05
2 *3860:X 0.000424141
3 *202:10 0.000468708
4 *3861:B1 *3679:A 0
5 *3861:B1 *3861:A3 1.37232e-05
6 *3861:B1 *209:108 3.71251e-05
7 *3861:B1 *243:104 9.84794e-05
8 *202:10 *213:124 2.26497e-05
9 *202:10 *236:16 0
10 *202:10 *275:10 0.000212377
*RES
1 *3860:X *202:10 44.9186 
2 *202:10 *3861:B1 39.595 
*END

*D_NET *203 0.00152895
*CONN
*I *3863:B1 I *D sky130_fd_sc_hd__a31o_1
*I *3862:X O *D sky130_fd_sc_hd__and2_1
*CAP
1 *3863:B1 0
2 *3862:X 0.000399555
3 *203:10 0.000399555
4 *203:10 *3865:A3 2.77955e-05
5 *203:10 *3883:CLK 0.000225275
6 *203:10 *243:130 0.000326983
7 *203:10 *262:40 1.01436e-05
8 *203:10 *262:62 0.000139647
*RES
1 *3862:X *203:10 46.2029 
2 *203:10 *3863:B1 38 
*END

*D_NET *204 0.000118198
*CONN
*I *3865:B1 I *D sky130_fd_sc_hd__a31o_1
*I *3864:X O *D sky130_fd_sc_hd__and2_1
*CAP
1 *3865:B1 5.90989e-05
2 *3864:X 5.90989e-05
*RES
1 *3864:X *3865:B1 47.0979 
*END

*D_NET *205 0.000118198
*CONN
*I *3867:B1 I *D sky130_fd_sc_hd__a31o_1
*I *3866:X O *D sky130_fd_sc_hd__and2_1
*CAP
1 *3867:B1 5.90989e-05
2 *3866:X 5.90989e-05
*RES
1 *3866:X *3867:B1 47.0979 
*END

*D_NET *206 0.000167848
*CONN
*I *3869:B1 I *D sky130_fd_sc_hd__a31o_1
*I *3868:X O *D sky130_fd_sc_hd__and2_1
*CAP
1 *3869:B1 3.38339e-05
2 *3868:X 3.38339e-05
3 *3869:B1 *3868:A 0.00010018
*RES
1 *3868:X *3869:B1 47.0979 
*END

*D_NET *207 0.000846115
*CONN
*I *3871:B1 I *D sky130_fd_sc_hd__a31o_1
*I *3870:X O *D sky130_fd_sc_hd__and2_1
*CAP
1 *3871:B1 0
2 *3870:X 0.000227252
3 *207:10 0.000227252
4 *207:10 *3870:A 0.000138921
5 *207:10 *3870:B 5.67058e-05
6 *207:10 *3885:CLK 0.000107651
7 *207:10 *210:25 2.49836e-05
8 *207:10 *261:16 6.33511e-05
*RES
1 *3870:X *207:10 43.3443 
2 *207:10 *3871:B1 38 
*END

*D_NET *208 0.000849021
*CONN
*I *3873:B1 I *D sky130_fd_sc_hd__a31o_1
*I *3872:X O *D sky130_fd_sc_hd__and2_1
*CAP
1 *3873:B1 0
2 *3872:X 0.000326626
3 *208:10 0.000326626
4 *208:10 *210:25 5.70419e-05
5 *208:10 *211:14 0.000138727
6 *208:10 *243:43 0
*RES
1 *3872:X *208:10 42.9093 
2 *208:10 *3873:B1 38 
*END

*D_NET *209 0.01869
*CONN
*I *3867:A2 I *D sky130_fd_sc_hd__a31o_1
*I *3865:A2 I *D sky130_fd_sc_hd__a31o_1
*I *3863:A2 I *D sky130_fd_sc_hd__a31o_1
*I *3861:A2 I *D sky130_fd_sc_hd__a31o_1
*I *3656:A I *D sky130_fd_sc_hd__inv_2
*I *3873:A2 I *D sky130_fd_sc_hd__a31o_1
*I *3871:A2 I *D sky130_fd_sc_hd__a31o_1
*I *3691:A2 I *D sky130_fd_sc_hd__o21ba_1
*I *3869:A2 I *D sky130_fd_sc_hd__a31o_1
*I *3859:A2 I *D sky130_fd_sc_hd__a31o_1
*I *3655:X O *D sky130_fd_sc_hd__clkbuf_4
*CAP
1 *3867:A2 0.000135527
2 *3865:A2 0
3 *3863:A2 0
4 *3861:A2 0
5 *3656:A 0.000416247
6 *3873:A2 0
7 *3871:A2 5.55262e-05
8 *3691:A2 0
9 *3869:A2 8.17399e-05
10 *3859:A2 0
11 *3655:X 0
12 *209:136 0.000254682
13 *209:121 0.00071912
14 *209:115 0.000973546
15 *209:108 0.000210872
16 *209:98 0.00173087
17 *209:74 0.000656297
18 *209:52 0.000124142
19 *209:35 0.000440149
20 *209:33 0.000477057
21 *209:31 0.000849629
22 *209:22 4.21957e-05
23 *209:16 0.00108621
24 *209:10 0.00194253
25 *209:4 0.00246725
26 *3656:A *211:14 0.000171906
27 *3656:A *243:79 0
28 *3656:A *261:8 5.3304e-05
29 *3867:A2 *3867:A1 1.32939e-05
30 *3867:A2 *3867:A3 3.71369e-05
31 *3867:A2 *288:16 0
32 *3869:A2 *3868:A 1.32939e-05
33 *3869:A2 *3869:A3 7.53384e-06
34 *3869:A2 *3871:A3 0
35 *3871:A2 *3868:A 1.32578e-07
36 *3871:A2 *3871:A3 1.1314e-05
37 *3871:A2 *302:102 5.33707e-05
38 *209:10 *3709:A1 3.53115e-05
39 *209:10 *3709:B1 0.00016778
40 *209:10 *249:6 9.24795e-06
41 *209:10 *249:10 1.32939e-05
42 *209:10 *254:6 0.000400198
43 *209:10 *267:10 4.77164e-06
44 *209:10 *267:23 5.18826e-05
45 *209:10 *267:44 0.00023831
46 *209:10 *277:22 0.000483643
47 *209:10 *277:35 0.000130423
48 *209:16 *3859:A1 1.14762e-05
49 *209:16 *214:6 0.000166969
50 *209:16 *243:26 0.000210316
51 *209:22 *3859:A3 2.33476e-05
52 *209:22 *214:19 2.78332e-05
53 *209:22 *243:43 2.33476e-05
54 *209:22 *302:102 0
55 *209:31 *302:102 8.44348e-05
56 *209:33 *302:102 5.6088e-05
57 *209:35 *3868:A 2.80924e-06
58 *209:35 *3869:A3 7.1349e-05
59 *209:35 *3871:A3 4.47763e-05
60 *209:52 *3691:A1 9.67842e-05
61 *209:52 *3869:A1 5.76957e-05
62 *209:52 *3872:B 9.67842e-05
63 *209:52 *243:55 3.39224e-05
64 *209:52 *244:18 3.41998e-06
65 *209:52 *301:10 5.11935e-06
66 *209:74 *210:25 6.49723e-05
67 *209:74 *211:14 0.00034287
68 *209:74 *243:79 0
69 *209:74 *261:16 0
70 *209:98 *3688:B1 1.32939e-05
71 *209:98 *3688:B2 0.0002263
72 *209:98 *242:10 6.71408e-06
73 *209:98 *265:29 0.000112625
74 *209:98 *277:35 9.84794e-05
75 *209:108 *214:70 3.01937e-05
76 *209:108 *236:16 0.000188341
77 *209:108 *243:104 3.12591e-05
78 *209:108 *303:18 6.7177e-06
79 *209:108 *304:42 0.0002263
80 *209:115 *3688:B1 1.95556e-05
81 *209:115 *3688:B2 1.24376e-05
82 *209:115 *3867:A1 6.75055e-05
83 *209:115 *3867:A3 1.59094e-05
84 *209:121 *3864:A 0
85 *209:121 *3865:A3 3.70187e-05
86 *209:121 *211:42 0
87 *209:121 *211:51 0
88 *209:121 *243:117 6.48142e-05
89 *209:121 *243:130 0.000829846
90 *209:136 *3686:B1 0
91 *209:136 *3863:A3 4.07999e-05
92 *209:136 *3864:A 0
93 *209:136 *3865:A3 0
94 *3859:B1 *209:16 0.00019975
95 *3861:B1 *209:108 3.71251e-05
96 *48:8 *209:121 5.61414e-05
97 *50:10 *209:121 4.3407e-05
98 *56:8 *209:10 2.80924e-06
99 *56:40 *209:10 0.000130381
100 *56:40 *209:16 0.00011754
101 *61:16 *209:10 2.32101e-05
102 *61:20 *209:10 1.24376e-05
103 *62:10 *209:16 5.50049e-05
*RES
1 *3655:X *209:4 23 
2 *209:4 *209:10 35.6314 
3 *209:10 *209:16 28.5057 
4 *209:16 *209:22 30.8493 
5 *209:22 *3859:A2 23 
6 *209:16 *209:31 5.88286 
7 *209:31 *209:33 2.52714 
8 *209:33 *209:35 3.48 
9 *209:35 *3869:A2 24.4707 
10 *209:35 *209:52 33.0036 
11 *209:52 *3691:A2 23 
12 *209:33 *3871:A2 24.7607 
13 *209:31 *209:74 19.7229 
14 *209:74 *3873:A2 38 
15 *209:74 *3656:A 45.2086 
16 *209:4 *209:98 15.8671 
17 *209:98 *209:108 35.6343 
18 *209:108 *3861:A2 23 
19 *209:98 *209:115 4.90929 
20 *209:115 *209:121 42.1179 
21 *209:121 *3863:A2 23 
22 *209:121 *209:136 34.6814 
23 *209:136 *3865:A2 23 
24 *209:115 *3867:A2 25.4236 
*END

*D_NET *210 0.00566319
*CONN
*I *3856:A I *D sky130_fd_sc_hd__or3_1
*I *3657:A I *D sky130_fd_sc_hd__buf_2
*I *3868:A I *D sky130_fd_sc_hd__and2_1
*I *3870:A I *D sky130_fd_sc_hd__and2_1
*I *3872:A I *D sky130_fd_sc_hd__and2_1
*I *3656:Y O *D sky130_fd_sc_hd__inv_2
*CAP
1 *3856:A 9.68414e-05
2 *3657:A 0.000295856
3 *3868:A 0.0005862
4 *3870:A 0.000210947
5 *3872:A 1.55527e-05
6 *3656:Y 0
7 *210:51 0.000483749
8 *210:25 0.00108218
9 *210:10 0.000454968
10 *210:6 0.000245432
11 *3657:A *211:83 1.69886e-05
12 *3856:A *211:83 0.000138727
13 *3856:A *244:18 4.69776e-05
14 *3856:A *261:64 0.00010404
15 *3868:A *3868:B 2.93845e-05
16 *3868:A *3869:A3 7.42621e-05
17 *3868:A *3871:A3 5.44323e-05
18 *3868:A *302:102 0.00018657
19 *3870:A *3885:CLK 0
20 *3870:A *211:14 0.00010349
21 *3872:A *3872:B 3.22879e-05
22 *210:10 *243:55 6.14637e-05
23 *210:10 *244:18 7.4878e-05
24 *210:10 *261:16 2.07444e-05
25 *210:25 *3872:B 2.4754e-05
26 *210:25 *211:14 4.41619e-05
27 *210:25 *261:16 5.93849e-05
28 *210:51 *244:18 7.4878e-05
29 *3869:A2 *3868:A 1.32939e-05
30 *3869:B1 *3868:A 0.00010018
31 *3871:A2 *3868:A 1.32578e-07
32 *41:10 *3856:A 6.48142e-05
33 *41:10 *3872:A 2.93747e-05
34 *41:10 *210:10 0.000296026
35 *41:10 *210:25 2.93845e-05
36 *41:10 *210:51 0.000222104
37 *207:10 *3870:A 0.000138921
38 *207:10 *210:25 2.49836e-05
39 *208:10 *210:25 5.70419e-05
40 *209:35 *3868:A 2.80924e-06
41 *209:74 *210:25 6.49723e-05
*RES
1 *3656:Y *210:6 38 
2 *210:6 *210:10 19.7229 
3 *210:10 *3872:A 23.6214 
4 *210:10 *210:25 21.6907 
5 *210:25 *3870:A 42.7229 
6 *210:25 *3868:A 48.3364 
7 *210:6 *210:51 2.96214 
8 *210:51 *3657:A 41.7286 
9 *210:51 *3856:A 41.6664 
*END

*D_NET *211 0.0189704
*CONN
*I *3690:A I *D sky130_fd_sc_hd__nor2_1
*I *3847:A1 I *D sky130_fd_sc_hd__a22o_1
*I *3851:A1 I *D sky130_fd_sc_hd__a22o_1
*I *3855:A1 I *D sky130_fd_sc_hd__a22o_1
*I *3857:A1 I *D sky130_fd_sc_hd__a21bo_1
*I *3864:A I *D sky130_fd_sc_hd__and2_1
*I *3862:A I *D sky130_fd_sc_hd__and2_1
*I *3866:A I *D sky130_fd_sc_hd__and2_1
*I *3860:A I *D sky130_fd_sc_hd__and2_1
*I *3858:A I *D sky130_fd_sc_hd__and2_1
*I *3657:X O *D sky130_fd_sc_hd__buf_2
*CAP
1 *3690:A 0.000217441
2 *3847:A1 0.000515089
3 *3851:A1 0
4 *3855:A1 2.91006e-05
5 *3857:A1 6.97957e-05
6 *3864:A 0.000467357
7 *3862:A 2.95294e-05
8 *3866:A 0
9 *3860:A 6.7348e-05
10 *3858:A 0
11 *3657:X 4.64816e-05
12 *211:117 0.000773379
13 *211:100 0.000563643
14 *211:83 0.000898454
15 *211:73 0.00086231
16 *211:51 0.00082448
17 *211:42 0.000639801
18 *211:31 0.000538395
19 *211:27 0.00310237
20 *211:20 0.000129782
21 *211:14 0.00453421
22 *211:8 0.00159985
23 *3690:A *244:39 4.49634e-05
24 *3847:A1 *244:64 5.67058e-05
25 *3847:A1 *298:8 4.08641e-05
26 *3855:A1 *3855:A2 1.14154e-05
27 *3855:A1 *3855:B1 3.91386e-05
28 *3855:A1 *299:12 0
29 *3857:A1 *3856:B 0
30 *3857:A1 *297:8 1.71678e-05
31 *3860:A *3860:B 7.88828e-05
32 *3862:A *286:16 5.50049e-05
33 *3864:A *3864:B 5.50106e-05
34 *3864:A *304:26 6.42618e-05
35 *3864:A *304:28 0
36 *211:14 *3731:A2 0
37 *211:14 *3873:A1 0
38 *211:14 *243:43 0
39 *211:14 *243:79 0
40 *211:14 *262:29 0
41 *211:14 *302:102 0
42 *211:20 *283:10 0
43 *211:27 *269:18 0.000354122
44 *211:31 *284:8 0
45 *211:42 *284:8 0
46 *211:42 *304:32 0
47 *211:51 *304:28 0
48 *211:51 *304:32 0
49 *211:73 *3731:A2 0
50 *211:73 *243:79 0
51 *211:73 *262:29 0
52 *211:83 *244:18 5.21024e-05
53 *211:83 *261:64 1.23467e-05
54 *211:83 *293:61 0
55 *211:100 *244:39 0
56 *211:100 *261:64 0
57 *211:100 *261:79 5.15745e-05
58 *211:100 *261:92 5.19151e-05
59 *211:100 *293:68 7.75329e-06
60 *211:100 *293:86 7.66188e-05
61 *211:100 *297:8 0.000342994
62 *211:117 *3851:B1 5.61255e-06
63 *211:117 *3855:B1 0.000141052
64 *211:117 *244:39 5.43178e-05
65 *211:117 *244:54 6.7177e-06
66 *211:117 *244:64 9.8971e-06
67 *211:117 *299:12 1.24376e-05
68 *3656:A *211:14 0.000171906
69 *3657:A *211:83 1.69886e-05
70 *3850:A2 *3847:A1 0
71 *3850:A2 *211:117 0
72 *3854:A2 *3847:A1 0
73 *3855:B2 *211:117 2.18409e-05
74 *3856:A *211:83 0.000138727
75 *3857:B1_N *3857:A1 5.70419e-05
76 *3870:A *211:14 0.00010349
77 *45:10 *211:100 7.28526e-05
78 *46:8 *211:14 0
79 *48:8 *3864:A 0
80 *50:10 *211:51 0
81 *179:24 *3690:A 0
82 *179:24 *3857:A1 0
83 *179:24 *211:73 0
84 *198:12 *3847:A1 0
85 *199:16 *3847:A1 0.000297838
86 *199:16 *211:117 1.22904e-05
87 *208:10 *211:14 0.000138727
88 *209:74 *211:14 0.00034287
89 *209:121 *3864:A 0
90 *209:121 *211:42 0
91 *209:121 *211:51 0
92 *209:136 *3864:A 0
93 *210:25 *211:14 4.41619e-05
*RES
1 *3657:X *211:8 38.6214 
2 *211:8 *211:14 42.2186 
3 *211:14 *211:20 32.2579 
4 *211:20 *3858:A 23 
5 *211:14 *211:27 50.17 
6 *211:27 *211:31 17.61 
7 *211:31 *3860:A 39.5743 
8 *211:31 *211:42 5.42714 
9 *211:42 *3866:A 38 
10 *211:42 *211:51 5.77929 
11 *211:51 *3862:A 38.6214 
12 *211:51 *3864:A 47.2179 
13 *211:8 *211:73 1.90571 
14 *211:73 *211:83 38.3375 
15 *211:83 *3857:A1 39.8125 
16 *211:83 *211:100 22.8196 
17 *211:100 *3855:A1 23.8493 
18 *211:100 *211:117 19.6193 
19 *211:117 *3851:A1 38 
20 *211:117 *3847:A1 48.875 
21 *211:73 *3690:A 42.4743 
*END

*D_NET *212 0.0134448
*CONN
*I *3739:B1 I *D sky130_fd_sc_hd__a22o_1
*I *3740:D I *D sky130_fd_sc_hd__nand4_1
*I *3755:C I *D sky130_fd_sc_hd__nand4_2
*I *3754:A2 I *D sky130_fd_sc_hd__a22o_1
*I *3794:B I *D sky130_fd_sc_hd__and4_2
*I *3806:A2 I *D sky130_fd_sc_hd__a22o_1
*I *3677:A I *D sky130_fd_sc_hd__xnor2_1
*I *3673:A1 I *D sky130_fd_sc_hd__o31a_1
*I *3863:A1 I *D sky130_fd_sc_hd__a31o_1
*I *3661:B I *D sky130_fd_sc_hd__or4_1
*I *3658:X O *D sky130_fd_sc_hd__clkbuf_4
*CAP
1 *3739:B1 0
2 *3740:D 0
3 *3755:C 0
4 *3754:A2 0
5 *3794:B 0
6 *3806:A2 0.000304969
7 *3677:A 3.80977e-05
8 *3673:A1 1.50079e-05
9 *3863:A1 0.00052882
10 *3661:B 0.000431356
11 *3658:X 0.000117612
12 *212:136 0.000240915
13 *212:121 0.000262335
14 *212:114 0.000674477
15 *212:88 0.000522248
16 *212:86 0.00128279
17 *212:82 0.000656577
18 *212:80 0.000817602
19 *212:24 0.00144426
20 *212:16 0.000654351
21 *212:12 0.000337396
22 *212:10 0.00137112
23 *212:8 0.000771208
24 *3661:B *3671:A 4.69744e-05
25 *3661:B *213:106 9.62764e-05
26 *3673:A1 *3673:A3 5.50049e-05
27 *3673:A1 *3673:B1 5.50049e-05
28 *3677:A *279:37 2.64616e-05
29 *3863:A1 *3686:A1 5.79031e-05
30 *3863:A1 *3686:B1 0.000179217
31 *3863:A1 *3686:B2 5.50106e-05
32 *3863:A1 *3863:A3 6.17437e-06
33 *3863:A1 *240:10 1.94693e-05
34 *212:8 *3767:B 3.71228e-05
35 *212:10 *273:10 0.000417797
36 *212:10 *300:31 0
37 *212:10 *300:43 0
38 *212:12 *230:10 1.47563e-05
39 *212:12 *273:10 8.08615e-05
40 *212:12 *300:43 0
41 *212:16 *230:10 0.000141879
42 *212:16 *273:10 0
43 *212:16 *300:43 0
44 *212:24 *217:97 0
45 *212:24 *217:116 0
46 *212:24 *225:8 8.51329e-05
47 *212:24 *227:8 4.83778e-05
48 *212:24 *273:10 0
49 *212:80 *3739:A1 2.4754e-05
50 *212:80 *3739:A2 2.30984e-05
51 *212:82 *3739:A1 2.93845e-05
52 *212:82 *3739:B2 5.50106e-05
53 *212:82 *3755:B 9.00826e-05
54 *212:82 *213:83 2.80512e-05
55 *212:86 *213:70 4.75206e-05
56 *212:86 *213:83 3.53115e-05
57 *212:114 *266:22 0.000367649
58 *212:114 *266:84 1.24376e-05
59 *212:121 *3755:B 0
60 *212:121 *3755:D 5.90675e-06
61 *212:136 *213:83 5.41288e-05
62 *212:136 *246:85 2.76611e-06
63 *212:136 *264:47 0
64 *212:136 *296:108 3.22879e-05
65 *3742:B1 *212:136 0
66 *3743:A *212:136 5.50106e-05
67 *3760:A2 *212:86 0.000117923
68 *3762:A2 *212:114 0
69 *3794:C *3806:A2 2.79543e-05
70 *3794:D *3806:A2 0.00014074
71 *3794:D *212:88 8.60475e-05
72 *3806:B1 *3806:A2 4.26942e-06
73 *3840:A1 *3806:A2 0
74 *88:8 *212:136 0
75 *101:6 *212:114 6.17437e-06
76 *102:8 *212:136 2.76611e-06
77 *104:16 *212:114 0
78 *106:18 *212:114 0
79 *107:8 *212:114 0
80 *108:32 *212:114 0.000249918
81 *120:8 *212:114 0
82 *121:10 *212:114 0
83 *139:6 *3806:A2 4.22306e-05
84 *141:8 *212:88 8.84817e-06
*RES
1 *3658:X *212:8 39.5743 
2 *212:8 *212:10 15.9914 
3 *212:10 *212:12 3.31429 
4 *212:12 *212:16 3.23143 
5 *212:16 *212:24 24.3629 
6 *212:24 *3661:B 30.1464 
7 *212:24 *3863:A1 33.4814 
8 *212:16 *3673:A1 38.6214 
9 *212:12 *3677:A 38.6214 
10 *212:10 *212:80 24.3629 
11 *212:80 *212:82 4.90929 
12 *212:82 *212:86 7.31214 
13 *212:86 *212:88 3.00357 
14 *212:88 *3806:A2 27.6193 
15 *212:88 *3794:B 23 
16 *212:86 *212:114 44.2721 
17 *212:114 *3754:A2 23 
18 *212:82 *212:121 0.497143 
19 *212:121 *3755:C 23 
20 *212:121 *212:136 35.0336 
21 *212:136 *3740:D 23 
22 *212:80 *3739:B1 23 
*END

*D_NET *213 0.0203
*CONN
*I *3676:A1 I *D sky130_fd_sc_hd__o21a_1
*I *3673:A2 I *D sky130_fd_sc_hd__o31a_1
*I *3680:A I *D sky130_fd_sc_hd__xor2_1
*I *3861:A1 I *D sky130_fd_sc_hd__a31o_1
*I *3661:C I *D sky130_fd_sc_hd__or4_1
*I *3755:D I *D sky130_fd_sc_hd__nand4_2
*I *3785:C I *D sky130_fd_sc_hd__and4_1
*I *3793:A2 I *D sky130_fd_sc_hd__a22o_1
*I *3807:C I *D sky130_fd_sc_hd__and4_1
*I *3849:A2 I *D sky130_fd_sc_hd__a22o_1
*I *3659:X O *D sky130_fd_sc_hd__clkbuf_4
*CAP
1 *3676:A1 0
2 *3673:A2 0.000279027
3 *3680:A 0
4 *3861:A1 0
5 *3661:C 0
6 *3755:D 2.861e-05
7 *3785:C 1.31028e-05
8 *3793:A2 1.45093e-05
9 *3807:C 0
10 *3849:A2 0.000257805
11 *3659:X 0
12 *213:138 0.000479975
13 *213:124 0.000555874
14 *213:108 0.000690452
15 *213:106 0.00112949
16 *213:89 0.0014315
17 *213:83 0.00104502
18 *213:70 0.000976861
19 *213:51 0.000668719
20 *213:42 0.00135259
21 *213:21 0.00122323
22 *213:8 0.000809618
23 *213:6 0.000551813
24 *3673:A2 *3673:A3 2.25927e-05
25 *3673:A2 *3673:B1 0.000227208
26 *3673:A2 *3676:A2 1.14154e-05
27 *3673:A2 *3676:B1 2.32004e-05
28 *3673:A2 *214:130 1.40958e-05
29 *3755:D *3755:B 0
30 *3785:C *3785:D 5.90675e-06
31 *3793:A2 *3785:B 7.40275e-06
32 *3793:A2 *3785:D 2.76769e-06
33 *3793:A2 *249:96 1.79781e-05
34 *3849:A2 *3849:A1 0.000181125
35 *3849:A2 *214:38 1.22906e-05
36 *3849:A2 *245:33 0
37 *3849:A2 *249:76 0.000141888
38 *3849:A2 *279:12 9.41704e-05
39 *3849:A2 *279:29 0.000170835
40 *213:8 *280:12 8.10114e-05
41 *213:42 *3785:B 2.26187e-05
42 *213:42 *3807:A 9.84794e-05
43 *213:42 *3807:D 1.41077e-05
44 *213:42 *245:29 0.000130115
45 *213:42 *249:66 0.000269381
46 *213:42 *249:96 0.000220578
47 *213:51 *3785:B 6.5676e-05
48 *213:51 *3785:D 5.3304e-05
49 *213:70 *3785:A 2.93747e-05
50 *213:70 *3785:B 1.40958e-05
51 *213:83 *3755:B 0.000180212
52 *213:83 *246:91 0.000192087
53 *213:83 *247:112 0.000136486
54 *213:83 *247:127 0.000234373
55 *213:89 *3661:A 6.17437e-06
56 *213:89 *214:88 5.40762e-05
57 *213:89 *246:85 4.45946e-05
58 *213:89 *247:112 0.000446741
59 *213:106 *3661:A 4.05745e-05
60 *213:106 *3670:B 7.70737e-05
61 *213:106 *3671:A 5.12254e-05
62 *213:106 *214:77 0
63 *213:106 *215:12 0.000136486
64 *213:106 *216:10 0
65 *213:106 *265:29 0
66 *213:106 *300:45 1.83564e-05
67 *213:106 *300:49 7.461e-05
68 *213:106 *302:18 1.22906e-05
69 *213:106 *303:32 0.000541484
70 *213:108 *243:22 2.18506e-05
71 *213:108 *303:32 0.000271476
72 *213:124 *3679:A 0
73 *213:124 *236:16 5.58873e-06
74 *213:124 *292:18 0.000328595
75 *213:124 *302:18 0
76 *213:138 *214:100 0.000135037
77 *213:138 *214:130 0.000298204
78 *213:138 *279:29 1.5769e-05
79 *3661:B *213:106 9.62764e-05
80 *3742:B1 *213:83 7.76267e-05
81 *3742:B1 *213:89 4.6318e-06
82 *3744:A1 *213:70 9.41704e-05
83 *3744:A2 *213:70 2.32004e-05
84 *3749:A *213:70 6.48142e-05
85 *3760:A1 *213:70 7.70737e-05
86 *3760:A2 *3755:D 1.37232e-05
87 *3760:A2 *213:70 0.000111301
88 *3760:B1 *213:70 0.000141888
89 *3833:A2 *213:42 0.000100257
90 *3833:B1 *213:42 1.89178e-05
91 *3845:A3 *213:42 0.000141954
92 *3848:A *213:42 1.94411e-05
93 *3850:B1 *3849:A2 0.000194327
94 *3850:B1 *213:8 0.000238454
95 *3854:B1 *213:8 0.000185755
96 *72:14 *213:89 0.000444358
97 *89:8 *213:138 2.64616e-05
98 *132:8 *213:42 1.14154e-05
99 *132:8 *213:51 9.84851e-05
100 *132:18 *213:42 0.00015275
101 *132:18 *213:51 1.08233e-05
102 *144:26 *213:8 0
103 *154:25 *213:42 5.90675e-06
104 *154:46 *213:8 0
105 *155:21 *213:8 0.000327903
106 *156:21 *213:8 0
107 *162:10 *213:42 0.000223698
108 *177:10 *213:8 0
109 *180:14 *3849:A2 1.14452e-05
110 *180:14 *213:8 0.000222113
111 *180:14 *213:42 8.08462e-05
112 *192:10 *213:42 5.50049e-05
113 *195:8 *3849:A2 6.82514e-05
114 *202:10 *213:124 2.26497e-05
115 *212:82 *213:83 2.80512e-05
116 *212:86 *213:70 4.75206e-05
117 *212:86 *213:83 3.53115e-05
118 *212:121 *3755:D 5.90675e-06
119 *212:136 *213:83 5.41288e-05
*RES
1 *3659:X *213:6 38 
2 *213:6 *213:8 13.5264 
3 *213:8 *3849:A2 45.0429 
4 *213:8 *213:21 15 
5 *213:21 *3807:C 23 
6 *213:21 *213:42 22.2161 
7 *213:42 *3793:A2 23.4971 
8 *213:42 *213:51 2.76536 
9 *213:51 *3785:C 23.4971 
10 *213:51 *213:70 40.7921 
11 *213:70 *3755:D 23.8493 
12 *213:70 *213:83 24.9843 
13 *213:83 *213:89 25.6471 
14 *213:89 *3661:C 23 
15 *213:89 *213:106 48.4771 
16 *213:106 *213:108 3.48 
17 *213:108 *213:124 48.6637 
18 *213:124 *3861:A1 23 
19 *213:108 *3680:A 23 
20 *213:83 *213:138 19.9093 
21 *213:138 *3673:A2 28.2821 
22 *213:138 *3676:A1 23 
*END

*D_NET *214 0.025313
*CONN
*I *3673:A3 I *D sky130_fd_sc_hd__o31a_1
*I *3676:A2 I *D sky130_fd_sc_hd__o21a_1
*I *3793:B1 I *D sky130_fd_sc_hd__a22o_1
*I *3849:B1 I *D sky130_fd_sc_hd__a22o_1
*I *3661:D I *D sky130_fd_sc_hd__or4_1
*I *3679:B I *D sky130_fd_sc_hd__nand2_1
*I *3682:A1_N I *D sky130_fd_sc_hd__o2bb2a_1
*I *3846:A2 I *D sky130_fd_sc_hd__a31o_1
*I *3807:D I *D sky130_fd_sc_hd__and4_1
*I *3859:A1 I *D sky130_fd_sc_hd__a31o_1
*I *3660:X O *D sky130_fd_sc_hd__clkbuf_4
*CAP
1 *3673:A3 0.000202972
2 *3676:A2 1.92397e-05
3 *3793:B1 6.04854e-05
4 *3849:B1 0
5 *3661:D 0
6 *3679:B 0
7 *3682:A1_N 0
8 *3846:A2 0
9 *3807:D 0.000107368
10 *3859:A1 8.44321e-05
11 *3660:X 0
12 *214:130 0.000421358
13 *214:110 0.000762017
14 *214:100 0.00239597
15 *214:88 0.00212092
16 *214:77 0.000998923
17 *214:70 0.000147045
18 *214:57 0.000893388
19 *214:47 0.0022416
20 *214:38 0.000101503
21 *214:25 0.000271871
22 *214:19 0.00121245
23 *214:6 0.00267388
24 *214:4 0.00228463
25 *3673:A3 *3673:B1 0.000124564
26 *3673:A3 *3676:B1 5.50049e-05
27 *3673:A3 *3684:B1 0
28 *3673:A3 *230:10 0.000143655
29 *3676:A2 *3673:B1 4.00259e-06
30 *3793:B1 *245:23 4.75766e-05
31 *3793:B1 *249:96 2.64616e-05
32 *3793:B1 *272:12 4.9808e-05
33 *214:6 *3702:A1 2.25419e-05
34 *214:6 *3702:A2 5.14746e-06
35 *214:6 *3702:B1 2.30292e-05
36 *214:6 *3702:B2 5.47927e-05
37 *214:6 *243:22 1.83763e-05
38 *214:6 *255:6 0.000143655
39 *214:6 *255:19 0.000173898
40 *214:19 *3873:A1 0
41 *214:19 *243:43 8.40642e-05
42 *214:19 *245:33 0.000104869
43 *214:19 *245:37 0.000820345
44 *214:19 *249:76 5.08899e-05
45 *214:19 *259:18 0
46 *214:19 *260:31 1.34542e-05
47 *214:19 *279:8 0.000135547
48 *214:19 *302:102 0
49 *214:38 *3846:A1 8.35638e-06
50 *214:38 *245:31 4.39444e-06
51 *214:38 *245:33 1.86973e-05
52 *214:47 *243:22 7.64807e-05
53 *214:47 *262:12 0.000158828
54 *214:57 *3681:A2 9.05904e-05
55 *214:57 *3682:B1 5.25848e-05
56 *214:57 *3875:RESET_B 8.4047e-05
57 *214:57 *3891:A 0.000272383
58 *214:57 *235:14 1.23436e-05
59 *214:57 *293:6 0.000107001
60 *214:70 *236:16 3.35838e-05
61 *214:70 *275:10 0
62 *214:70 *303:18 0.000232668
63 *214:77 *3661:A 1.14452e-05
64 *214:77 *3664:C_N 7.98259e-05
65 *214:77 *3727:A 0
66 *214:77 *3875:RESET_B 0.000110262
67 *214:77 *217:21 4.23714e-05
68 *214:77 *251:21 0
69 *214:77 *265:29 0.000115215
70 *214:77 *277:35 0
71 *214:77 *301:98 0.000296026
72 *214:77 *301:115 4.59441e-05
73 *214:88 *3661:A 0.000302339
74 *214:88 *3727:A 0
75 *214:88 *247:112 0.000160121
76 *214:88 *279:35 6.16439e-05
77 *214:88 *296:38 0.000290894
78 *214:88 *296:40 0.000128574
79 *214:100 *245:29 3.59647e-05
80 *214:100 *246:85 7.14436e-05
81 *214:110 *3849:B2 5.3304e-05
82 *214:110 *245:29 0.000481778
83 *214:110 *279:29 6.32777e-05
84 *3673:A1 *3673:A3 5.50049e-05
85 *3673:A2 *3673:A3 2.25927e-05
86 *3673:A2 *3676:A2 1.14154e-05
87 *3673:A2 *214:130 1.40958e-05
88 *3720:C *214:19 0.00017731
89 *3732:A *214:19 8.07822e-05
90 *3742:A1 *214:100 2.18409e-05
91 *3742:A2 *214:100 5.23699e-05
92 *3742:B1 *214:100 5.50106e-05
93 *3743:B *214:100 0
94 *3833:A1 *214:110 7.17297e-05
95 *3849:A2 *214:38 1.22906e-05
96 *3859:B1 *3859:A1 6.17437e-06
97 *3859:B1 *214:6 0.00019975
98 *46:8 *214:19 0
99 *56:40 *214:6 0.00010655
100 *71:20 *214:88 7.51607e-05
101 *71:20 *214:100 0
102 *72:14 *214:88 0
103 *73:8 *214:77 0
104 *89:8 *214:100 2.07791e-05
105 *162:10 *214:110 9.7017e-05
106 *163:8 *214:110 3.47781e-05
107 *163:16 *214:110 0.000182826
108 *171:8 *214:19 0.000140958
109 *179:24 *214:19 6.60558e-05
110 *179:39 *214:19 0
111 *180:14 *3807:D 5.50049e-05
112 *180:14 *214:25 0.000118737
113 *180:14 *214:38 0.000219891
114 *192:10 *214:38 7.28526e-05
115 *201:8 *214:19 0
116 *209:16 *3859:A1 1.14762e-05
117 *209:16 *214:6 0.000166969
118 *209:22 *214:19 2.78332e-05
119 *209:108 *214:70 3.01937e-05
120 *213:42 *3807:D 1.41077e-05
121 *213:89 *214:88 5.40762e-05
122 *213:106 *214:77 0
123 *213:138 *214:100 0.000135037
124 *213:138 *214:130 0.000298204
*RES
1 *3660:X *214:4 23 
2 *214:4 *214:6 22.5371 
3 *214:6 *3859:A1 24.4707 
4 *214:6 *214:19 40.4993 
5 *214:19 *214:25 16.595 
6 *214:25 *3807:D 24.5743 
7 *214:25 *214:38 33.3143 
8 *214:38 *3846:A2 23 
9 *214:4 *214:47 27.0557 
10 *214:47 *214:57 29.3705 
11 *214:57 *3682:A1_N 23 
12 *214:57 *214:70 33.3143 
13 *214:70 *3679:B 23 
14 *214:47 *214:77 14.5829 
15 *214:77 *3661:D 38 
16 *214:77 *214:88 24.6529 
17 *214:88 *214:100 30.8062 
18 *214:100 *214:110 28.7638 
19 *214:110 *3849:B1 23 
20 *214:100 *3793:B1 47.2946 
21 *214:88 *214:130 3.95643 
22 *214:130 *3676:A2 23.4971 
23 *214:130 *3673:A3 27.93 
*END

*D_NET *215 0.00154426
*CONN
*I *3670:B I *D sky130_fd_sc_hd__nand2_1
*I *3662:C I *D sky130_fd_sc_hd__or3_1
*I *3668:A2 I *D sky130_fd_sc_hd__o21a_1
*I *3661:X O *D sky130_fd_sc_hd__or4_1
*CAP
1 *3670:B 0.00014337
2 *3662:C 0
3 *3668:A2 3.75651e-05
4 *3661:X 0.00011508
5 *215:12 0.000121886
6 *215:8 0.000342771
7 *3668:A2 *3662:A 4.9662e-05
8 *3668:A2 *3668:A1 3.96752e-05
9 *3668:A2 *300:96 2.32004e-05
10 *3668:A2 *300:109 1.32314e-05
11 *3670:B *217:97 4.51974e-05
12 *3670:B *217:116 1.02387e-05
13 *3670:B *224:8 0.000140958
14 *3670:B *300:45 7.03317e-05
15 *215:8 *3671:A 0.000137651
16 *215:12 *217:97 3.98859e-05
17 *213:106 *3670:B 7.70737e-05
18 *213:106 *215:12 0.000136486
*RES
1 *3661:X *215:8 39.5743 
2 *215:8 *215:12 16.9057 
3 *215:12 *3668:A2 24.0979 
4 *215:12 *3662:C 23 
5 *215:8 *3670:B 42.0186 
*END

*D_NET *216 0.00126895
*CONN
*I *3665:B I *D sky130_fd_sc_hd__nand2_1
*I *3664:B I *D sky130_fd_sc_hd__or3b_2
*I *3662:X O *D sky130_fd_sc_hd__or3_1
*CAP
1 *3665:B 7.68745e-05
2 *3664:B 0
3 *3662:X 0
4 *216:10 0.000263914
5 *216:4 0.000340789
6 *3665:B *3662:B 6.27021e-05
7 *3665:B *3665:A 5.67058e-05
8 *3665:B *300:130 0.000137453
9 *216:10 *3666:A 0.00021673
10 *216:10 *217:95 1.01436e-05
11 *216:10 *219:8 3.46181e-05
12 *216:10 *240:10 0
13 *216:10 *242:10 0
14 *216:10 *243:12 4.21594e-06
15 *216:10 *302:18 6.48049e-05
16 *213:106 *216:10 0
*RES
1 *3662:X *216:4 23 
2 *216:4 *216:10 35.7793 
3 *216:10 *3664:B 23 
4 *216:4 *3665:B 25.2993 
*END

*D_NET *217 0.014618
*CONN
*I *3668:B1 I *D sky130_fd_sc_hd__o21a_1
*I *3665:A I *D sky130_fd_sc_hd__nand2_1
*I *3673:B1 I *D sky130_fd_sc_hd__o31a_1
*I *3676:B1 I *D sky130_fd_sc_hd__o21a_1
*I *3670:A I *D sky130_fd_sc_hd__nand2_1
*I *3818:B1 I *D sky130_fd_sc_hd__o21ai_1
*I *3707:B I *D sky130_fd_sc_hd__and3_1
*I *3731:A2 I *D sky130_fd_sc_hd__a21oi_1
*I *3873:A1 I *D sky130_fd_sc_hd__a31o_1
*I *3664:C_N I *D sky130_fd_sc_hd__or3b_2
*I *3663:X O *D sky130_fd_sc_hd__buf_2
*CAP
1 *3668:B1 0
2 *3665:A 0.000179607
3 *3673:B1 0.00013063
4 *3676:B1 1.56543e-05
5 *3670:A 5.76707e-05
6 *3818:B1 0
7 *3707:B 0
8 *3731:A2 0.000154441
9 *3873:A1 0.000278137
10 *3664:C_N 0.000394343
11 *3663:X 0
12 *217:116 0.000455149
13 *217:97 0.000654123
14 *217:95 0.000829727
15 *217:85 0.000554335
16 *217:47 0.000867657
17 *217:43 0.0011007
18 *217:39 0.00140125
19 *217:27 0.00116525
20 *217:21 0.000712773
21 *217:6 0.000485707
22 *3664:C_N *302:28 0.000442771
23 *3664:C_N *302:41 0
24 *3665:A *300:130 4.95081e-05
25 *3670:A *272:20 3.71125e-05
26 *3673:B1 *228:20 0
27 *3731:A2 *259:18 0.000172615
28 *3873:A1 *243:43 0.000148688
29 *3873:A1 *259:18 0.000223786
30 *217:27 *3695:A 5.12254e-05
31 *217:27 *246:42 6.89706e-05
32 *217:27 *248:10 9.67842e-05
33 *217:27 *300:51 0.000140736
34 *217:27 *300:57 7.17746e-05
35 *217:39 *3697:B1 1.34354e-05
36 *217:39 *246:31 8.04879e-05
37 *217:39 *302:50 2.93845e-05
38 *217:39 *302:52 0.000256164
39 *217:39 *302:54 3.44001e-05
40 *217:39 *302:131 0.000131997
41 *217:43 *302:54 0.000137651
42 *217:43 *302:62 0.000485452
43 *217:85 *300:51 0.00030974
44 *217:95 *3662:B 0
45 *217:95 *240:10 0
46 *217:95 *300:51 9.24795e-06
47 *217:95 *300:96 0.000207914
48 *217:95 *300:109 2.4754e-05
49 *217:97 *3687:B2 0
50 *217:97 *224:8 6.93553e-05
51 *217:97 *225:8 4.58924e-05
52 *217:97 *240:10 0
53 *217:116 *225:8 1.19796e-05
54 *217:116 *227:8 7.28526e-05
55 *217:116 *265:42 2.72055e-05
56 *217:116 *300:43 8.16356e-05
57 *217:116 *300:45 0
58 *3665:B *3665:A 5.67058e-05
59 *3670:B *217:97 4.51974e-05
60 *3670:B *217:116 1.02387e-05
61 *3673:A1 *3673:B1 5.50049e-05
62 *3673:A2 *3673:B1 0.000227208
63 *3673:A2 *3676:B1 2.32004e-05
64 *3673:A3 *3673:B1 0.000124564
65 *3673:A3 *3676:B1 5.50049e-05
66 *3676:A2 *3673:B1 4.00259e-06
67 *3719:A2 *217:43 0.000184527
68 *3719:A2 *217:47 4.66047e-05
69 *3818:A2 *217:27 9.84794e-05
70 *3818:A2 *217:39 5.50106e-05
71 *57:10 *217:39 0.000137651
72 *59:10 *217:43 9.84794e-05
73 *66:10 *217:43 5.56797e-05
74 *68:10 *217:43 5.67058e-05
75 *73:8 *3664:C_N 4.21594e-06
76 *73:8 *217:21 3.81554e-05
77 *165:6 *217:27 4.34745e-05
78 *165:6 *217:39 5.50106e-05
79 *211:14 *3731:A2 0
80 *211:14 *3873:A1 0
81 *211:73 *3731:A2 0
82 *212:24 *217:97 0
83 *212:24 *217:116 0
84 *214:19 *3873:A1 0
85 *214:77 *3664:C_N 7.98259e-05
86 *214:77 *217:21 4.23714e-05
87 *215:12 *217:97 3.98859e-05
88 *216:10 *217:95 1.01436e-05
*RES
1 *3663:X *217:6 38 
2 *217:6 *3664:C_N 46.2236 
3 *217:6 *217:21 16.9057 
4 *217:21 *217:27 9.36286 
5 *217:27 *217:39 41.2686 
6 *217:39 *217:43 13.9821 
7 *217:43 *217:47 20.3857 
8 *217:47 *3873:A1 44.67 
9 *217:47 *3731:A2 41.0243 
10 *217:43 *3707:B 23 
11 *217:27 *3818:B1 23 
12 *217:21 *217:85 4.32929 
13 *217:85 *217:95 20.6757 
14 *217:95 *217:97 5.77929 
15 *217:97 *3670:A 39.4707 
16 *217:97 *217:116 21.1314 
17 *217:116 *3676:B1 23.6214 
18 *217:116 *3673:B1 27.4743 
19 *217:95 *3665:A 41.1693 
20 *217:85 *3668:B1 23 
*END

*D_NET *218 0.00142885
*CONN
*I *3689:A2 I *D sky130_fd_sc_hd__a21oi_4
*I *3688:A2 I *D sky130_fd_sc_hd__o22a_1
*I *3664:X O *D sky130_fd_sc_hd__or3b_2
*CAP
1 *3689:A2 3.65708e-05
2 *3688:A2 0
3 *3664:X 0.000442568
4 *218:18 0.00010515
5 *218:12 0.00058429
6 *218:12 *3689:A1 4.94008e-05
7 *218:12 *243:12 1.94693e-05
8 *218:12 *302:28 4.67488e-05
9 *218:18 *3689:A1 8.85189e-05
10 *218:18 *241:8 5.61311e-05
11 *218:18 *242:10 0
*RES
1 *3664:X *218:12 30.4779 
2 *218:12 *218:18 32.2579 
3 *218:18 *3688:A2 23 
4 *218:12 *3689:A2 23.6214 
*END

*D_NET *219 0.00043159
*CONN
*I *3666:B I *D sky130_fd_sc_hd__xor2_1
*I *3665:Y O *D sky130_fd_sc_hd__nand2_1
*CAP
1 *3666:B 4.11709e-05
2 *3665:Y 7.29787e-05
3 *219:8 0.00011415
4 *3666:B *220:8 0
5 *3666:B *223:10 5.70419e-05
6 *3666:B *262:38 5.70419e-05
7 *219:8 *240:10 5.45887e-05
8 *216:10 *219:8 3.46181e-05
*RES
1 *3665:Y *219:8 39.5536 
2 *219:8 *3666:B 39.595 
*END

*D_NET *220 0.00153705
*CONN
*I *3667:B I *D sky130_fd_sc_hd__and2_1
*I *3687:A2 I *D sky130_fd_sc_hd__o221a_1
*I *3666:X O *D sky130_fd_sc_hd__xor2_1
*CAP
1 *3667:B 0
2 *3687:A2 0
3 *3666:X 9.56002e-05
4 *220:23 0.000211851
5 *220:8 0.000307452
6 *220:8 *223:10 3.53115e-05
7 *220:8 *223:20 2.93845e-05
8 *220:8 *262:38 0.000222791
9 *220:23 *3687:A1 0.000248996
10 *220:23 *262:38 0.000189118
11 *220:23 *300:130 0.000196549
12 *3666:B *220:8 0
*RES
1 *3666:X *220:8 26.0243 
2 *220:8 *3687:A2 23 
3 *220:8 *220:23 37.0636 
4 *220:23 *3667:B 23 
*END

*D_NET *221 0.000960409
*CONN
*I *3688:B1 I *D sky130_fd_sc_hd__o22a_1
*I *3667:X O *D sky130_fd_sc_hd__and2_1
*CAP
1 *3688:B1 0.000275781
2 *3667:X 4.11681e-05
3 *221:8 0.000316949
4 *3688:B1 *3688:A1 5.41385e-05
5 *3688:B1 *3688:B2 6.2484e-05
6 *221:8 *236:16 8.85189e-05
7 *221:8 *300:130 8.85189e-05
8 *209:98 *3688:B1 1.32939e-05
9 *209:115 *3688:B1 1.95556e-05
*RES
1 *3667:X *221:8 39.2014 
2 *221:8 *3688:B1 43.3029 
*END

*D_NET *222 0.000591778
*CONN
*I *3669:B I *D sky130_fd_sc_hd__xnor2_1
*I *3668:X O *D sky130_fd_sc_hd__o21a_1
*CAP
1 *3669:B 6.14355e-05
2 *3668:X 5.45865e-05
3 *222:8 0.000116022
4 *3669:B *262:38 4.96717e-05
5 *3669:B *301:94 5.3304e-05
6 *3669:B *303:32 1.32314e-05
7 *3669:B *303:34 1.72202e-05
8 *222:8 *265:29 0.000113153
9 *222:8 *301:98 0.000113153
*RES
1 *3668:X *222:8 39.5536 
2 *222:8 *3669:B 39.595 
*END

*D_NET *223 0.00217043
*CONN
*I *3687:B1 I *D sky130_fd_sc_hd__o221a_1
*I *3686:A2 I *D sky130_fd_sc_hd__a22o_1
*I *3669:Y O *D sky130_fd_sc_hd__xnor2_1
*CAP
1 *3687:B1 0
2 *3686:A2 0
3 *3669:Y 0.000381168
4 *223:20 0.000212458
5 *223:10 0.000593626
6 *223:10 *3666:A 5.3304e-05
7 *223:10 *3687:A1 0
8 *223:10 *262:38 2.23021e-05
9 *223:10 *303:32 0.000230303
10 *223:20 *3686:A1 5.90675e-06
11 *223:20 *3687:B2 0.000173385
12 *223:20 *236:16 0
13 *223:20 *240:10 0.000376242
14 *3666:B *223:10 5.70419e-05
15 *220:8 *223:10 3.53115e-05
16 *220:8 *223:20 2.93845e-05
*RES
1 *3669:Y *223:10 30.8093 
2 *223:10 *223:20 36.5457 
3 *223:20 *3686:A2 23 
4 *223:10 *3687:B1 23 
*END

*D_NET *224 0.000325094
*CONN
*I *3671:B I *D sky130_fd_sc_hd__xor2_1
*I *3670:Y O *D sky130_fd_sc_hd__nand2_1
*CAP
1 *3671:B 0
2 *3670:Y 5.73903e-05
3 *224:8 5.73903e-05
4 *3670:B *224:8 0.000140958
5 *217:97 *224:8 6.93553e-05
*RES
1 *3670:Y *224:8 39.9057 
2 *224:8 *3671:B 38 
*END

*D_NET *225 0.00124348
*CONN
*I *3685:A2 I *D sky130_fd_sc_hd__a22o_1
*I *3672:B I *D sky130_fd_sc_hd__or2_1
*I *3671:X O *D sky130_fd_sc_hd__xor2_1
*CAP
1 *3685:A2 0
2 *3672:B 0.000129667
3 *3671:X 7.81984e-05
4 *225:12 0.000234739
5 *225:8 0.00018327
6 *3672:B *3672:A 6.67283e-05
7 *3672:B *3685:B2 5.67058e-05
8 *3672:B *239:10 2.64616e-05
9 *3672:B *272:20 2.32101e-05
10 *225:12 *239:10 3.34129e-05
11 *225:12 *272:20 0.00026808
12 *212:24 *225:8 8.51329e-05
13 *217:97 *225:8 4.58924e-05
14 *217:116 *225:8 1.19796e-05
*RES
1 *3671:X *225:8 40.2579 
2 *225:8 *225:12 18.0036 
3 *225:12 *3672:B 26.5214 
4 *225:12 *3685:A2 23 
*END

*D_NET *226 0.000998613
*CONN
*I *3686:B1 I *D sky130_fd_sc_hd__a22o_1
*I *3672:X O *D sky130_fd_sc_hd__or2_1
*CAP
1 *3686:B1 0.000232637
2 *3672:X 0.00010826
3 *226:8 0.000340897
4 *3686:B1 *3686:A1 1.24376e-05
5 *3686:B1 *3686:B2 5.67058e-05
6 *3686:B1 *3863:A3 0
7 *226:8 *3883:CLK 1.33523e-05
8 *226:8 *236:16 5.51058e-05
9 *3863:A1 *3686:B1 0.000179217
10 *209:136 *3686:B1 0
*RES
1 *3672:X *226:8 40.2579 
2 *226:8 *3686:B1 42.93 
*END

*D_NET *227 0.00023609
*CONN
*I *3674:B I *D sky130_fd_sc_hd__xnor2_1
*I *3673:X O *D sky130_fd_sc_hd__o31a_1
*CAP
1 *3674:B 0
2 *3673:X 5.74296e-05
3 *227:8 5.74296e-05
4 *212:24 *227:8 4.83778e-05
5 *217:116 *227:8 7.28526e-05
*RES
1 *3673:X *227:8 39.9057 
2 *227:8 *3674:B 38 
*END

*D_NET *228 0.00150308
*CONN
*I *3675:B I *D sky130_fd_sc_hd__or2_1
*I *3684:A2 I *D sky130_fd_sc_hd__a22o_1
*I *3674:Y O *D sky130_fd_sc_hd__xnor2_1
*CAP
1 *3675:B 3.44513e-05
2 *3684:A2 0
3 *3674:Y 0.000189264
4 *228:20 0.000177496
5 *228:8 0.000401212
6 *3675:B *296:85 2.18409e-05
7 *228:8 *3674:A 0
8 *228:8 *296:85 0.000274265
9 *228:20 *236:16 0.000169683
10 *228:20 *238:10 6.17437e-06
11 *228:20 *271:20 5.90132e-05
12 *228:20 *271:26 0.000169683
13 *3673:B1 *228:20 0
*RES
1 *3674:Y *228:8 27.3293 
2 *228:8 *228:20 34.7021 
3 *228:20 *3684:A2 23 
4 *228:8 *3675:B 23.6214 
*END

*D_NET *229 0.000331152
*CONN
*I *3685:B1 I *D sky130_fd_sc_hd__a22o_1
*I *3675:X O *D sky130_fd_sc_hd__or2_1
*CAP
1 *3685:B1 0
2 *3675:X 6.16572e-05
3 *229:8 6.16572e-05
4 *229:8 *238:10 0.000140958
5 *229:8 *273:10 6.68793e-05
*RES
1 *3675:X *229:8 39.9057 
2 *229:8 *3685:B1 38 
*END

*D_NET *230 0.000655773
*CONN
*I *3677:B I *D sky130_fd_sc_hd__xnor2_1
*I *3676:X O *D sky130_fd_sc_hd__o21a_1
*CAP
1 *3677:B 0
2 *3676:X 0.000177741
3 *230:10 0.000177741
4 *230:10 *300:43 0
5 *3673:A3 *230:10 0.000143655
6 *212:12 *230:10 1.47563e-05
7 *212:16 *230:10 0.000141879
*RES
1 *3676:X *230:10 41.8321 
2 *230:10 *3677:B 38 
*END

*D_NET *231 0.00122139
*CONN
*I *3683:A2 I *D sky130_fd_sc_hd__a21o_1
*I *3678:B I *D sky130_fd_sc_hd__or2_1
*I *3677:Y O *D sky130_fd_sc_hd__xnor2_1
*CAP
1 *3683:A2 0
2 *3678:B 0
3 *3677:Y 0.000229411
4 *231:23 0.000257302
5 *231:8 0.000486712
6 *231:8 *279:37 0.000137625
7 *231:23 *3683:A1 0
8 *231:23 *271:20 2.02517e-05
9 *231:23 *279:37 9.00922e-05
*RES
1 *3677:Y *231:8 27.4536 
2 *231:8 *3678:B 23 
3 *231:8 *231:23 34.93 
4 *231:23 *3683:A2 23 
*END

*D_NET *232 0.00032871
*CONN
*I *3684:B1 I *D sky130_fd_sc_hd__a22o_1
*I *3678:X O *D sky130_fd_sc_hd__or2_1
*CAP
1 *3684:B1 5.00598e-05
2 *3678:X 6.21663e-05
3 *232:8 0.000112226
4 *3684:B1 *271:20 6.09174e-05
5 *232:8 *3683:A1 4.334e-05
6 *232:8 *273:10 0
7 *3673:A3 *3684:B1 0
*RES
1 *3678:X *232:8 39.2014 
2 *232:8 *3684:B1 39.1186 
*END

*D_NET *233 0.000424027
*CONN
*I *3680:B I *D sky130_fd_sc_hd__xor2_1
*I *3679:Y O *D sky130_fd_sc_hd__nand2_1
*CAP
1 *3680:B 7.83532e-05
2 *3679:Y 7.83532e-05
3 *3680:B *3679:A 5.3304e-05
4 *3680:B *303:32 9.74625e-05
5 *3680:B *304:42 0.000116554
*RES
1 *3679:Y *3680:B 48.5271 
*END

*D_NET *234 0.00109211
*CONN
*I *3681:A2 I *D sky130_fd_sc_hd__a21oi_1
*I *3682:B1 I *D sky130_fd_sc_hd__o2bb2a_1
*I *3680:X O *D sky130_fd_sc_hd__xor2_1
*CAP
1 *3681:A2 0.000153175
2 *3682:B1 5.28963e-05
3 *3680:X 8.93968e-05
4 *234:10 0.000206071
5 *234:8 8.93968e-05
6 *3681:A2 *235:14 0.000100789
7 *3681:A2 *236:8 5.67058e-05
8 *234:8 *276:14 0.000160634
9 *234:8 *302:18 0
10 *234:8 *304:42 3.98668e-05
11 *214:57 *3681:A2 9.05904e-05
12 *214:57 *3682:B1 5.25848e-05
*RES
1 *3680:X *234:8 40.2579 
2 *234:8 *234:10 15 
3 *234:10 *3682:B1 24.0979 
4 *234:10 *3681:A2 26.5007 
*END

*D_NET *235 0.000611253
*CONN
*I *3682:A2_N I *D sky130_fd_sc_hd__o2bb2a_1
*I *3681:Y O *D sky130_fd_sc_hd__a21oi_1
*CAP
1 *3682:A2_N 0
2 *3681:Y 0.00024906
3 *235:14 0.00024906
4 *3681:A2 *235:14 0.000100789
5 *214:57 *235:14 1.23436e-05
*RES
1 *3681:Y *235:14 27.9921 
2 *235:14 *3682:A2_N 23 
*END

*D_NET *236 0.00409697
*CONN
*I *3683:B1 I *D sky130_fd_sc_hd__a21o_1
*I *3682:X O *D sky130_fd_sc_hd__o2bb2a_1
*CAP
1 *3683:B1 0
2 *3682:X 2.86067e-05
3 *236:16 0.0012656
4 *236:8 0.00129421
5 *236:16 *3684:B2 5.67058e-05
6 *236:16 *3687:B2 0
7 *236:16 *3883:CLK 0
8 *236:16 *238:10 4.38375e-05
9 *236:16 *239:10 0
10 *236:16 *241:8 0.000384805
11 *236:16 *271:20 0.000116761
12 *236:16 *271:26 4.07612e-05
13 *236:16 *273:10 0
14 *236:16 *275:10 0
15 *236:16 *300:130 0.000268148
16 *3681:A2 *236:8 5.67058e-05
17 *202:10 *236:16 0
18 *209:108 *236:16 0.000188341
19 *213:124 *236:16 5.58873e-06
20 *214:70 *236:16 3.35838e-05
21 *221:8 *236:16 8.85189e-05
22 *223:20 *236:16 0
23 *226:8 *236:16 5.51058e-05
24 *228:20 *236:16 0.000169683
*RES
1 *3682:X *236:8 38.6214 
2 *236:8 *236:16 42.3429 
3 *236:16 *3683:B1 23 
*END

*D_NET *237 0.000126903
*CONN
*I *3684:B2 I *D sky130_fd_sc_hd__a22o_1
*I *3683:X O *D sky130_fd_sc_hd__a21o_1
*CAP
1 *3684:B2 6.74574e-06
2 *3683:X 6.74574e-06
3 *3684:B2 *271:20 5.67058e-05
4 *236:16 *3684:B2 5.67058e-05
*RES
1 *3683:X *3684:B2 46.6214 
*END

*D_NET *238 0.00115125
*CONN
*I *3685:B2 I *D sky130_fd_sc_hd__a22o_1
*I *3684:X O *D sky130_fd_sc_hd__a22o_1
*CAP
1 *3685:B2 1.08631e-05
2 *3684:X 0.000283457
3 *238:10 0.00029432
4 *3685:B2 *3672:A 5.50106e-05
5 *238:10 *271:26 0.000192077
6 *238:10 *273:10 6.78463e-05
7 *3672:B *3685:B2 5.67058e-05
8 *228:20 *238:10 6.17437e-06
9 *229:8 *238:10 0.000140958
10 *236:16 *238:10 4.38375e-05
*RES
1 *3684:X *238:10 43.8207 
2 *238:10 *3685:B2 38.6214 
*END

*D_NET *239 0.000856716
*CONN
*I *3686:B2 I *D sky130_fd_sc_hd__a22o_1
*I *3685:X O *D sky130_fd_sc_hd__a22o_1
*CAP
1 *3686:B2 1.08631e-05
2 *3685:X 0.000243831
3 *239:10 0.000254695
4 *239:10 *3687:B2 3.70187e-05
5 *239:10 *273:10 0.000138718
6 *3672:B *239:10 2.64616e-05
7 *3686:B1 *3686:B2 5.67058e-05
8 *3863:A1 *3686:B2 5.50106e-05
9 *225:12 *239:10 3.34129e-05
10 *236:16 *239:10 0
*RES
1 *3685:X *239:10 41.8321 
2 *239:10 *3686:B2 38.6214 
*END

*D_NET *240 0.000979559
*CONN
*I *3687:C1 I *D sky130_fd_sc_hd__o221a_1
*I *3686:X O *D sky130_fd_sc_hd__a22o_1
*CAP
1 *3687:C1 0
2 *3686:X 0.000264629
3 *240:10 0.000264629
4 *3863:A1 *240:10 1.94693e-05
5 *216:10 *240:10 0
6 *217:95 *240:10 0
7 *217:97 *240:10 0
8 *219:8 *240:10 5.45887e-05
9 *223:20 *240:10 0.000376242
*RES
1 *3686:X *240:10 43.6964 
2 *240:10 *3687:C1 38 
*END

*D_NET *241 0.00137537
*CONN
*I *3688:B2 I *D sky130_fd_sc_hd__o22a_1
*I *3687:X O *D sky130_fd_sc_hd__o221a_1
*CAP
1 *3688:B2 8.71314e-05
2 *3687:X 0.000180234
3 *241:8 0.000267365
4 *3688:B2 *3688:A1 9.84851e-05
5 *241:8 *3689:A1 0
6 *3688:B1 *3688:B2 6.2484e-05
7 *209:98 *3688:B2 0.0002263
8 *209:115 *3688:B2 1.24376e-05
9 *218:18 *241:8 5.61311e-05
10 *236:16 *241:8 0.000384805
*RES
1 *3687:X *241:8 43.075 
2 *241:8 *3688:B2 41.5214 
*END

*D_NET *242 0.000428666
*CONN
*I *3689:B1 I *D sky130_fd_sc_hd__a21oi_4
*I *3688:X O *D sky130_fd_sc_hd__o22a_1
*CAP
1 *3689:B1 0
2 *3688:X 0.000166716
3 *242:10 0.000166716
4 *242:10 *3689:A1 0
5 *242:10 *243:12 8.85189e-05
6 *209:98 *242:10 6.71408e-06
7 *216:10 *242:10 0
8 *218:18 *242:10 0
*RES
1 *3688:X *242:10 40.8793 
2 *242:10 *3689:B1 38 
*END

*D_NET *243 0.01889
*CONN
*I *3865:A3 I *D sky130_fd_sc_hd__a31o_1
*I *3863:A3 I *D sky130_fd_sc_hd__a31o_1
*I *3867:A3 I *D sky130_fd_sc_hd__a31o_1
*I *3861:A3 I *D sky130_fd_sc_hd__a31o_1
*I *3873:A3 I *D sky130_fd_sc_hd__a31o_1
*I *3856:B I *D sky130_fd_sc_hd__or3_1
*I *3690:B I *D sky130_fd_sc_hd__nor2_1
*I *3871:A3 I *D sky130_fd_sc_hd__a31o_1
*I *3869:A3 I *D sky130_fd_sc_hd__a31o_1
*I *3859:A3 I *D sky130_fd_sc_hd__a31o_1
*I *3689:Y O *D sky130_fd_sc_hd__a21oi_4
*CAP
1 *3865:A3 0.00020336
2 *3863:A3 9.60916e-05
3 *3867:A3 7.78933e-05
4 *3861:A3 1.74641e-05
5 *3873:A3 2.34823e-05
6 *3856:B 0.00012145
7 *3690:B 0
8 *3871:A3 2.89797e-05
9 *3869:A3 2.9737e-05
10 *3859:A3 7.23721e-06
11 *3689:Y 0.000285584
12 *243:130 0.000589599
13 *243:117 0.000542353
14 *243:104 0.000749975
15 *243:79 0.000510891
16 *243:55 0.000511424
17 *243:47 0.000968995
18 *243:43 0.000720101
19 *243:26 0.00157657
20 *243:22 0.0027349
21 *243:14 0.00229353
22 *243:12 0.000285584
23 *3859:A3 *302:102 9.33529e-06
24 *3865:A3 *3883:CLK 0.000202372
25 *3867:A3 *3867:A1 0.000139352
26 *243:12 *3689:A1 0
27 *243:12 *276:14 0
28 *243:12 *302:18 0
29 *243:22 *3702:B1 0
30 *243:22 *254:12 0
31 *243:22 *255:6 1.73399e-05
32 *243:22 *255:19 5.38135e-05
33 *243:22 *256:8 1.14452e-05
34 *243:22 *262:12 0.00022296
35 *243:22 *303:32 0.0002263
36 *243:26 *277:20 9.1209e-05
37 *243:26 *301:27 1.4344e-05
38 *243:26 *302:102 0.000842618
39 *243:43 *259:33 3.06338e-05
40 *243:43 *302:102 2.71896e-05
41 *243:55 *3869:A1 0
42 *243:55 *244:18 0.000163758
43 *243:55 *261:16 1.97579e-07
44 *243:79 *244:39 6.16531e-05
45 *243:79 *261:10 0.000138718
46 *243:79 *261:16 0.000141897
47 *243:79 *261:64 0.000428682
48 *243:79 *262:29 0.000127051
49 *243:104 *303:32 0.000300012
50 *243:104 *304:42 1.29283e-05
51 *243:117 *3881:CLK 0.000180121
52 *243:117 *304:42 9.8971e-06
53 *243:130 *3881:CLK 0.000105072
54 *243:130 *262:40 0.000151817
55 *3656:A *243:79 0
56 *3686:B1 *3863:A3 0
57 *3857:A1 *3856:B 0
58 *3861:B1 *3861:A3 1.37232e-05
59 *3861:B1 *243:104 9.84794e-05
60 *3863:A1 *3863:A3 6.17437e-06
61 *3867:A2 *3867:A3 3.71369e-05
62 *3868:A *3869:A3 7.42621e-05
63 *3868:A *3871:A3 5.44323e-05
64 *3869:A2 *3869:A3 7.53384e-06
65 *3869:A2 *3871:A3 0
66 *3871:A2 *3871:A3 1.1314e-05
67 *3873:A1 *243:43 0.000148688
68 *3881:D *3861:A3 0
69 *3881:D *243:104 0
70 *3881:D *243:117 5.50049e-05
71 *3887:D *243:47 2.93845e-05
72 *3887:D *243:55 6.70361e-05
73 *49:10 *3865:A3 2.30292e-05
74 *179:24 *3856:B 2.1939e-05
75 *203:10 *3865:A3 2.77955e-05
76 *203:10 *243:130 0.000326983
77 *208:10 *243:43 0
78 *209:16 *243:26 0.000210316
79 *209:22 *3859:A3 2.33476e-05
80 *209:22 *243:43 2.33476e-05
81 *209:35 *3869:A3 7.1349e-05
82 *209:35 *3871:A3 4.47763e-05
83 *209:52 *243:55 3.39224e-05
84 *209:74 *243:79 0
85 *209:108 *243:104 3.12591e-05
86 *209:115 *3867:A3 1.59094e-05
87 *209:121 *3865:A3 3.70187e-05
88 *209:121 *243:117 6.48142e-05
89 *209:121 *243:130 0.000829846
90 *209:136 *3863:A3 4.07999e-05
91 *209:136 *3865:A3 0
92 *210:10 *243:55 6.14637e-05
93 *211:14 *243:43 0
94 *211:14 *243:79 0
95 *211:73 *243:79 0
96 *213:108 *243:22 2.18506e-05
97 *214:6 *243:22 1.83763e-05
98 *214:19 *243:43 8.40642e-05
99 *214:47 *243:22 7.64807e-05
100 *216:10 *243:12 4.21594e-06
101 *218:12 *243:12 1.94693e-05
102 *242:10 *243:12 8.85189e-05
*RES
1 *3689:Y *243:12 43.1371 
2 *243:12 *243:14 15 
3 *243:14 *243:22 47.1632 
4 *243:22 *243:26 11.5765 
5 *243:26 *3859:A3 38.3211 
6 *243:26 *243:43 25.4296 
7 *243:43 *243:47 2.07143 
8 *243:47 *243:55 37.25 
9 *243:55 *3869:A3 24.5743 
10 *243:55 *3871:A3 24.4914 
11 *243:47 *243:79 39.3007 
12 *243:79 *3690:B 23 
13 *243:79 *3856:B 24.8229 
14 *243:43 *3873:A3 23.4971 
15 *243:14 *243:104 8.265 
16 *243:104 *3861:A3 23.4971 
17 *243:104 *243:117 18.8321 
18 *243:117 *3867:A3 40.0714 
19 *243:117 *243:130 11.0614 
20 *243:130 *3863:A3 39.595 
21 *243:130 *3865:A3 42.8886 
*END

*D_NET *244 0.00698251
*CONN
*I *3851:B1 I *D sky130_fd_sc_hd__a22o_1
*I *3847:B1 I *D sky130_fd_sc_hd__a22o_1
*I *3855:B1 I *D sky130_fd_sc_hd__a22o_1
*I *3691:B1_N I *D sky130_fd_sc_hd__o21ba_1
*I *3690:Y O *D sky130_fd_sc_hd__nor2_1
*CAP
1 *3851:B1 0.000196129
2 *3847:B1 0
3 *3855:B1 5.17128e-05
4 *3691:B1_N 0
5 *3690:Y 0
6 *244:64 0.000556663
7 *244:54 0.000791322
8 *244:39 0.000687897
9 *244:18 0.000711385
10 *244:4 0.00130904
11 *3851:B1 *299:12 2.02901e-05
12 *3855:B1 *299:12 0
13 *244:18 *3691:A1 1.32314e-05
14 *244:18 *3872:B 5.67058e-05
15 *244:18 *293:61 0
16 *244:18 *294:8 0.00030457
17 *244:18 *301:10 0
18 *244:39 *261:64 0.0002281
19 *244:39 *261:79 0
20 *244:39 *261:92 3.57337e-05
21 *244:54 *261:92 7.70737e-05
22 *244:64 *3847:A2 0.000143655
23 *244:64 *3878:RESET_B 3.81554e-05
24 *244:64 *261:92 5.19151e-05
25 *244:64 *261:104 0.000138708
26 *244:64 *298:16 0.000225265
27 *244:64 *301:10 0
28 *3690:A *244:39 4.49634e-05
29 *3847:A1 *244:64 5.67058e-05
30 *3850:A1 *3851:B1 0
31 *3855:A1 *3855:B1 3.91386e-05
32 *3855:B2 *3851:B1 2.02872e-05
33 *3855:B2 *3855:B1 5.3304e-05
34 *3855:B2 *244:64 2.64616e-05
35 *3856:A *244:18 4.69776e-05
36 *3857:B1_N *244:18 5.50106e-05
37 *42:10 *244:64 9.84794e-05
38 *43:8 *244:39 7.89502e-05
39 *45:10 *244:18 1.39431e-05
40 *179:24 *244:18 0.000105586
41 *199:16 *244:39 1.408e-05
42 *199:16 *244:54 4.27794e-05
43 *209:52 *244:18 3.41998e-06
44 *210:10 *244:18 7.4878e-05
45 *210:51 *244:18 7.4878e-05
46 *211:83 *244:18 5.21024e-05
47 *211:100 *244:39 0
48 *211:117 *3851:B1 5.61255e-06
49 *211:117 *3855:B1 0.000141052
50 *211:117 *244:39 5.43178e-05
51 *211:117 *244:54 6.7177e-06
52 *211:117 *244:64 9.8971e-06
53 *243:55 *244:18 0.000163758
54 *243:79 *244:39 6.16531e-05
*RES
1 *3690:Y *244:4 23 
2 *244:4 *244:18 45.805 
3 *244:18 *3691:B1_N 23 
4 *244:4 *244:39 27.0764 
5 *244:39 *3855:B1 40.0714 
6 *244:39 *244:54 16.2014 
7 *244:54 *244:64 42.2421 
8 *244:64 *3847:B1 23 
9 *244:54 *3851:B1 25.5479 
*END

*D_NET *245 0.0156858
*CONN
*I *3806:A1 I *D sky130_fd_sc_hd__a22o_1
*I *3794:A I *D sky130_fd_sc_hd__and4_2
*I *3795:A I *D sky130_fd_sc_hd__nand2_1
*I *3788:A1 I *D sky130_fd_sc_hd__a31o_1
*I *3846:A1 I *D sky130_fd_sc_hd__a31o_1
*I *3807:A I *D sky130_fd_sc_hd__and4_1
*I *3849:A1 I *D sky130_fd_sc_hd__a22o_1
*I *3707:A I *D sky130_fd_sc_hd__and3_1
*I *3731:A1 I *D sky130_fd_sc_hd__a21oi_1
*I *3820:A0 I *D sky130_fd_sc_hd__mux2_1
*I *3692:X O *D sky130_fd_sc_hd__buf_2
*CAP
1 *3806:A1 0
2 *3794:A 8.01193e-05
3 *3795:A 5.89499e-05
4 *3788:A1 0
5 *3846:A1 0.000178694
6 *3807:A 2.01797e-05
7 *3849:A1 9.13849e-05
8 *3707:A 0
9 *3731:A1 0.000185569
10 *3820:A0 0
11 *3692:X 0
12 *245:114 0.000125209
13 *245:98 0.00081173
14 *245:92 0.000916135
15 *245:56 0.000408714
16 *245:37 0.00101437
17 *245:33 0.000619798
18 *245:31 0.000145467
19 *245:29 0.00137991
20 *245:23 0.00169925
21 *245:12 0.000283175
22 *245:4 0.000679907
23 *3731:A1 *259:18 4.51416e-05
24 *3795:A *3788:A2 0.000147173
25 *3849:A1 *279:29 1.5769e-05
26 *245:12 *272:12 0
27 *245:12 *272:20 5.3304e-05
28 *245:12 *302:62 0
29 *245:12 *303:97 0.000116314
30 *245:23 *246:10 0.000174314
31 *245:23 *247:33 5.94125e-05
32 *245:23 *264:70 6.16531e-05
33 *245:23 *267:44 2.72055e-05
34 *245:23 *267:59 5.97355e-05
35 *245:23 *272:12 0.000287889
36 *245:23 *272:20 4.2573e-05
37 *245:29 *249:66 0.000103623
38 *245:56 *3719:A1 1.40183e-05
39 *245:56 *259:33 3.41998e-06
40 *245:92 *267:59 1.74874e-06
41 *245:92 *272:12 9.92307e-06
42 *245:98 *263:55 2.84809e-05
43 *245:98 *272:12 0.000728306
44 *245:98 *274:29 0.000141879
45 *3719:A2 *245:56 2.93845e-05
46 *3732:A *245:56 0.000141327
47 *3732:B *3731:A1 1.76557e-05
48 *3734:B *245:37 5.2497e-05
49 *3781:B *245:98 5.20202e-05
50 *3793:B1 *245:23 4.75766e-05
51 *3794:C *3794:A 0.000123506
52 *3849:A2 *3849:A1 0.000181125
53 *3849:A2 *245:33 0
54 *55:18 *245:12 6.07611e-06
55 *58:8 *245:12 3.39231e-05
56 *68:42 *245:37 0.000165593
57 *77:6 *245:12 0.000268074
58 *77:6 *245:23 5.3304e-05
59 *79:8 *3731:A1 1.41077e-05
60 *79:8 *245:56 6.53382e-05
61 *80:10 *245:37 3.02296e-05
62 *80:10 *245:56 5.67058e-05
63 *123:27 *245:98 0.000329214
64 *131:18 *245:98 2.87913e-05
65 *132:18 *245:92 0.000161121
66 *132:29 *3794:A 2.96154e-05
67 *132:29 *245:92 2.79167e-05
68 *132:29 *245:98 0.000215909
69 *134:20 *3795:A 1.97125e-05
70 *139:6 *3794:A 5.50106e-05
71 *141:8 *3794:A 0.000180212
72 *142:10 *3795:A 3.87786e-06
73 *163:16 *3849:A1 0.000138444
74 *163:16 *245:33 7.03766e-05
75 *170:14 *245:56 0
76 *173:10 *245:33 7.76364e-06
77 *173:10 *245:37 0.000124668
78 *178:10 *245:33 0
79 *179:24 *3731:A1 2.80924e-06
80 *179:39 *245:37 0
81 *179:39 *245:56 0.000115022
82 *180:14 *3807:A 9.84794e-05
83 *191:8 *3846:A1 0
84 *192:10 *3846:A1 0.000139647
85 *192:16 *3846:A1 5.50049e-05
86 *198:12 *3846:A1 2.02872e-05
87 *213:42 *3807:A 9.84794e-05
88 *213:42 *245:29 0.000130115
89 *214:19 *245:33 0.000104869
90 *214:19 *245:37 0.000820345
91 *214:38 *3846:A1 8.35638e-06
92 *214:38 *245:31 4.39444e-06
93 *214:38 *245:33 1.86973e-05
94 *214:100 *245:29 3.59647e-05
95 *214:110 *245:29 0.000481778
*RES
1 *3692:X *245:4 23 
2 *245:4 *245:12 36.3179 
3 *245:12 *3820:A0 23 
4 *245:4 *245:23 25.0982 
5 *245:23 *245:29 18.8896 
6 *245:29 *245:31 0.321071 
7 *245:31 *245:33 2.61 
8 *245:33 *245:37 26.0614 
9 *245:37 *3731:A1 25.5271 
10 *245:37 *245:56 37.6643 
11 *245:56 *3707:A 23 
12 *245:33 *3849:A1 40.5271 
13 *245:31 *3807:A 39.0979 
14 *245:29 *3846:A1 41.5318 
15 *245:23 *245:92 2.78607 
16 *245:92 *245:98 35.1343 
17 *245:98 *3788:A1 23 
18 *245:98 *3795:A 24.6882 
19 *245:92 *245:114 0.621429 
20 *245:114 *3794:A 40.9 
21 *245:114 *3806:A1 38 
*END

*D_NET *246 0.0116289
*CONN
*I *3819:A1 I *D sky130_fd_sc_hd__a31o_1
*I *3723:B2 I *D sky130_fd_sc_hd__a22o_1
*I *3740:A I *D sky130_fd_sc_hd__nand4_1
*I *3739:B2 I *D sky130_fd_sc_hd__a22o_1
*I *3755:A I *D sky130_fd_sc_hd__nand4_2
*I *3724:A I *D sky130_fd_sc_hd__nand4_1
*I *3695:A I *D sky130_fd_sc_hd__nand4_1
*I *3818:A1 I *D sky130_fd_sc_hd__o21ai_1
*I *3697:B2 I *D sky130_fd_sc_hd__a22o_1
*I *3710:A I *D sky130_fd_sc_hd__nand2_1
*I *3693:X O *D sky130_fd_sc_hd__buf_2
*CAP
1 *3819:A1 0
2 *3723:B2 9.23064e-05
3 *3740:A 0
4 *3739:B2 1.49804e-05
5 *3755:A 0
6 *3724:A 0.000110127
7 *3695:A 3.41136e-05
8 *3818:A1 0
9 *3697:B2 0
10 *3710:A 0.000107964
11 *3693:X 0.000408442
12 *246:91 0.000118652
13 *246:85 0.00058729
14 *246:66 0.000729574
15 *246:62 0.000500495
16 *246:44 3.41136e-05
17 *246:42 0.000423488
18 *246:31 0.000191321
19 *246:25 0.00085994
20 *246:12 0.000651288
21 *246:10 0.000434276
22 *3695:A *300:57 9.67842e-05
23 *3710:A *3712:A 2.4453e-05
24 *3710:A *267:44 0.000154477
25 *3723:B2 *3723:A1 1.37232e-05
26 *3723:B2 *3723:B1 1.76557e-05
27 *3723:B2 *247:99 9.67842e-05
28 *3723:B2 *247:112 8.34394e-05
29 *3723:B2 *272:20 0.000212162
30 *3724:A *3724:C 1.21343e-05
31 *3739:B2 *3755:B 5.50106e-05
32 *246:10 *3712:A 6.01094e-05
33 *246:10 *264:70 0.000239496
34 *246:10 *267:44 0.000792558
35 *246:10 *279:29 9.5877e-05
36 *246:12 *3712:A 1.69668e-05
37 *246:12 *267:44 6.16531e-05
38 *246:31 *3697:B1 0.000164773
39 *246:31 *249:134 3.31127e-05
40 *246:31 *266:35 0
41 *246:31 *302:131 2.51497e-05
42 *246:31 *303:42 2.01531e-05
43 *246:42 *3697:B1 8.4047e-05
44 *246:62 *3697:B1 5.15096e-05
45 *246:62 *3724:C 0.000319731
46 *246:62 *247:63 0.000191148
47 *246:62 *247:99 0.000272377
48 *246:62 *264:51 8.1796e-05
49 *246:62 *264:62 1.41077e-05
50 *246:62 *272:20 0.00053323
51 *246:66 *247:99 0
52 *246:85 *264:47 0
53 *246:85 *296:98 9.5877e-05
54 *246:91 *247:127 2.24973e-05
55 *3736:A *3724:A 7.4573e-05
56 *3742:B1 *246:85 0.000187986
57 *3742:B1 *246:91 6.16531e-05
58 *3743:A *246:85 5.3304e-05
59 *3743:B *246:85 0
60 *3832:B *246:25 5.3304e-05
61 *3:13 *246:42 4.18957e-05
62 *3:13 *246:62 2.35393e-05
63 *57:10 *3710:A 2.73782e-05
64 *69:21 *3724:A 5.64781e-05
65 *69:29 *246:85 0
66 *70:10 *246:62 2.25419e-05
67 *71:20 *246:85 9.88083e-06
68 *71:33 *246:85 4.55681e-05
69 *72:14 *246:66 9.63918e-05
70 *72:14 *246:85 4.70923e-05
71 *87:10 *246:85 1.21972e-05
72 *88:8 *246:91 0.000190227
73 *165:6 *246:25 0.000587795
74 *165:6 *246:42 5.50106e-05
75 *212:82 *3739:B2 5.50106e-05
76 *212:136 *246:85 2.76611e-06
77 *213:83 *246:91 0.000192087
78 *213:89 *246:85 4.45946e-05
79 *214:100 *246:85 7.14436e-05
80 *217:27 *3695:A 5.12254e-05
81 *217:27 *246:42 6.89706e-05
82 *217:39 *246:31 8.04879e-05
83 *245:23 *246:10 0.000174314
*RES
1 *3693:X *246:10 49.8071 
2 *246:10 *246:12 0.849286 
3 *246:12 *3710:A 40.2579 
4 *246:12 *246:25 22.2914 
5 *246:25 *246:31 34.7229 
6 *246:31 *3697:B2 23 
7 *246:25 *246:42 17.7757 
8 *246:42 *246:44 15 
9 *246:44 *3818:A1 23 
10 *246:44 *3695:A 24.0979 
11 *246:42 *246:62 25.9371 
12 *246:62 *246:66 17.61 
13 *246:66 *3724:A 40.5686 
14 *246:66 *246:85 22.5814 
15 *246:85 *246:91 33.3143 
16 *246:91 *3755:A 23 
17 *246:91 *3739:B2 23.6214 
18 *246:85 *3740:A 23 
19 *246:62 *3723:B2 26.3764 
20 *246:10 *3819:A1 38 
*END

*D_NET *247 0.014707
*CONN
*I *3724:B I *D sky130_fd_sc_hd__nand4_1
*I *3739:A1 I *D sky130_fd_sc_hd__a22o_1
*I *3755:B I *D sky130_fd_sc_hd__nand4_2
*I *3740:B I *D sky130_fd_sc_hd__nand4_1
*I *3723:A1 I *D sky130_fd_sc_hd__a22o_1
*I *3785:A I *D sky130_fd_sc_hd__and4_1
*I *3695:B I *D sky130_fd_sc_hd__nand4_1
*I *3711:A I *D sky130_fd_sc_hd__nand2_1
*I *3793:B2 I *D sky130_fd_sc_hd__a22o_1
*I *3712:A I *D sky130_fd_sc_hd__or2_1
*I *3694:X O *D sky130_fd_sc_hd__buf_2
*CAP
1 *3724:B 3.67485e-05
2 *3739:A1 5.55135e-05
3 *3755:B 0.000111468
4 *3740:B 0.000153354
5 *3723:A1 1.49769e-05
6 *3785:A 0.000350753
7 *3695:B 0
8 *3711:A 0
9 *3793:B2 0
10 *3712:A 0.000315638
11 *3694:X 0
12 *247:127 0.000311236
13 *247:112 0.000600742
14 *247:99 0.000547395
15 *247:89 0.000715057
16 *247:63 0.00050737
17 *247:41 0.000297547
18 *247:33 0.000437923
19 *247:18 0.000875905
20 *247:14 0.00112657
21 *247:10 0.000670546
22 *247:4 0.000569513
23 *3712:A *264:70 4.43614e-05
24 *3723:A1 *3723:A2 1.14154e-05
25 *3724:B *3724:C 1.24376e-05
26 *3740:B *296:98 0.000178517
27 *3785:A *263:23 0.000114824
28 *3785:A *266:22 0.000190026
29 *3785:A *266:35 1.80023e-05
30 *247:10 *3694:A 3.15018e-05
31 *247:14 *263:23 4.73689e-05
32 *247:14 *266:35 4.38375e-05
33 *247:18 *303:78 6.08617e-05
34 *247:18 *303:97 9.67842e-05
35 *247:33 *249:48 4.67488e-05
36 *247:33 *264:70 4.49946e-05
37 *247:33 *272:12 8.4047e-05
38 *247:41 *249:54 0.000305351
39 *247:41 *249:96 5.3304e-05
40 *247:41 *272:12 0.000613542
41 *247:63 *3727:A 0
42 *247:63 *300:57 0.000141052
43 *247:89 *3724:C 0.000265477
44 *247:99 *3723:A2 1.94693e-05
45 *247:99 *264:47 6.4393e-05
46 *247:99 *264:62 0
47 *247:112 *3723:A2 1.21972e-05
48 *247:112 *3723:B1 2.64616e-05
49 *247:112 *279:35 0.000163352
50 *247:127 *279:35 0.000117244
51 *247:127 *296:36 5.76076e-05
52 *3710:A *3712:A 2.4453e-05
53 *3713:B *3712:A 3.53997e-05
54 *3723:B2 *3723:A1 1.37232e-05
55 *3723:B2 *247:99 9.67842e-05
56 *3723:B2 *247:112 8.34394e-05
57 *3736:A *3724:B 1.5769e-05
58 *3739:B2 *3755:B 5.50106e-05
59 *3745:B1_N *247:14 6.33614e-05
60 *3746:C *247:10 2.88979e-05
61 *3746:C *247:89 0.000116902
62 *3755:D *3755:B 0
63 *3779:A1 *247:89 9.5877e-05
64 *3779:B1 *247:89 7.27182e-05
65 *3:13 *247:63 0.000114083
66 *55:66 *247:18 8.78733e-06
67 *57:10 *3712:A 6.01055e-05
68 *58:8 *3712:A 1.59312e-05
69 *58:8 *247:33 1.94685e-05
70 *60:8 *3712:A 6.90024e-05
71 *70:10 *247:99 9.36522e-05
72 *71:20 *247:112 7.51607e-05
73 *74:25 *247:14 5.97612e-05
74 *75:8 *247:63 0.000472412
75 *75:31 *247:14 1.01436e-05
76 *75:31 *247:63 0.00017761
77 *77:6 *247:33 9.58714e-05
78 *127:8 *3785:A 4.87216e-05
79 *166:8 *3712:A 0.000166513
80 *212:80 *3739:A1 2.4754e-05
81 *212:82 *3739:A1 2.93845e-05
82 *212:82 *3755:B 9.00826e-05
83 *212:121 *3755:B 0
84 *213:70 *3785:A 2.93747e-05
85 *213:83 *3755:B 0.000180212
86 *213:83 *247:112 0.000136486
87 *213:83 *247:127 0.000234373
88 *213:89 *247:112 0.000446741
89 *214:88 *247:112 0.000160121
90 *245:23 *247:33 5.94125e-05
91 *246:10 *3712:A 6.01094e-05
92 *246:12 *3712:A 1.69668e-05
93 *246:62 *247:63 0.000191148
94 *246:62 *247:99 0.000272377
95 *246:66 *247:99 0
96 *246:91 *247:127 2.24973e-05
*RES
1 *3694:X *247:4 23 
2 *247:4 *247:10 16.7193 
3 *247:10 *247:14 19.0186 
4 *247:14 *247:18 19.9093 
5 *247:18 *3712:A 44.8357 
6 *247:18 *247:33 18.3557 
7 *247:33 *247:41 38.8657 
8 *247:41 *3793:B2 23 
9 *247:33 *3711:A 23 
10 *247:14 *247:63 40.5436 
11 *247:63 *3695:B 23 
12 *247:10 *3785:A 45.3743 
13 *247:4 *247:89 7.95429 
14 *247:89 *247:99 36.3593 
15 *247:99 *3723:A1 23.4971 
16 *247:99 *247:112 23.99 
17 *247:112 *3740:B 40.0507 
18 *247:112 *247:127 19.5157 
19 *247:127 *3755:B 26.0243 
20 *247:127 *3739:A1 24.595 
21 *247:89 *3724:B 23.6214 
*END

*D_NET *248 0.00227469
*CONN
*I *3726:B1 I *D sky130_fd_sc_hd__a22o_1
*I *3698:C I *D sky130_fd_sc_hd__nand4_1
*I *3699:A I *D sky130_fd_sc_hd__and2_1
*I *3695:Y O *D sky130_fd_sc_hd__nand4_1
*CAP
1 *3726:B1 2.77218e-05
2 *3698:C 4.99221e-05
3 *3699:A 0.000216481
4 *3695:Y 0.000174092
5 *248:12 0.000323236
6 *248:10 0.000258648
7 *3698:C *249:134 5.3304e-05
8 *3699:A *250:14 5.94125e-05
9 *3699:A *251:21 0.000139647
10 *3699:A *265:29 0.000185428
11 *3699:A *277:22 0.00010655
12 *3699:A *277:35 7.53384e-06
13 *3726:B1 *302:50 5.3304e-05
14 *3726:B1 *303:42 2.64616e-05
15 *248:10 *3695:C 4.96264e-05
16 *248:10 *251:21 0.00015795
17 *248:10 *301:82 2.3529e-05
18 *248:12 *250:14 0.000128574
19 *248:12 *251:21 0.000136486
20 *3:13 *3699:A 0
21 *217:27 *248:10 9.67842e-05
*RES
1 *3695:Y *248:10 41.3557 
2 *248:10 *248:12 1.90571 
3 *248:12 *3699:A 43.7171 
4 *248:12 *3698:C 38.6214 
5 *248:10 *3726:B1 38.6214 
*END

*D_NET *249 0.014871
*CONN
*I *3698:A I *D sky130_fd_sc_hd__nand4_1
*I *3726:A1 I *D sky130_fd_sc_hd__a22o_1
*I *3709:A2 I *D sky130_fd_sc_hd__a31o_1
*I *3711:B I *D sky130_fd_sc_hd__nand2_1
*I *3793:A1 I *D sky130_fd_sc_hd__a22o_1
*I *3785:B I *D sky130_fd_sc_hd__and4_1
*I *3849:B2 I *D sky130_fd_sc_hd__a22o_1
*I *3807:B I *D sky130_fd_sc_hd__and4_1
*I *3712:B I *D sky130_fd_sc_hd__or2_1
*I *3700:B I *D sky130_fd_sc_hd__nand2_1
*I *3696:X O *D sky130_fd_sc_hd__buf_2
*CAP
1 *3698:A 3.82118e-05
2 *3726:A1 0
3 *3709:A2 0
4 *3711:B 0
5 *3793:A1 0
6 *3785:B 0.000330786
7 *3849:B2 2.21631e-05
8 *3807:B 0
9 *3712:B 0.000148395
10 *3700:B 3.3608e-05
11 *3696:X 3.45459e-05
12 *249:140 0.000116111
13 *249:134 0.000803548
14 *249:96 0.000460227
15 *249:76 0.000542684
16 *249:66 0.00120403
17 *249:54 0.0011709
18 *249:48 0.00110053
19 *249:27 0.000945614
20 *249:16 0.000416241
21 *249:10 0.000434138
22 *249:6 0.000834241
23 *3698:A *3698:B 1.56762e-05
24 *3698:A *302:28 5.67058e-05
25 *3700:B *3700:A 5.12055e-06
26 *3700:B *252:20 1.60811e-05
27 *3700:B *303:61 0
28 *3712:B *3710:B 1.09903e-05
29 *3712:B *302:52 2.02872e-05
30 *3712:B *302:54 7.4416e-05
31 *3785:B *3785:D 2.64616e-05
32 *3849:B2 *279:29 2.93845e-05
33 *249:6 *277:22 5.37348e-06
34 *249:10 *3709:A1 0.000141954
35 *249:10 *3709:B1 1.03955e-05
36 *249:16 *3709:B1 4.67488e-05
37 *249:16 *253:8 0.000134088
38 *249:16 *254:6 7.88828e-05
39 *249:16 *263:23 0
40 *249:16 *267:44 1.88972e-05
41 *249:16 *301:69 0.000164469
42 *249:16 *303:78 8.82392e-05
43 *249:27 *263:23 7.34249e-05
44 *249:27 *303:78 0.000125797
45 *249:48 *263:23 0.000703439
46 *249:48 *264:62 0.000180218
47 *249:48 *267:44 0.000126538
48 *249:48 *303:78 0.000430736
49 *249:54 *272:12 6.00922e-06
50 *249:76 *279:8 2.96154e-05
51 *249:76 *279:29 0.000186502
52 *249:134 *3697:A1 8.65442e-05
53 *249:134 *3698:B 1.24376e-05
54 *249:134 *3698:D 5.3304e-05
55 *249:134 *3709:A1 0.000239883
56 *249:134 *250:8 2.81041e-05
57 *249:134 *251:12 8.06804e-06
58 *249:134 *252:8 0
59 *249:134 *262:12 0
60 *249:134 *301:69 7.44161e-06
61 *249:134 *301:82 0.000182826
62 *249:134 *302:28 2.1136e-05
63 *249:134 *303:42 1.01436e-05
64 *249:140 *251:21 0.000162422
65 *249:140 *302:41 0.000110922
66 *3698:C *249:134 5.3304e-05
67 *3793:A2 *3785:B 7.40275e-06
68 *3793:A2 *249:96 1.79781e-05
69 *3793:B1 *249:96 2.64616e-05
70 *3815:A2 *249:66 5.50049e-05
71 *3833:A1 *249:66 3.3746e-05
72 *3833:B1 *249:66 0.000220269
73 *3849:A2 *249:76 0.000141888
74 *56:8 *249:10 2.93104e-06
75 *56:8 *249:16 2.4754e-05
76 *77:6 *249:48 8.96703e-05
77 *94:10 *249:54 0
78 *95:29 *249:54 0
79 *95:29 *249:66 4.39488e-05
80 *162:10 *249:66 0.000188444
81 *163:8 *249:66 2.71291e-05
82 *163:8 *249:76 2.36844e-05
83 *179:39 *249:76 2.29192e-05
84 *195:8 *249:76 0.000264564
85 *209:10 *249:6 9.24795e-06
86 *209:10 *249:10 1.32939e-05
87 *213:42 *3785:B 2.26187e-05
88 *213:42 *249:66 0.000269381
89 *213:42 *249:96 0.000220578
90 *213:51 *3785:B 6.5676e-05
91 *213:70 *3785:B 1.40958e-05
92 *214:19 *249:76 5.08899e-05
93 *214:110 *3849:B2 5.3304e-05
94 *245:29 *249:66 0.000103623
95 *246:31 *249:134 3.31127e-05
96 *247:33 *249:48 4.67488e-05
97 *247:41 *249:54 0.000305351
98 *247:41 *249:96 5.3304e-05
*RES
1 *3696:X *249:6 23.6214 
2 *249:6 *249:10 3.02429 
3 *249:10 *249:16 21.1936 
4 *249:16 *3700:B 38.8493 
5 *249:16 *249:27 1.90571 
6 *249:27 *3712:B 40.5479 
7 *249:27 *249:48 30.5564 
8 *249:48 *249:54 38.5964 
9 *249:54 *249:66 28.5471 
10 *249:66 *249:76 39.5493 
11 *249:76 *3807:B 38 
12 *249:66 *3849:B2 38.6214 
13 *249:54 *249:96 3.50071 
14 *249:96 *3785:B 27.8057 
15 *249:96 *3793:A1 23 
16 *249:48 *3711:B 23 
17 *249:10 *3709:A2 23 
18 *249:6 *249:134 41.2686 
19 *249:134 *249:140 32.2579 
20 *249:140 *3726:A1 23 
21 *249:134 *3698:A 24.0979 
*END

*D_NET *250 0.00103306
*CONN
*I *3698:D I *D sky130_fd_sc_hd__nand4_1
*I *3726:B2 I *D sky130_fd_sc_hd__a22o_1
*I *3697:X O *D sky130_fd_sc_hd__a22o_1
*CAP
1 *3698:D 2.24887e-05
2 *3726:B2 0
3 *3697:X 5.92966e-05
4 *250:14 0.000111814
5 *250:8 0.000193599
6 *3698:D *251:12 1.40958e-05
7 *250:8 *251:12 5.83407e-05
8 *250:8 *301:69 3.45967e-05
9 *250:8 *301:82 0.000106087
10 *250:14 *301:82 0.000163352
11 *3699:A *250:14 5.94125e-05
12 *3:13 *250:14 0
13 *248:12 *250:14 0.000128574
14 *249:134 *3698:D 5.3304e-05
15 *249:134 *250:8 2.81041e-05
*RES
1 *3697:X *250:8 25.4236 
2 *250:8 *250:14 32.61 
3 *250:14 *3726:B2 23 
4 *250:8 *3698:D 23.6214 
*END

*D_NET *251 0.00289417
*CONN
*I *3727:A I *D sky130_fd_sc_hd__nand3_1
*I *3728:A1 I *D sky130_fd_sc_hd__a21o_1
*I *3699:B I *D sky130_fd_sc_hd__and2_1
*I *3698:Y O *D sky130_fd_sc_hd__nand4_1
*CAP
1 *3727:A 0.00010882
2 *3728:A1 4.57135e-05
3 *3699:B 0
4 *3698:Y 0
5 *251:21 0.000574949
6 *251:12 0.000317712
7 *251:4 0.000738128
8 *251:12 *262:12 0.000166513
9 *251:12 *301:69 1.24376e-05
10 *251:12 *301:82 1.55097e-05
11 *251:21 *3695:C 2.61699e-05
12 *251:21 *302:41 1.22803e-05
13 *3698:D *251:12 1.40958e-05
14 *3699:A *251:21 0.000139647
15 *3728:A2 *3728:A1 1.24376e-05
16 *3728:B1 *3728:A1 1.57571e-05
17 *3:13 *3727:A 0
18 *3:13 *251:12 0.000166513
19 *3:13 *251:21 0
20 *72:14 *3727:A 0
21 *73:8 *3727:A 4.21594e-06
22 *73:8 *251:21 0
23 *214:77 *3727:A 0
24 *214:77 *251:21 0
25 *214:88 *3727:A 0
26 *247:63 *3727:A 0
27 *248:10 *251:21 0.00015795
28 *248:12 *251:21 0.000136486
29 *249:134 *251:12 8.06804e-06
30 *249:140 *251:21 0.000162422
31 *250:8 *251:12 5.83407e-05
*RES
1 *3698:Y *251:4 23 
2 *251:4 *251:12 35.7379 
3 *251:12 *3699:B 23 
4 *251:4 *251:21 23.5964 
5 *251:21 *3728:A1 38.6214 
6 *251:21 *3727:A 39.4707 
*END

*D_NET *252 0.00571734
*CONN
*I *3705:A_N I *D sky130_fd_sc_hd__and2b_1
*I *3706:B I *D sky130_fd_sc_hd__xnor2_1
*I *3699:X O *D sky130_fd_sc_hd__and2_1
*CAP
1 *3705:A_N 0
2 *3706:B 9.21668e-05
3 *3699:X 7.8969e-05
4 *252:20 0.00141766
5 *252:8 0.00140447
6 *3706:B *3706:A 0.000139352
7 *3706:B *259:33 0.000182826
8 *252:8 *262:12 0.000110913
9 *252:20 *3697:A1 0.000310641
10 *252:20 *3700:A 9.34204e-05
11 *252:20 *3706:A 0.000172996
12 *252:20 *257:16 5.14532e-05
13 *252:20 *258:8 5.50049e-05
14 *252:20 *259:33 9.84851e-05
15 *252:20 *301:69 0.000567191
16 *252:20 *303:61 0.000308365
17 *3700:B *252:20 1.60811e-05
18 *3714:B *252:20 3.71369e-05
19 *3823:A0 *252:20 2.81138e-05
20 *3823:A1 *252:20 0.000184527
21 *55:26 *252:20 0.000228903
22 *55:38 *252:20 4.95081e-05
23 *61:10 *252:20 4.51908e-05
24 *168:16 *252:20 1.03955e-05
25 *170:14 *252:20 3.3577e-05
26 *249:134 *252:8 0
*RES
1 *3699:X *252:8 39.5536 
2 *252:8 *252:20 41.7836 
3 *252:20 *3706:B 25.9 
4 *252:20 *3705:A_N 23 
*END

*D_NET *253 0.000442198
*CONN
*I *3704:A I *D sky130_fd_sc_hd__xnor2_1
*I *3700:Y O *D sky130_fd_sc_hd__nand2_1
*CAP
1 *3704:A 0
2 *3700:Y 8.50252e-05
3 *253:8 8.50252e-05
4 *253:8 *255:19 0
5 *253:8 *256:8 3.76959e-05
6 *253:8 *263:23 0
7 *253:8 *267:44 0.000100364
8 *249:16 *253:8 0.000134088
*RES
1 *3700:Y *253:8 40.2579 
2 *253:8 *3704:A 38 
*END

*D_NET *254 0.00163374
*CONN
*I *3709:B1 I *D sky130_fd_sc_hd__a31o_1
*I *3703:A_N I *D sky130_fd_sc_hd__and2b_1
*I *3701:X O *D sky130_fd_sc_hd__and4_1
*CAP
1 *3709:B1 8.86448e-05
2 *3703:A_N 0
3 *3701:X 8.45645e-05
4 *254:12 0.000109995
5 *254:6 0.000283205
6 *3709:B1 *3709:A1 3.22879e-05
7 *3709:B1 *277:20 0
8 *254:6 *267:44 0.00010018
9 *254:6 *301:69 6.75184e-05
10 *254:12 *255:19 0.000163343
11 *254:12 *256:8 0
12 *209:10 *3709:B1 0.00016778
13 *209:10 *254:6 0.000400198
14 *243:22 *254:12 0
15 *249:10 *3709:B1 1.03955e-05
16 *249:16 *3709:B1 4.67488e-05
17 *249:16 *254:6 7.88828e-05
*RES
1 *3701:X *254:6 27.4329 
2 *254:6 *254:12 32.2579 
3 *254:12 *3703:A_N 23 
4 *254:6 *3709:B1 25.5479 
*END

*D_NET *255 0.00116976
*CONN
*I *3709:A3 I *D sky130_fd_sc_hd__a31o_1
*I *3703:B I *D sky130_fd_sc_hd__and2b_1
*I *3702:X O *D sky130_fd_sc_hd__a22o_1
*CAP
1 *3709:A3 0
2 *3703:B 0
3 *3702:X 3.85988e-05
4 *255:19 0.000148465
5 *255:6 0.000187064
6 *255:19 *256:8 0
7 *255:19 *263:10 6.48142e-05
8 *255:19 *263:23 0.000178773
9 *214:6 *255:6 0.000143655
10 *214:6 *255:19 0.000173898
11 *243:22 *255:6 1.73399e-05
12 *243:22 *255:19 5.38135e-05
13 *253:8 *255:19 0
14 *254:12 *255:19 0.000163343
*RES
1 *3702:X *255:6 24.5743 
2 *255:6 *3703:B 23 
3 *255:6 *255:19 35.365 
4 *255:19 *3709:A3 23 
*END

*D_NET *256 0.000368292
*CONN
*I *3704:B I *D sky130_fd_sc_hd__xnor2_1
*I *3703:X O *D sky130_fd_sc_hd__and2b_1
*CAP
1 *3704:B 0
2 *3703:X 0.00014181
3 *256:8 0.00014181
4 *256:8 *3702:B1 0
5 *256:8 *267:44 3.55303e-05
6 *243:22 *256:8 1.14452e-05
7 *253:8 *256:8 3.76959e-05
8 *254:12 *256:8 0
9 *255:19 *256:8 0
*RES
1 *3703:X *256:8 40.2579 
2 *256:8 *3704:B 38 
*END

*D_NET *257 0.00362786
*CONN
*I *3706:A I *D sky130_fd_sc_hd__xnor2_1
*I *3705:B I *D sky130_fd_sc_hd__and2b_1
*I *3704:Y O *D sky130_fd_sc_hd__xnor2_1
*CAP
1 *3706:A 0.000170543
2 *3705:B 0
3 *3704:Y 0.000143618
4 *257:16 0.00118958
5 *257:8 0.00116266
6 *257:8 *267:44 4.54961e-05
7 *257:8 *302:71 0
8 *3706:B *3706:A 0.000139352
9 *3714:B *257:16 5.70419e-05
10 *3717:B *257:16 2.02872e-05
11 *3822:A2 *257:16 2.93747e-05
12 *3823:A0 *257:16 8.2832e-05
13 *55:26 *257:16 4.61549e-05
14 *55:38 *257:16 1.03955e-05
15 *61:10 *257:16 0.000181125
16 *168:16 *257:16 2.64616e-05
17 *170:14 *257:16 9.84851e-05
18 *252:20 *3706:A 0.000172996
19 *252:20 *257:16 5.14532e-05
*RES
1 *3704:Y *257:8 39.9057 
2 *257:8 *257:16 29.4793 
3 *257:16 *3705:B 23 
4 *257:16 *3706:A 27.3293 
*END

*D_NET *258 0.00133419
*CONN
*I *3719:A1 I *D sky130_fd_sc_hd__o21ai_1
*I *3720:B I *D sky130_fd_sc_hd__or3_1
*I *3705:X O *D sky130_fd_sc_hd__and2b_1
*CAP
1 *3719:A1 9.21573e-05
2 *3720:B 0.000278367
3 *3705:X 4.25104e-05
4 *258:8 0.000413035
5 *3719:A1 *259:33 0
6 *3720:A *3720:B 0.000187129
7 *3720:C *3720:B 0
8 *65:23 *3720:B 3.1862e-05
9 *67:10 *3720:B 9.84794e-05
10 *170:14 *3719:A1 6.49723e-05
11 *170:14 *3720:B 5.6652e-05
12 *245:56 *3719:A1 1.40183e-05
13 *252:20 *258:8 5.50049e-05
*RES
1 *3705:X *258:8 38.6214 
2 *258:8 *3720:B 43.8621 
3 *258:8 *3719:A1 39.9057 
*END

*D_NET *259 0.00231692
*CONN
*I *3707:C I *D sky130_fd_sc_hd__and3_1
*I *3731:B1 I *D sky130_fd_sc_hd__a21oi_1
*I *3706:Y O *D sky130_fd_sc_hd__xnor2_1
*CAP
1 *3707:C 0
2 *3731:B1 0
3 *3706:Y 0
4 *259:33 0.000407279
5 *259:18 0.000278829
6 *259:4 0.000686108
7 *3706:B *259:33 0.000182826
8 *3719:A1 *259:33 0
9 *3719:A2 *259:33 2.07744e-05
10 *3720:C *259:33 5.28231e-05
11 *3731:A1 *259:18 4.51416e-05
12 *3731:A2 *259:18 0.000172615
13 *3732:A *259:33 3.76959e-05
14 *3732:B *259:18 4.47097e-05
15 *3873:A1 *259:18 0.000223786
16 *179:24 *259:18 3.17989e-05
17 *214:19 *259:18 0
18 *243:43 *259:33 3.06338e-05
19 *245:56 *259:33 3.41998e-06
20 *252:20 *259:33 9.84851e-05
*RES
1 *3706:Y *259:4 23 
2 *259:4 *259:18 37.0843 
3 *259:18 *3731:B1 23 
4 *259:4 *259:33 36.4421 
5 *259:33 *3707:C 23 
*END

*D_NET *260 0.00419555
*CONN
*I *3889:A I *D sky130_fd_sc_hd__clkbuf_16
*I *3890:A I *D sky130_fd_sc_hd__clkbuf_16
*I *3888:X O *D sky130_fd_sc_hd__clkbuf_16
*CAP
1 *3889:A 0
2 *3890:A 5.38515e-05
3 *3888:X 0.000290127
4 *260:31 0.000966934
5 *260:10 0.00131091
6 *3890:A *263:23 2.11157e-05
7 *3890:A *302:52 2.64616e-05
8 *260:10 *263:23 0.00012904
9 *260:10 *266:35 0
10 *260:31 *262:29 0.000954845
11 *260:31 *266:45 0.000194323
12 *260:31 *277:20 0
13 *3729:A_N *260:10 0.000139647
14 *3729:B *260:10 1.80023e-05
15 *3729:C *260:10 4.334e-05
16 *3732:A *260:31 2.33476e-05
17 *3745:B1_N *260:10 1.01436e-05
18 *64:12 *260:31 0
19 *214:19 *260:31 1.34542e-05
*RES
1 *3888:X *260:10 43.8725 
2 *260:10 *3890:A 38.9425 
3 *260:10 *260:31 34.7259 
4 *260:31 *3889:A 23 
*END

*D_NET *261 0.00884017
*CONN
*I *3876:CLK I *D sky130_fd_sc_hd__dfrtp_1
*I *3878:CLK I *D sky130_fd_sc_hd__dfrtp_1
*I *3877:CLK I *D sky130_fd_sc_hd__dfrtp_2
*I *3879:CLK I *D sky130_fd_sc_hd__dfrtp_1
*I *3887:CLK I *D sky130_fd_sc_hd__dfrtp_1
*I *3880:CLK I *D sky130_fd_sc_hd__dfrtp_1
*I *3886:CLK I *D sky130_fd_sc_hd__dfrtp_1
*I *3885:CLK I *D sky130_fd_sc_hd__dfrtp_1
*I *3889:X O *D sky130_fd_sc_hd__clkbuf_16
*CAP
1 *3876:CLK 0.000139965
2 *3878:CLK 0
3 *3877:CLK 4.09639e-05
4 *3879:CLK 0
5 *3887:CLK 8.64572e-05
6 *3880:CLK 2.96162e-05
7 *3886:CLK 0
8 *3885:CLK 0.000221224
9 *3889:X 3.6708e-05
10 *261:104 0.000608174
11 *261:92 0.00094311
12 *261:79 0.000447756
13 *261:64 0.000557669
14 *261:33 0.00029224
15 *261:16 0.00104571
16 *261:10 0.000700337
17 *261:8 0.000434575
18 *3876:CLK *298:16 0.000164528
19 *3877:CLK *3877:RESET_B 1.41077e-05
20 *3880:CLK *293:22 2.93747e-05
21 *261:16 *3869:A1 0
22 *261:33 *293:22 3.06213e-05
23 *261:92 *293:86 0
24 *261:104 *3878:RESET_B 9.62666e-05
25 *261:104 *298:16 5.12254e-05
26 *3656:A *261:8 5.3304e-05
27 *3856:A *261:64 0.00010404
28 *3870:A *3885:CLK 0
29 *3876:D *3876:CLK 7.44354e-05
30 *3877:D *3877:CLK 6.17437e-06
31 *3886:D *261:33 5.25848e-05
32 *3887:D *3887:CLK 2.64616e-05
33 *41:10 *261:10 0.000129513
34 *41:10 *261:16 0.000218952
35 *41:10 *261:64 0.00021289
36 *42:10 *261:92 6.48049e-05
37 *42:10 *261:104 3.71198e-05
38 *43:8 *261:79 6.48049e-05
39 *43:8 *261:92 0.000141888
40 *45:10 *261:64 0
41 *51:8 *3885:CLK 0
42 *52:8 *3885:CLK 2.22183e-05
43 *52:8 *261:16 2.36844e-05
44 *199:16 *261:92 2.86716e-05
45 *207:10 *3885:CLK 0.000107651
46 *207:10 *261:16 6.33511e-05
47 *209:74 *261:16 0
48 *210:10 *261:16 2.07444e-05
49 *210:25 *261:16 5.93849e-05
50 *211:83 *261:64 1.23467e-05
51 *211:100 *261:64 0
52 *211:100 *261:79 5.15745e-05
53 *211:100 *261:92 5.19151e-05
54 *243:55 *261:16 1.97579e-07
55 *243:79 *261:10 0.000138718
56 *243:79 *261:16 0.000141897
57 *243:79 *261:64 0.000428682
58 *244:39 *261:64 0.0002281
59 *244:39 *261:79 0
60 *244:39 *261:92 3.57337e-05
61 *244:54 *261:92 7.70737e-05
62 *244:64 *261:92 5.19151e-05
63 *244:64 *261:104 0.000138708
*RES
1 *3889:X *261:8 38.6214 
2 *261:8 *261:10 1.90571 
3 *261:10 *261:16 9.36286 
4 *261:16 *3885:CLK 41.6664 
5 *261:16 *261:33 18.9979 
6 *261:33 *3886:CLK 23 
7 *261:33 *3880:CLK 23.6214 
8 *261:10 *3887:CLK 39.6157 
9 *261:8 *261:64 24.57 
10 *261:64 *3879:CLK 23 
11 *261:64 *261:79 19.35 
12 *261:79 *3877:CLK 38.6214 
13 *261:79 *261:92 20.7793 
14 *261:92 *261:104 39.2386 
15 *261:104 *3878:CLK 23 
16 *261:92 *3876:CLK 26.48 
*END

*D_NET *262 0.0167581
*CONN
*I *3883:CLK I *D sky130_fd_sc_hd__dfrtp_1
*I *3882:CLK I *D sky130_fd_sc_hd__dfrtp_1
*I *3884:CLK I *D sky130_fd_sc_hd__dfrtp_2
*I *3881:CLK I *D sky130_fd_sc_hd__dfrtp_1
*I *3874:CLK I *D sky130_fd_sc_hd__dfrtp_1
*I *3875:CLK I *D sky130_fd_sc_hd__dfrtp_1
*I *3890:X O *D sky130_fd_sc_hd__clkbuf_16
*CAP
1 *3883:CLK 0.000399491
2 *3882:CLK 0.00013034
3 *3884:CLK 0.000116512
4 *3881:CLK 0.000194429
5 *3874:CLK 0
6 *3875:CLK 0
7 *3890:X 0
8 *262:62 0.000606667
9 *262:40 0.000422844
10 *262:38 0.00187411
11 *262:29 0.00244551
12 *262:12 0.0005176
13 *262:6 0.00296311
14 *262:4 0.00168537
15 *3881:CLK *3687:A1 1.14452e-05
16 *3881:CLK *275:10 0.000403117
17 *3881:CLK *304:42 5.83407e-05
18 *3883:CLK *296:85 0
19 *3883:CLK *300:130 0
20 *262:12 *3697:B1 0.000272069
21 *262:12 *265:14 9.18423e-05
22 *262:12 *277:20 0
23 *262:29 *3697:B1 1.20966e-05
24 *262:29 *266:45 4.02303e-05
25 *262:29 *277:20 0
26 *262:38 *3666:A 1.59094e-05
27 *262:38 *3687:A1 2.13733e-05
28 *262:38 *301:94 0.000399339
29 *262:38 *302:50 0.000114856
30 *262:38 *303:32 0.000126793
31 *262:40 *3687:A1 0.0002129
32 *262:40 *300:130 0
33 *262:62 *300:130 0
34 *3666:B *262:38 5.70419e-05
35 *3669:B *262:38 4.96717e-05
36 *3865:A3 *3883:CLK 0.000202372
37 *3881:D *3881:CLK 2.4754e-05
38 *3:13 *262:12 0.000245025
39 *3:13 *262:29 7.57281e-06
40 *49:10 *3883:CLK 3.46181e-05
41 *203:10 *3883:CLK 0.000225275
42 *203:10 *262:40 1.01436e-05
43 *203:10 *262:62 0.000139647
44 *211:14 *262:29 0
45 *211:73 *262:29 0
46 *214:47 *262:12 0.000158828
47 *220:8 *262:38 0.000222791
48 *220:23 *262:38 0.000189118
49 *223:10 *262:38 2.23021e-05
50 *226:8 *3883:CLK 1.33523e-05
51 *236:16 *3883:CLK 0
52 *243:22 *262:12 0.00022296
53 *243:79 *262:29 0.000127051
54 *243:117 *3881:CLK 0.000180121
55 *243:130 *3881:CLK 0.000105072
56 *243:130 *262:40 0.000151817
57 *249:134 *262:12 0
58 *251:12 *262:12 0.000166513
59 *252:8 *262:12 0.000110913
60 *260:31 *262:29 0.000954845
*RES
1 *3890:X *262:4 23 
2 *262:4 *262:6 15 
3 *262:6 *262:12 28.7336 
4 *262:12 *3875:CLK 23 
5 *262:6 *262:29 39.1174 
6 *262:29 *3874:CLK 23 
7 *262:4 *262:38 38.9664 
8 *262:38 *262:40 4.01857 
9 *262:40 *3881:CLK 45.0014 
10 *262:40 *3884:CLK 39.5743 
11 *262:38 *262:62 1.90571 
12 *262:62 *3882:CLK 39.5743 
13 *262:62 *3883:CLK 47.3629 
*END

*D_NET *263 0.0205477
*CONN
*I *3768:B1 I *D sky130_fd_sc_hd__a22o_1
*I *3769:D I *D sky130_fd_sc_hd__nand4_1
*I *3785:D I *D sky130_fd_sc_hd__and4_1
*I *3660:A I *D sky130_fd_sc_hd__clkbuf_4
*I *3897:X O *D sky130_fd_sc_hd__clkbuf_2
*CAP
1 *3768:B1 0
2 *3769:D 1.55527e-05
3 *3785:D 4.78762e-05
4 *3660:A 0
5 *3897:X 0
6 *263:55 5.85613e-05
7 *263:42 0.000648191
8 *263:23 0.00189119
9 *263:10 0.00292281
10 *263:6 0.00608726
11 *263:4 0.00443369
12 *3769:D *3769:C 2.18409e-05
13 *3769:D *274:21 7.53384e-06
14 *263:10 *265:14 0
15 *263:23 *3709:A1 0
16 *263:23 *265:14 0
17 *263:23 *266:35 4.37196e-05
18 *263:23 *266:45 1.05658e-05
19 *263:23 *267:44 6.96264e-05
20 *263:23 *267:59 4.14094e-05
21 *263:23 *277:20 0
22 *263:23 *301:69 0
23 *263:42 *3769:C 6.17437e-06
24 *263:42 *266:22 0
25 *263:42 *266:105 2.93845e-05
26 *263:42 *267:59 0.00103006
27 *263:42 *267:68 1.14452e-05
28 *263:55 *274:29 0.000114083
29 *3729:A_N *263:23 0.000141869
30 *3745:B1_N *263:23 0.000261239
31 *3776:C_N *263:42 8.68575e-05
32 *3785:A *263:23 0.000114824
33 *3785:B *3785:D 2.64616e-05
34 *3785:C *3785:D 5.90675e-06
35 *3793:A2 *3785:D 2.76769e-06
36 *3890:A *263:23 2.11157e-05
37 *93:8 *263:23 0.000163352
38 *116:10 *263:42 2.93845e-05
39 *122:10 *263:42 0
40 *122:16 *263:42 0.000132496
41 *127:8 *263:23 0.000108978
42 *127:8 *263:42 0.000396805
43 *132:29 *263:55 0.000166522
44 *149:8 *3769:D 3.22879e-05
45 *149:8 *263:42 8.71791e-05
46 *213:51 *3785:D 5.3304e-05
47 *245:98 *263:55 2.84809e-05
48 *247:14 *263:23 4.73689e-05
49 *249:16 *263:23 0
50 *249:27 *263:23 7.34249e-05
51 *249:48 *263:23 0.000703439
52 *253:8 *263:23 0
53 *255:19 *263:10 6.48142e-05
54 *255:19 *263:23 0.000178773
55 *260:10 *263:23 0.00012904
*RES
1 *3897:X *263:4 23 
2 *263:4 *263:6 74.4679 
3 *263:6 *263:10 46.8379 
4 *263:10 *3660:A 38 
5 *263:10 *263:23 26.9907 
6 *263:23 *3785:D 39.1186 
7 *263:23 *263:42 32.1307 
8 *263:42 *3769:D 23.6214 
9 *263:42 *263:55 32.2579 
10 *263:55 *3768:B1 23 
*END

*D_NET *264 0.024611
*CONN
*I *3750:A I *D sky130_fd_sc_hd__and2_1
*I *3692:A I *D sky130_fd_sc_hd__buf_2
*I *3708:A I *D sky130_fd_sc_hd__nand2_2
*I *3735:A I *D sky130_fd_sc_hd__and2_1
*I *3764:A I *D sky130_fd_sc_hd__and2_1
*I *3898:X O *D sky130_fd_sc_hd__buf_2
*CAP
1 *3750:A 0
2 *3692:A 0
3 *3708:A 0
4 *3735:A 0
5 *3764:A 0.000328113
6 *3898:X 0
7 *264:70 0.000213504
8 *264:62 0.000707655
9 *264:51 0.000531431
10 *264:47 0.00136636
11 *264:35 0.0019575
12 *264:18 0.0017854
13 *264:10 0.00285719
14 *264:6 0.00573981
15 *264:4 0.00371149
16 *3764:A *3764:B 0.000441939
17 *264:18 *3764:B 0.00051819
18 *264:18 *296:14 0.00103388
19 *264:35 *296:34 0
20 *264:35 *296:139 6.81908e-05
21 *264:35 *301:136 5.3304e-05
22 *264:47 *3724:C 0
23 *264:47 *296:108 0.000130771
24 *264:47 *301:136 5.38612e-05
25 *264:62 *272:20 2.67348e-05
26 *264:62 *302:131 0.000185428
27 *3712:A *264:70 4.43614e-05
28 *3730:B *264:62 0.00039238
29 *3745:A2 *264:62 2.02872e-05
30 *3749:A *264:47 6.95681e-05
31 *3760:A1 *264:47 5.15848e-05
32 *3762:A1 *264:47 0
33 *3766:A1 *264:35 2.96051e-05
34 *3772:C *264:35 6.92375e-05
35 *3774:A2 *264:47 3.97502e-05
36 *3775:A *264:47 6.17437e-06
37 *70:10 *264:47 5.72853e-05
38 *70:10 *264:51 5.41288e-05
39 *71:41 *264:47 0.000268221
40 *77:6 *264:62 2.64616e-05
41 *82:10 *264:62 9.84794e-05
42 *82:19 *264:47 0
43 *84:12 *264:47 0.000111971
44 *96:8 *264:47 0
45 *97:8 *264:47 2.36844e-05
46 *100:14 *264:35 4.80535e-05
47 *102:8 *264:35 0.000136486
48 *102:8 *264:47 0
49 *102:23 *264:35 0.000170076
50 *103:22 *264:47 0
51 *104:16 *264:47 5.31444e-05
52 *105:18 *264:47 3.57337e-05
53 *106:8 *264:47 0.000110922
54 *106:18 *264:47 0
55 *110:8 *264:47 8.85189e-05
56 *111:10 *3764:A 3.70553e-06
57 *111:50 *264:35 0.000133316
58 *113:10 *264:35 3.21361e-05
59 *121:10 *264:47 3.83059e-05
60 *212:136 *264:47 0
61 *245:23 *264:70 6.16531e-05
62 *246:10 *264:70 0.000239496
63 *246:62 *264:51 8.1796e-05
64 *246:62 *264:62 1.41077e-05
65 *246:85 *264:47 0
66 *247:33 *264:70 4.49946e-05
67 *247:99 *264:47 6.4393e-05
68 *247:99 *264:62 0
69 *249:48 *264:62 0.000180218
*RES
1 *3898:X *264:4 23 
2 *264:4 *264:6 62.7954 
3 *264:6 *264:10 36.6125 
4 *264:10 *264:18 49.3886 
5 *264:18 *3764:A 28.7586 
6 *264:18 *264:35 42.7393 
7 *264:35 *264:47 42.0736 
8 *264:47 *264:51 16.5743 
9 *264:51 *3735:A 23 
10 *264:51 *264:62 10.6679 
11 *264:62 *264:70 33.9357 
12 *264:70 *3708:A 23 
13 *264:62 *3692:A 23 
14 *264:35 *3750:A 23 
*END

*D_NET *265 0.0284713
*CONN
*I *3753:A I *D sky130_fd_sc_hd__and2_1
*I *3767:A I *D sky130_fd_sc_hd__and2_1
*I *3738:A I *D sky130_fd_sc_hd__and2_1
*I *3722:A I *D sky130_fd_sc_hd__and2_1
*I *3696:A I *D sky130_fd_sc_hd__buf_2
*I *3899:X O *D sky130_fd_sc_hd__buf_2
*CAP
1 *3753:A 3.63092e-05
2 *3767:A 6.62973e-05
3 *3738:A 0.000130995
4 *3722:A 0
5 *3696:A 0
6 *3899:X 0
7 *265:57 0.000657272
8 *265:42 0.00130754
9 *265:31 0.000621878
10 *265:29 0.00140982
11 *265:16 0.00140982
12 *265:14 0.00462059
13 *265:12 0.00462059
14 *265:10 0.00256802
15 *265:8 0.00401383
16 *265:4 0.0014458
17 *3753:A *3767:B 2.64616e-05
18 *3767:A *3753:B 4.34745e-05
19 *3767:A *3767:B 2.18409e-05
20 *3767:A *296:22 0.00010018
21 *265:8 *289:14 0.000502225
22 *265:10 *3930:A 0.000487142
23 *265:10 *269:6 7.59964e-05
24 *265:10 *289:14 0.000309426
25 *265:14 *277:20 6.07611e-06
26 *265:29 *277:20 5.90675e-06
27 *265:29 *277:22 7.38373e-05
28 *265:29 *277:35 8.47188e-05
29 *265:29 *300:43 5.97612e-05
30 *265:29 *300:45 0.000138818
31 *265:29 *300:49 7.8128e-05
32 *265:29 *301:98 8.31977e-05
33 *265:29 *301:115 0.000558204
34 *265:29 *301:136 1.14452e-05
35 *265:42 *296:66 0.000226306
36 *265:42 *300:43 0.000840638
37 *265:42 *301:136 0
38 *265:57 *296:34 0
39 *265:57 *300:31 0.00107172
40 *265:57 *300:43 1.14452e-05
41 *265:57 *301:136 0
42 *3699:A *265:29 0.000185428
43 *3:13 *265:14 0
44 *99:23 *265:57 4.34173e-05
45 *100:6 *3767:A 5.67058e-05
46 *103:8 *265:57 0
47 *114:8 *265:57 0
48 *209:98 *265:29 0.000112625
49 *213:106 *265:29 0
50 *214:77 *265:29 0.000115215
51 *217:116 *265:42 2.72055e-05
52 *222:8 *265:29 0.000113153
53 *262:12 *265:14 9.18423e-05
54 *263:10 *265:14 0
55 *263:23 *265:14 0
*RES
1 *3899:X *265:4 23 
2 *265:4 *265:8 28.0368 
3 *265:8 *265:10 51.3611 
4 *265:10 *265:12 15 
5 *265:12 *265:14 89.9414 
6 *265:14 *265:16 15 
7 *265:16 *3696:A 23 
8 *265:16 *265:29 43.2957 
9 *265:29 *265:31 15 
10 *265:31 *3722:A 23 
11 *265:31 *265:42 28.9407 
12 *265:42 *3738:A 40.0714 
13 *265:42 *265:57 29.2307 
14 *265:57 *3767:A 25.0507 
15 *265:57 *3753:A 23.6214 
*END

*D_NET *266 0.0267457
*CONN
*I *3754:A1 I *D sky130_fd_sc_hd__a22o_1
*I *3769:B I *D sky130_fd_sc_hd__nand4_1
*I *3768:A1 I *D sky130_fd_sc_hd__a22o_1
*I *3697:A1 I *D sky130_fd_sc_hd__a22o_1
*I *3701:B I *D sky130_fd_sc_hd__and4_1
*I *3702:A1 I *D sky130_fd_sc_hd__a22o_1
*I *3694:A I *D sky130_fd_sc_hd__buf_2
*I *3900:X O *D sky130_fd_sc_hd__buf_2
*CAP
1 *3754:A1 0
2 *3769:B 0
3 *3768:A1 7.43301e-05
4 *3697:A1 0.000157896
5 *3701:B 0
6 *3702:A1 0.000168258
7 *3694:A 4.16932e-05
8 *3900:X 0
9 *266:105 9.45957e-05
10 *266:88 0.000398606
11 *266:84 0.000302942
12 *266:45 0.000795205
13 *266:35 0.00144312
14 *266:22 0.00171306
15 *266:20 0.0021506
16 *266:18 0.0025433
17 *266:14 0.0027289
18 *266:8 0.00458464
19 *266:4 0.00333478
20 *3697:A1 *301:69 6.5689e-05
21 *3697:A1 *303:61 0.000102226
22 *3702:A1 *3702:A2 0.000212496
23 *3702:A1 *3702:B1 6.52325e-05
24 *3702:A1 *3702:B2 5.67058e-05
25 *3702:A1 *267:23 5.66787e-05
26 *3702:A1 *302:73 5.8447e-05
27 *3768:A1 *3754:B1 2.3853e-05
28 *3768:A1 *274:29 2.02872e-05
29 *266:8 *3921:A 0.000189857
30 *266:8 *301:8 0.000325115
31 *266:18 *272:10 0
32 *266:22 *267:68 0
33 *266:35 *3709:A1 1.61295e-05
34 *266:35 *302:131 7.03514e-05
35 *266:35 *303:42 3.62323e-05
36 *266:45 *3709:A1 1.05658e-05
37 *266:45 *277:20 0.000215245
38 *266:45 *302:71 0.000240608
39 *266:45 *302:73 1.05441e-05
40 *266:88 *3754:B1 0.0002246
41 *266:105 *267:68 8.4047e-05
42 *3729:B *266:35 0.00019747
43 *3746:B *266:22 2.24973e-05
44 *3746:B *266:35 4.92689e-05
45 *3760:A2 *266:22 0
46 *3776:C_N *266:22 4.07715e-05
47 *3783:B *266:20 0
48 *3785:A *266:22 0.000190026
49 *3785:A *266:35 1.80023e-05
50 *3796:A_N *266:20 0
51 *3906:A *266:14 5.82853e-05
52 *3915:A *266:8 5.76359e-05
53 *14:8 *266:8 1.4269e-05
54 *14:8 *266:14 3.34276e-06
55 *61:10 *266:45 4.30463e-05
56 *62:10 *266:45 0
57 *74:25 *266:35 0.00021039
58 *76:8 *266:35 0.000366759
59 *76:19 *266:35 0.000126343
60 *91:8 *266:22 4.31504e-05
61 *96:8 *266:22 0
62 *108:32 *266:22 0.000247678
63 *109:22 *266:22 0.000169674
64 *114:16 *266:20 0
65 *115:29 *266:20 0.000111148
66 *116:10 *266:20 0.000101472
67 *116:10 *266:22 9.28739e-05
68 *122:16 *266:22 0.000211588
69 *126:10 *266:22 0.000166513
70 *127:8 *266:22 0
71 *130:8 *266:20 0.000309233
72 *132:29 *266:105 8.4047e-05
73 *212:114 *266:22 0.000367649
74 *212:114 *266:84 1.24376e-05
75 *214:6 *3702:A1 2.25419e-05
76 *246:31 *266:35 0
77 *247:10 *3694:A 3.15018e-05
78 *247:14 *266:35 4.38375e-05
79 *249:134 *3697:A1 8.65442e-05
80 *252:20 *3697:A1 0.000310641
81 *260:10 *266:35 0
82 *260:31 *266:45 0.000194323
83 *262:29 *266:45 4.02303e-05
84 *263:23 *266:35 4.37196e-05
85 *263:23 *266:45 1.05658e-05
86 *263:42 *266:22 0
87 *263:42 *266:105 2.93845e-05
*RES
1 *3900:X *266:4 23 
2 *266:4 *266:8 46.3793 
3 *266:8 *266:14 37.0814 
4 *266:14 *266:18 29.4454 
5 *266:18 *266:20 21.7189 
6 *266:20 *266:22 23.3864 
7 *266:22 *3694:A 38.6214 
8 *266:22 *266:35 14.1479 
9 *266:35 *266:45 21.3272 
10 *266:45 *3702:A1 42.3086 
11 *266:45 *3701:B 38 
12 *266:35 *3697:A1 43.3029 
13 *266:20 *266:84 16.6157 
14 *266:84 *266:88 3.85286 
15 *266:88 *3768:A1 24.1186 
16 *266:88 *266:105 31.8229 
17 *266:105 *3769:B 23 
18 *266:84 *3754:A1 23 
*END

*D_NET *267 0.0279481
*CONN
*I *3754:B2 I *D sky130_fd_sc_hd__a22o_1
*I *3768:B2 I *D sky130_fd_sc_hd__a22o_1
*I *3769:A I *D sky130_fd_sc_hd__nand4_1
*I *3693:A I *D sky130_fd_sc_hd__buf_2
*I *3701:A I *D sky130_fd_sc_hd__and4_1
*I *3702:B2 I *D sky130_fd_sc_hd__a22o_1
*I *3901:X O *D sky130_fd_sc_hd__buf_2
*CAP
1 *3754:B2 5.18615e-05
2 *3768:B2 0.000230508
3 *3769:A 0
4 *3693:A 1.80505e-05
5 *3701:A 0
6 *3702:B2 5.65243e-05
7 *3901:X 0
8 *267:68 0.000452316
9 *267:59 0.000847486
10 *267:44 0.00175546
11 *267:23 0.00118067
12 *267:10 0.00415307
13 *267:8 0.00397574
14 *267:6 0.00504807
15 *267:4 0.00504807
16 *3693:A *279:29 2.93747e-05
17 *3754:B2 *3754:B1 5.67058e-05
18 *3768:B2 *3754:B1 1.40958e-05
19 *3768:B2 *274:29 7.44354e-05
20 *267:44 *301:69 0.000176496
21 *267:44 *302:71 0
22 *267:44 *303:78 0.000644782
23 *3702:A1 *3702:B2 5.67058e-05
24 *3702:A1 *267:23 5.66787e-05
25 *3710:A *267:44 0.000154477
26 *56:8 *267:44 3.75094e-05
27 *56:40 *267:23 4.94766e-06
28 *57:10 *267:44 5.05017e-05
29 *60:8 *267:44 0
30 *93:8 *267:44 7.81176e-05
31 *93:8 *267:59 4.6318e-06
32 *93:14 *3693:A 5.50049e-05
33 *115:10 *3754:B2 2.30292e-05
34 *116:10 *3768:B2 0
35 *116:10 *267:68 0
36 *122:16 *267:68 0
37 *132:29 *3768:B2 2.60152e-05
38 *132:29 *267:59 0.00040842
39 *132:29 *267:68 5.9679e-05
40 *140:8 *267:59 0.000162422
41 *209:10 *267:10 4.77164e-06
42 *209:10 *267:23 5.18826e-05
43 *209:10 *267:44 0.00023831
44 *214:6 *3702:B2 5.47927e-05
45 *245:23 *267:44 2.72055e-05
46 *245:23 *267:59 5.97355e-05
47 *245:92 *267:59 1.74874e-06
48 *246:10 *267:44 0.000792558
49 *246:12 *267:44 6.16531e-05
50 *249:16 *267:44 1.88972e-05
51 *249:48 *267:44 0.000126538
52 *253:8 *267:44 0.000100364
53 *254:6 *267:44 0.00010018
54 *256:8 *267:44 3.55303e-05
55 *257:8 *267:44 4.54961e-05
56 *263:23 *267:44 6.96264e-05
57 *263:23 *267:59 4.14094e-05
58 *263:42 *267:59 0.00103006
59 *263:42 *267:68 1.14452e-05
60 *266:22 *267:68 0
61 *266:105 *267:68 8.4047e-05
*RES
1 *3901:X *267:4 23 
2 *267:4 *267:6 66.845 
3 *267:6 *267:8 15 
4 *267:8 *267:10 77.2643 
5 *267:10 *3702:B2 39.5743 
6 *267:10 *267:23 17.2579 
7 *267:23 *3701:A 23 
8 *267:23 *267:44 41.2036 
9 *267:44 *3693:A 38.6214 
10 *267:44 *267:59 17.9386 
11 *267:59 *3769:A 38 
12 *267:59 *267:68 2.96214 
13 *267:68 *3768:B2 42.2257 
14 *267:68 *3754:B2 39.2429 
*END

*D_NET *268 0.0185935
*CONN
*I *3681:B1 I *D sky130_fd_sc_hd__a21oi_1
*I *3902:X O *D sky130_fd_sc_hd__buf_1
*CAP
1 *3681:B1 0
2 *3902:X 0
3 *268:10 0.00171251
4 *268:8 0.00171251
5 *268:6 0.006668
6 *268:4 0.006668
7 *268:10 *269:18 4.08641e-05
8 *268:10 *275:10 0.00179159
9 *268:10 *303:18 0
*RES
1 *3902:X *268:4 23 
2 *268:4 *268:6 88.2843 
3 *268:6 *268:8 15 
4 *268:8 *268:10 45.5714 
5 *268:10 *3681:B1 38 
*END

*D_NET *269 0.0137623
*CONN
*I *3682:B2 I *D sky130_fd_sc_hd__o2bb2a_1
*I *3681:A1 I *D sky130_fd_sc_hd__a21oi_1
*I *3903:X O *D sky130_fd_sc_hd__buf_1
*CAP
1 *3682:B2 9.25805e-05
2 *3681:A1 0
3 *3903:X 0.00145595
4 *269:18 0.000323644
5 *269:10 0.00369683
6 *269:8 0.00328061
7 *269:6 0.00145595
8 *3682:B2 *276:14 6.68793e-05
9 *3682:B2 *302:18 0
10 *3682:B2 *304:42 4.6318e-06
11 *269:6 *302:6 0.000356724
12 *269:10 *276:14 0.000293499
13 *269:10 *302:12 0
14 *269:10 *302:16 0
15 *269:10 *302:18 0
16 *269:10 *303:16 0.000887261
17 *269:10 *303:18 0.00137677
18 *269:18 *303:18 0
19 *3:11 *269:10 0
20 *211:27 *269:18 0.000354122
21 *265:10 *269:6 7.59964e-05
22 *268:10 *269:18 4.08641e-05
*RES
1 *3903:X *269:6 43.6314 
2 *269:6 *269:8 15 
3 *269:8 *269:10 83.6029 
4 *269:10 *269:18 35.1579 
5 *269:18 *3681:A1 38 
6 *269:10 *3682:B2 39.9057 
*END

*D_NET *270 0.0164826
*CONN
*I *3678:A I *D sky130_fd_sc_hd__or2_1
*I *3683:A1 I *D sky130_fd_sc_hd__a21o_1
*I *3904:X O *D sky130_fd_sc_hd__dlymetal6s2s_1
*CAP
1 *3678:A 0
2 *3683:A1 0.000277227
3 *3904:X 0
4 *270:10 0.00333695
5 *270:8 0.00305972
6 *270:6 0.00475857
7 *270:4 0.00475857
8 *3683:A1 *271:12 1.76557e-05
9 *3683:A1 *271:20 0.000230604
10 *3683:A1 *273:10 0
11 *270:10 *273:10 0
12 *270:10 *300:14 0
13 *231:23 *3683:A1 0
14 *232:8 *3683:A1 4.334e-05
*RES
1 *3904:X *270:4 23 
2 *270:4 *270:6 89.2371 
3 *270:6 *270:8 15 
4 *270:8 *270:10 59.305 
5 *270:10 *3683:A1 42.9093 
6 *270:10 *3678:A 38 
*END

*D_NET *271 0.0186372
*CONN
*I *3684:A1 I *D sky130_fd_sc_hd__a22o_1
*I *3675:A I *D sky130_fd_sc_hd__or2_1
*I *3905:X O *D sky130_fd_sc_hd__clkbuf_2
*CAP
1 *3684:A1 0
2 *3675:A 0
3 *3905:X 0
4 *271:26 0.000116904
5 *271:20 0.0002324
6 *271:12 0.0048262
7 *271:10 0.0047107
8 *271:8 0.00330513
9 *271:6 0.00330513
10 *271:8 *279:43 0.00106168
11 *271:26 *273:10 0
12 int4_out[1] *271:8 7.46212e-05
13 *3683:A1 *271:12 1.76557e-05
14 *3683:A1 *271:20 0.000230604
15 *3684:B1 *271:20 6.09174e-05
16 *3684:B2 *271:20 5.67058e-05
17 *3904:A *271:8 4.00129e-05
18 *19:13 *271:8 0
19 *228:20 *271:20 5.90132e-05
20 *228:20 *271:26 0.000169683
21 *231:23 *271:20 2.02517e-05
22 *236:16 *271:20 0.000116761
23 *236:16 *271:26 4.07612e-05
24 *238:10 *271:26 0.000192077
*RES
1 *3905:X *271:6 38 
2 *271:6 *271:8 69.8693 
3 *271:8 *271:10 15 
4 *271:10 *271:12 87.3314 
5 *271:12 *271:20 4.97143 
6 *271:20 *271:26 33.6664 
7 *271:26 *3675:A 23 
8 *271:20 *3684:A1 23 
*END

*D_NET *272 0.0157887
*CONN
*I *3672:A I *D sky130_fd_sc_hd__or2_1
*I *3685:A1 I *D sky130_fd_sc_hd__a22o_1
*I *3906:X O *D sky130_fd_sc_hd__buf_1
*CAP
1 *3672:A 0.000169134
2 *3685:A1 0
3 *3906:X 0
4 *272:20 0.00221846
5 *272:12 0.0042388
6 *272:10 0.00363732
7 *272:6 0.00144785
8 *272:20 *3723:A2 0.000101751
9 *272:20 *3723:B1 1.79538e-05
10 *272:20 *302:131 6.88885e-05
11 *3670:A *272:20 3.71125e-05
12 *3672:B *3672:A 6.67283e-05
13 *3672:B *272:20 2.32101e-05
14 *3685:B2 *3672:A 5.50106e-05
15 *3723:B2 *272:20 0.000212162
16 *3730:A *272:20 0.000162769
17 *3730:B *272:20 3.64394e-05
18 *3745:A2 *272:20 4.67488e-05
19 *3793:B1 *272:12 4.9808e-05
20 *58:8 *272:12 6.07611e-06
21 *77:6 *272:20 4.21281e-05
22 *124:23 *272:12 7.38195e-05
23 *125:23 *272:12 0
24 *128:34 *272:12 5.31444e-05
25 *131:18 *272:12 0
26 *132:18 *272:12 0.00015795
27 *133:10 *272:12 0.000160591
28 *133:29 *272:12 2.33476e-05
29 *134:20 *272:12 2.79004e-05
30 *142:10 *272:12 0
31 *144:8 *272:12 0
32 *144:16 *272:12 0
33 *147:36 *272:12 0
34 *149:14 *272:12 0
35 *157:14 *272:12 0
36 *186:10 *272:12 0
37 *225:12 *272:20 0.00026808
38 *245:12 *272:12 0
39 *245:12 *272:20 5.3304e-05
40 *245:23 *272:12 0.000287889
41 *245:23 *272:20 4.2573e-05
42 *245:92 *272:12 9.92307e-06
43 *245:98 *272:12 0.000728306
44 *246:62 *272:20 0.00053323
45 *247:33 *272:12 8.4047e-05
46 *247:41 *272:12 0.000613542
47 *249:54 *272:12 6.00922e-06
48 *264:62 *272:20 2.67348e-05
49 *266:18 *272:10 0
*RES
1 *3906:X *272:6 38 
2 *272:6 *272:10 28.9689 
3 *272:10 *272:12 48.4818 
4 *272:12 *272:20 45.9057 
5 *272:20 *3685:A1 23 
6 *272:20 *3672:A 26.0036 
*END

*D_NET *273 0.0107644
*CONN
*I *3686:A1 I *D sky130_fd_sc_hd__a22o_1
*I *3687:B2 I *D sky130_fd_sc_hd__o221a_1
*I *3907:X O *D sky130_fd_sc_hd__buf_1
*CAP
1 *3686:A1 4.5196e-05
2 *3687:B2 0.000304781
3 *3907:X 0.000322499
4 *273:10 0.00371921
5 *273:8 0.00369173
6 *273:8 *296:6 3.61501e-05
7 *273:10 *300:14 0.00158612
8 *3683:A1 *273:10 0
9 *3686:B1 *3686:A1 1.24376e-05
10 *3863:A1 *3686:A1 5.79031e-05
11 *212:10 *273:10 0.000417797
12 *212:12 *273:10 8.08615e-05
13 *212:16 *273:10 0
14 *212:24 *273:10 0
15 *217:97 *3687:B2 0
16 *223:20 *3686:A1 5.90675e-06
17 *223:20 *3687:B2 0.000173385
18 *229:8 *273:10 6.68793e-05
19 *232:8 *273:10 0
20 *236:16 *3687:B2 0
21 *236:16 *273:10 0
22 *238:10 *273:10 6.78463e-05
23 *239:10 *3687:B2 3.70187e-05
24 *239:10 *273:10 0.000138718
25 *270:10 *273:10 0
26 *271:26 *273:10 0
*RES
1 *3907:X *273:8 42.4329 
2 *273:8 *273:10 77.9686 
3 *273:10 *3687:B2 43.7793 
4 *273:10 *3686:A1 39.1186 
*END

*D_NET *274 0.0124132
*CONN
*I *3769:C I *D sky130_fd_sc_hd__nand4_1
*I *3768:A2 I *D sky130_fd_sc_hd__a22o_1
*I *3754:B1 I *D sky130_fd_sc_hd__a22o_1
*I *3659:A I *D sky130_fd_sc_hd__clkbuf_4
*I *3908:X O *D sky130_fd_sc_hd__clkbuf_2
*CAP
1 *3769:C 5.1419e-05
2 *3768:A2 0
3 *3754:B1 9.92943e-05
4 *3659:A 0
5 *3908:X 0
6 *274:29 0.000230412
7 *274:21 0.00147265
8 *274:12 0.00213553
9 *274:6 0.00398385
10 *274:4 0.00313843
11 *274:12 *280:12 0
12 *3754:B2 *3754:B1 5.67058e-05
13 *3768:A1 *3754:B1 2.3853e-05
14 *3768:A1 *274:29 2.02872e-05
15 *3768:B2 *3754:B1 1.40958e-05
16 *3768:B2 *274:29 7.44354e-05
17 *3769:D *3769:C 2.18409e-05
18 *3769:D *274:21 7.53384e-06
19 *3800:A *274:21 1.14762e-05
20 *3800:B *274:21 0.000223704
21 *115:10 *3754:B1 1.32939e-05
22 *132:29 *274:29 1.22803e-05
23 *144:26 *274:12 5.45887e-05
24 *145:14 *274:12 0
25 *146:14 *274:21 2.18409e-05
26 *147:19 *274:21 9.50292e-05
27 *147:36 *274:21 8.46456e-05
28 *149:8 *274:21 7.92316e-05
29 *245:98 *274:29 0.000141879
30 *263:42 *3769:C 6.17437e-06
31 *263:55 *274:29 0.000114083
32 *266:88 *3754:B1 0.0002246
*RES
1 *3908:X *274:4 23 
2 *274:4 *274:6 53.0286 
3 *274:6 *274:12 45.9914 
4 *274:12 *3659:A 23 
5 *274:12 *274:21 17.7936 
6 *274:21 *274:29 33.48 
7 *274:29 *3754:B1 26.0243 
8 *274:29 *3768:A2 23 
9 *274:21 *3769:C 23.6214 
*END

*D_NET *275 0.0145818
*CONN
*I *3687:A1 I *D sky130_fd_sc_hd__o221a_1
*I *3667:A I *D sky130_fd_sc_hd__and2_1
*I *3909:X O *D sky130_fd_sc_hd__buf_1
*CAP
1 *3687:A1 0.000372703
2 *3667:A 0
3 *3909:X 0.000969322
4 *275:10 0.004415
5 *275:8 0.0040423
6 *275:6 0.000969322
7 *3687:A1 *300:130 6.02277e-06
8 *275:6 *303:12 0.000849171
9 *275:10 *300:130 5.61414e-05
10 *275:10 *303:16 0
11 *275:10 *303:18 0
12 *3881:CLK *3687:A1 1.14452e-05
13 *3881:CLK *275:10 0.000403117
14 *202:10 *275:10 0.000212377
15 *214:70 *275:10 0
16 *220:23 *3687:A1 0.000248996
17 *223:10 *3687:A1 0
18 *236:16 *275:10 0
19 *262:38 *3687:A1 2.13733e-05
20 *262:40 *3687:A1 0.0002129
21 *268:10 *275:10 0.00179159
*RES
1 *3909:X *275:6 39.3436 
2 *275:6 *275:8 15 
3 *275:8 *275:10 92.0543 
4 *275:10 *3667:A 38 
5 *275:10 *3687:A1 45.9129 
*END

*D_NET *276 0.0180713
*CONN
*I *3689:A1 I *D sky130_fd_sc_hd__a21oi_4
*I *3688:A1 I *D sky130_fd_sc_hd__o22a_1
*I *3910:X O *D sky130_fd_sc_hd__clkbuf_2
*CAP
1 *3689:A1 0.000200395
2 *3688:A1 2.44422e-05
3 *3910:X 0.000345386
4 *276:14 0.000753446
5 *276:10 0.00758388
6 *276:8 0.00740066
7 *276:14 *302:18 0
8 *276:14 *303:18 0.000951583
9 *276:14 *304:42 0
10 *3682:B2 *276:14 6.68793e-05
11 *3688:B1 *3688:A1 5.41385e-05
12 *3688:B2 *3688:A1 9.84851e-05
13 *218:12 *3689:A1 4.94008e-05
14 *218:18 *3689:A1 8.85189e-05
15 *234:8 *276:14 0.000160634
16 *241:8 *3689:A1 0
17 *242:10 *3689:A1 0
18 *243:12 *3689:A1 0
19 *243:12 *276:14 0
20 *269:10 *276:14 0.000293499
*RES
1 *3910:X *276:8 29.1211 
2 *276:8 *276:10 92.3339 
3 *276:10 *276:14 29.935 
4 *276:14 *3688:A1 39.0979 
5 *276:14 *3689:A1 42.2257 
*END

*D_NET *277 0.0233643
*CONN
*I *3875:D I *D sky130_fd_sc_hd__dfrtp_1
*I *3655:A I *D sky130_fd_sc_hd__clkbuf_4
*I *3911:X O *D sky130_fd_sc_hd__clkbuf_2
*CAP
1 *3875:D 0
2 *3655:A 0
3 *3911:X 0
4 *277:35 0.000215701
5 *277:22 0.000352358
6 *277:20 0.00437914
7 *277:8 0.00794056
8 *277:6 0.00369808
9 *277:8 *281:10 0.00241956
10 *277:20 *3709:A1 7.57281e-06
11 *277:20 *301:27 0.0026984
12 *277:35 *3875:RESET_B 0
13 int4_out[0] *277:8 2.36993e-05
14 int4_out[3] *277:8 2.33476e-05
15 *3699:A *277:22 0.00010655
16 *3699:A *277:35 7.53384e-06
17 *3709:B1 *277:20 0
18 *3:13 *277:35 0
19 *5:13 *277:8 0
20 *16:10 *277:8 0
21 *64:12 *277:20 0.000296899
22 *209:10 *277:22 0.000483643
23 *209:10 *277:35 0.000130423
24 *209:98 *277:35 9.84794e-05
25 *214:77 *277:35 0
26 *243:26 *277:20 9.1209e-05
27 *249:6 *277:22 5.37348e-06
28 *260:31 *277:20 0
29 *262:12 *277:20 0
30 *262:29 *277:20 0
31 *263:23 *277:20 0
32 *265:14 *277:20 6.07611e-06
33 *265:29 *277:20 5.90675e-06
34 *265:29 *277:22 7.38373e-05
35 *265:29 *277:35 8.47188e-05
36 *266:45 *277:20 0.000215245
*RES
1 *3911:X *277:6 38 
2 *277:6 *277:8 89.0611 
3 *277:8 *277:20 46.2226 
4 *277:20 *277:22 5.38571 
5 *277:22 *3655:A 23 
6 *277:22 *277:35 35.1371 
7 *277:35 *3875:D 23 
*END

*D_NET *278 0.00611208
*CONN
*I *3919:A I *D sky130_fd_sc_hd__clkbuf_4
*I *3893:A I *D sky130_fd_sc_hd__dlygate4sd3_1
*I *3876:Q O *D sky130_fd_sc_hd__dfrtp_1
*CAP
1 *3919:A 0
2 *3893:A 0
3 *3876:Q 0.000314266
4 *278:23 0.00227581
5 *278:21 0.00247799
6 *278:10 0.000516444
7 *278:10 *301:10 0.000192671
8 *278:21 *301:10 0.000196178
9 *44:10 *278:10 0.000138718
*RES
1 *3876:Q *278:10 44.6493 
2 *278:10 *3893:A 38 
3 *278:10 *278:21 20.075 
4 *278:21 *278:23 38.7357 
5 *278:23 *3919:A 23 
*END

*D_NET *279 0.0219068
*CONN
*I *3920:A I *D sky130_fd_sc_hd__buf_2
*I *3896:A I *D sky130_fd_sc_hd__dlygate4sd3_1
*I *3877:Q O *D sky130_fd_sc_hd__dfrtp_2
*CAP
1 *3920:A 0
2 *3896:A 0
3 *3877:Q 8.44503e-05
4 *279:43 0.000484494
5 *279:37 0.00645264
6 *279:35 0.00608252
7 *279:29 0.00222451
8 *279:12 0.00215124
9 *279:8 0.000125561
10 *279:35 *296:36 2.70366e-05
11 *279:35 *296:38 7.70141e-05
12 *279:37 *296:98 3.3577e-05
13 *3677:A *279:37 2.64616e-05
14 *3693:A *279:29 2.93747e-05
15 *3742:A1 *279:29 0
16 *3748:B *279:29 4.19743e-05
17 *3780:A *279:29 1.83716e-05
18 *3780:B *279:29 6.15314e-05
19 *3814:A *279:29 0.000143655
20 *3849:A1 *279:29 1.5769e-05
21 *3849:A2 *279:12 9.41704e-05
22 *3849:A2 *279:29 0.000170835
23 *3849:B2 *279:29 2.93845e-05
24 *87:10 *279:37 0.000139357
25 *89:8 *279:29 0.000811488
26 *93:14 *279:29 0.000157882
27 *94:16 *279:29 2.93845e-05
28 *95:16 *279:29 3.65274e-05
29 *161:8 *279:29 9.8971e-06
30 *163:16 *279:29 9.24795e-06
31 *195:8 *279:12 9.41704e-05
32 *195:8 *279:29 8.60475e-05
33 *213:138 *279:29 1.5769e-05
34 *214:19 *279:8 0.000135547
35 *214:88 *279:35 6.16439e-05
36 *214:110 *279:29 6.32777e-05
37 *231:8 *279:37 0.000137625
38 *231:23 *279:37 9.00922e-05
39 *246:10 *279:29 9.5877e-05
40 *247:112 *279:35 0.000163352
41 *247:127 *279:35 0.000117244
42 *249:76 *279:8 2.96154e-05
43 *249:76 *279:29 0.000186502
44 *271:8 *279:43 0.00106168
*RES
1 *3877:Q *279:8 39.9057 
2 *279:8 *279:12 16.0979 
3 *279:12 *3896:A 23 
4 *279:12 *279:29 35.6286 
5 *279:29 *279:35 33.6664 
6 *279:35 *279:37 102.101 
7 *279:37 *279:43 43.8786 
8 *279:43 *3920:A 23 
*END

*D_NET *280 0.00811734
*CONN
*I *3895:A I *D sky130_fd_sc_hd__dlygate4sd3_1
*I *3921:A I *D sky130_fd_sc_hd__clkbuf_4
*I *3878:Q O *D sky130_fd_sc_hd__dfrtp_1
*CAP
1 *3895:A 0
2 *3921:A 0.000444212
3 *3878:Q 0.0002096
4 *280:12 0.00322683
5 *280:10 0.00278261
6 *280:8 0.0002096
7 *280:8 *3878:RESET_B 0
8 *3854:A2 *280:12 3.72742e-05
9 *3854:B1 *280:12 1.22803e-05
10 *14:8 *3921:A 4.53862e-05
11 *141:28 *280:12 0.000201454
12 *144:26 *280:12 0
13 *154:25 *280:12 0.000163352
14 *155:21 *280:12 0.00016419
15 *180:20 *280:8 9.84851e-05
16 *193:10 *280:12 0.000111852
17 *198:12 *280:8 0.000139352
18 *213:8 *280:12 8.10114e-05
19 *266:8 *3921:A 0.000189857
20 *274:12 *280:12 0
*RES
1 *3878:Q *280:8 27.4536 
2 *280:8 *280:10 15 
3 *280:10 *280:12 57.5961 
4 *280:12 *3921:A 47.4561 
5 *280:8 *3895:A 23 
*END

*D_NET *281 0.0129006
*CONN
*I *3894:A I *D sky130_fd_sc_hd__dlygate4sd3_1
*I *3922:A I *D sky130_fd_sc_hd__clkbuf_4
*I *3879:Q O *D sky130_fd_sc_hd__dfrtp_1
*CAP
1 *3894:A 0
2 *3922:A 0
3 *3879:Q 0
4 *281:27 0.000295065
5 *281:10 0.00231675
6 *281:8 0.00494543
7 *281:4 0.00292375
8 *281:27 *301:10 0
9 *277:8 *281:10 0.00241956
*RES
1 *3879:Q *281:4 23 
2 *281:4 *281:8 49.9243 
3 *281:8 *281:10 61.4179 
4 *281:10 *3922:A 38 
5 *281:4 *281:27 35.0543 
6 *281:27 *3894:A 23 
*END

*D_NET *282 0.00460301
*CONN
*I *3892:A I *D sky130_fd_sc_hd__dlygate4sd3_1
*I *3923:A I *D sky130_fd_sc_hd__clkbuf_4
*I *3874:Q O *D sky130_fd_sc_hd__dfrtp_1
*CAP
1 *3892:A 0
2 *3923:A 0
3 *3874:Q 0
4 *282:25 0.000279284
5 *282:10 0.00202222
6 *282:4 0.0023015
7 *282:25 *3874:RESET_B 0
*RES
1 *3874:Q *282:4 23 
2 *282:4 *282:10 36.9957 
3 *282:10 *3923:A 23 
4 *282:4 *282:25 34.8057 
5 *282:25 *3892:A 23 
*END

*D_NET *283 0.00907484
*CONN
*I *3858:B I *D sky130_fd_sc_hd__and2_1
*I *3924:A I *D sky130_fd_sc_hd__clkbuf_4
*I *3880:Q O *D sky130_fd_sc_hd__dfrtp_1
*CAP
1 *3858:B 8.93099e-05
2 *3924:A 0
3 *3880:Q 0
4 *283:10 0.00432223
5 *283:8 0.00436923
6 *283:4 0.000136307
7 *3858:B *3880:RESET_B 0.000143655
8 *3858:B *293:22 0
9 *283:8 *3880:RESET_B 1.41077e-05
10 *211:20 *283:10 0
*RES
1 *3880:Q *283:4 23 
2 *283:4 *283:8 15.6214 
3 *283:8 *283:10 83.955 
4 *283:10 *3924:A 38 
5 *283:4 *3858:B 25.4236 
*END

*D_NET *284 0.0157844
*CONN
*I *3925:A I *D sky130_fd_sc_hd__clkbuf_4
*I *3860:B I *D sky130_fd_sc_hd__and2_1
*I *3881:Q O *D sky130_fd_sc_hd__dfrtp_1
*CAP
1 *3925:A 0.000275305
2 *3860:B 0.000433374
3 *3881:Q 0.000218946
4 *284:27 0.00152655
5 *284:23 0.00596787
6 *284:10 0.00514999
7 *284:8 0.000218946
8 *284:23 *292:22 0.000417304
9 *284:23 *292:24 0.00149726
10 *284:27 *288:27 0
11 *3860:A *3860:B 7.88828e-05
12 *211:31 *284:8 0
13 *211:42 *284:8 0
*RES
1 *3881:Q *284:8 40.9621 
2 *284:8 *284:10 15 
3 *284:10 *3860:B 30.8093 
4 *284:10 *284:23 71.1329 
5 *284:23 *284:27 39.0907 
6 *284:27 *3925:A 42.4329 
*END

*D_NET *285 0.0126222
*CONN
*I *3658:A I *D sky130_fd_sc_hd__clkbuf_4
*I *3767:B I *D sky130_fd_sc_hd__and2_1
*I *3912:X O *D sky130_fd_sc_hd__buf_1
*CAP
1 *3658:A 0
2 *3767:B 0.000589715
3 *3912:X 0
4 *285:16 0.00102973
5 *285:12 0.00314269
6 *285:10 0.00270267
7 *285:8 0.00241257
8 *285:6 0.00241257
9 *3767:B *3753:B 5.50106e-05
10 *3767:B *296:22 0.000178123
11 *3767:B *296:139 1.37232e-05
12 *3753:A *3767:B 2.64616e-05
13 *3767:A *3767:B 2.18409e-05
14 *212:8 *3767:B 3.71228e-05
*RES
1 *3912:X *285:6 38 
2 *285:6 *285:8 46.98 
3 *285:8 *285:10 15 
4 *285:10 *285:12 49.9318 
5 *285:12 *285:16 7.55036 
6 *285:16 *3767:B 33.6471 
7 *285:16 *3658:A 23 
*END

*D_NET *286 0.0149812
*CONN
*I *3926:A I *D sky130_fd_sc_hd__clkbuf_4
*I *3862:B I *D sky130_fd_sc_hd__and2_1
*I *3882:Q O *D sky130_fd_sc_hd__dfrtp_1
*CAP
1 *3926:A 0
2 *3862:B 0
3 *3882:Q 0
4 *286:27 0.00503574
5 *286:25 0.00698393
6 *286:16 0.000479152
7 *286:4 0.00242734
8 *286:16 *304:28 0
9 *3862:A *286:16 5.50049e-05
*RES
1 *3882:Q *286:4 23 
2 *286:4 *286:16 38.41 
3 *286:16 *3862:B 23 
4 *286:4 *286:25 40.8721 
5 *286:25 *286:27 98.0407 
6 *286:27 *3926:A 38 
*END

*D_NET *287 0.0176405
*CONN
*I *3927:A I *D sky130_fd_sc_hd__clkbuf_4
*I *3864:B I *D sky130_fd_sc_hd__and2_1
*I *3883:Q O *D sky130_fd_sc_hd__dfrtp_1
*CAP
1 *3927:A 0.00139177
2 *3864:B 0.000324757
3 *3883:Q 0.000105356
4 *287:33 0.00149166
5 *287:27 0.00314162
6 *287:25 0.00304173
7 *287:23 0.00364341
8 *287:8 0.00407353
9 *3864:B *304:26 0.00014411
10 *287:8 *3883:RESET_B 5.47927e-05
11 sideband_out[3] *3927:A 2.5059e-05
12 *3864:A *3864:B 5.50106e-05
13 *6:11 *3927:A 0.000147656
*RES
1 *3883:Q *287:8 39.5743 
2 *287:8 *3864:B 44.3386 
3 *287:8 *287:23 70.5736 
4 *287:23 *287:25 15 
5 *287:25 *287:27 40.6414 
6 *287:27 *287:33 31.5536 
7 *287:33 *3927:A 47.4429 
*END

*D_NET *288 0.0200481
*CONN
*I *3928:A I *D sky130_fd_sc_hd__clkbuf_4
*I *3866:B I *D sky130_fd_sc_hd__and2_1
*I *3884:Q O *D sky130_fd_sc_hd__dfrtp_2
*CAP
1 *3928:A 3.7156e-05
2 *3866:B 0
3 *3884:Q 0
4 *288:27 0.00392493
5 *288:25 0.00388778
6 *288:23 0.00565835
7 *288:16 0.000440781
8 *288:4 0.00609913
9 *288:16 *3867:A1 0
10 *288:16 *304:32 0
11 sideband_out[1] *288:27 0
12 valid_out *288:27 0
13 *3867:A2 *288:16 0
14 *284:27 *288:27 0
*RES
1 *3884:Q *288:4 23 
2 *288:4 *288:16 37.4571 
3 *288:16 *3866:B 23 
4 *288:4 *288:23 74.9443 
5 *288:23 *288:25 15 
6 *288:25 *288:27 75.5036 
7 *288:27 *3928:A 38.6214 
*END

*D_NET *289 0.0170322
*CONN
*I *3868:B I *D sky130_fd_sc_hd__and2_1
*I *3929:A I *D sky130_fd_sc_hd__clkbuf_4
*I *3885:Q O *D sky130_fd_sc_hd__dfrtp_1
*CAP
1 *3868:B 0.000221806
2 *3929:A 0
3 *3885:Q 0.000209366
4 *289:14 0.00111701
5 *289:10 0.0034151
6 *289:8 0.00272927
7 *3868:B *290:8 7.70737e-05
8 *3868:B *290:10 0.000148201
9 *3868:B *291:10 0.000179447
10 *3868:B *293:38 0.000149341
11 *289:10 *290:10 0.00619917
12 *289:10 *291:10 0.00129906
13 *289:14 *3930:A 0.000446275
14 *3868:A *3868:B 2.93845e-05
15 *265:8 *289:14 0.000502225
16 *265:10 *289:14 0.000309426
*RES
1 *3885:Q *289:8 40.5271 
2 *289:8 *289:10 81.49 
3 *289:10 *289:14 39.9193 
4 *289:14 *3929:A 23 
5 *289:8 *3868:B 45.4571 
*END

*D_NET *290 0.014726
*CONN
*I *3870:B I *D sky130_fd_sc_hd__and2_1
*I *3930:A I *D sky130_fd_sc_hd__clkbuf_4
*I *3886:Q O *D sky130_fd_sc_hd__dfrtp_1
*CAP
1 *3870:B 0.000599594
2 *3930:A 8.40237e-05
3 *3886:Q 5.28981e-05
4 *290:10 0.00297001
5 *290:8 0.00353848
6 *290:8 *3885:RESET_B 0
7 *290:8 *293:38 1.14452e-05
8 *290:10 *3885:RESET_B 0
9 *3868:B *290:8 7.70737e-05
10 *3868:B *290:10 0.000148201
11 *3885:D *3870:B 5.50106e-05
12 *207:10 *3870:B 5.67058e-05
13 *265:10 *3930:A 0.000487142
14 *289:10 *290:10 0.00619917
15 *289:14 *3930:A 0.000446275
*RES
1 *3886:Q *290:8 39.2014 
2 *290:8 *290:10 82.8986 
3 *290:10 *3930:A 43.3857 
4 *290:8 *3870:B 46.9071 
*END

*D_NET *291 0.0121045
*CONN
*I *3872:B I *D sky130_fd_sc_hd__and2_1
*I *3931:A I *D sky130_fd_sc_hd__clkbuf_4
*I *3887:Q O *D sky130_fd_sc_hd__dfrtp_1
*CAP
1 *3872:B 0.000515898
2 *3931:A 0
3 *3887:Q 0.000130436
4 *291:14 0.00209811
5 *291:12 0.00209811
6 *291:10 0.00242651
7 *291:8 0.00307284
8 *3872:B *3691:A1 6.36307e-05
9 *291:8 *293:38 0
10 *291:10 *293:38 0
11 *3868:B *291:10 0.000179447
12 *3872:A *3872:B 3.22879e-05
13 *41:10 *3872:B 9.8971e-06
14 *209:52 *3872:B 9.67842e-05
15 *210:25 *3872:B 2.4754e-05
16 *244:18 *3872:B 5.67058e-05
17 *289:10 *291:10 0.00129906
*RES
1 *3887:Q *291:8 40.2579 
2 *291:8 *291:10 58.6007 
3 *291:10 *291:12 15 
4 *291:12 *291:14 35.8771 
5 *291:14 *3931:A 23 
6 *291:8 *3872:B 47.2386 
*END

*D_NET *292 0.0138894
*CONN
*I *3932:A I *D sky130_fd_sc_hd__buf_2
*I *3875:Q O *D sky130_fd_sc_hd__dfrtp_1
*CAP
1 *3932:A 0
2 *3875:Q 6.0733e-05
3 *292:24 0.00125499
4 *292:22 0.00404352
5 *292:18 0.00447138
6 *292:10 0.00174358
7 *292:10 *302:18 7.20154e-05
8 *213:124 *292:18 0.000328595
9 *284:23 *292:22 0.000417304
10 *284:23 *292:24 0.00149726
*RES
1 *3875:Q *292:10 47.0254 
2 *292:10 *292:18 27.7563 
3 *292:18 *292:22 40.1754 
4 *292:22 *292:24 33.7332 
5 *292:24 *3932:A 23 
*END

*D_NET *293 0.0149211
*CONN
*I *3875:RESET_B I *D sky130_fd_sc_hd__dfrtp_1
*I *3885:RESET_B I *D sky130_fd_sc_hd__dfrtp_1
*I *3878:RESET_B I *D sky130_fd_sc_hd__dfrtp_1
*I *3876:RESET_B I *D sky130_fd_sc_hd__dfrtp_1
*I *3877:RESET_B I *D sky130_fd_sc_hd__dfrtp_2
*I *3879:RESET_B I *D sky130_fd_sc_hd__dfrtp_1
*I *3874:RESET_B I *D sky130_fd_sc_hd__dfrtp_1
*I *3887:RESET_B I *D sky130_fd_sc_hd__dfrtp_1
*I *3886:RESET_B I *D sky130_fd_sc_hd__dfrtp_1
*I *3880:RESET_B I *D sky130_fd_sc_hd__dfrtp_1
*I *3891:X O *D sky130_fd_sc_hd__clkbuf_4
*CAP
1 *3875:RESET_B 0.000116774
2 *3885:RESET_B 0.000106645
3 *3878:RESET_B 0.000332832
4 *3876:RESET_B 0.00013936
5 *3877:RESET_B 0.000553928
6 *3879:RESET_B 0
7 *3874:RESET_B 0.000630006
8 *3887:RESET_B 3.85484e-05
9 *3886:RESET_B 4.42216e-06
10 *3880:RESET_B 0.00256998
11 *3891:X 0.000294025
12 *293:86 0.000644945
13 *293:68 0.000777654
14 *293:61 0.000396862
15 *293:38 0.000927926
16 *293:32 0.000989437
17 *293:22 0.00101464
18 *293:6 0.00224809
19 *3874:RESET_B *301:10 0.000144475
20 *3878:RESET_B *298:16 7.73918e-05
21 *3878:RESET_B *301:10 0.000267561
22 *293:38 *3869:A1 0
23 *293:38 *301:10 8.41777e-05
24 *293:61 *297:8 0.000131878
25 *293:61 *301:10 0.000493756
26 *293:68 *297:8 5.80963e-05
27 *293:68 *301:10 0.000132665
28 *293:86 *298:16 3.83778e-05
29 *293:86 *301:10 0.000398906
30 *3858:B *3880:RESET_B 0.000143655
31 *3858:B *293:22 0
32 *3868:B *293:38 0.000149341
33 *3877:CLK *3877:RESET_B 1.41077e-05
34 *3877:D *3877:RESET_B 0.000141954
35 *3880:CLK *293:22 2.93747e-05
36 *3880:D *293:22 0.00010655
37 *3886:D *3886:RESET_B 2.8521e-05
38 *3886:D *293:22 9.76358e-05
39 *3886:D *293:32 2.03425e-05
40 *51:8 *3885:RESET_B 0
41 *51:8 *293:38 0
42 *211:83 *293:61 0
43 *211:100 *293:68 7.75329e-06
44 *211:100 *293:86 7.66188e-05
45 *214:57 *3875:RESET_B 8.4047e-05
46 *214:57 *293:6 0.000107001
47 *214:77 *3875:RESET_B 0.000110262
48 *244:18 *293:61 0
49 *244:64 *3878:RESET_B 3.81554e-05
50 *261:33 *293:22 3.06213e-05
51 *261:92 *293:86 0
52 *261:104 *3878:RESET_B 9.62666e-05
53 *277:35 *3875:RESET_B 0
54 *280:8 *3878:RESET_B 0
55 *282:25 *3874:RESET_B 0
56 *283:8 *3880:RESET_B 1.41077e-05
57 *290:8 *3885:RESET_B 0
58 *290:8 *293:38 1.14452e-05
59 *290:10 *3885:RESET_B 0
60 *291:8 *293:38 0
61 *291:10 *293:38 0
*RES
1 *3891:X *293:6 27.4329 
2 *293:6 *3880:RESET_B 33.8161 
3 *3880:RESET_B *293:22 12.5218 
4 *293:22 *3886:RESET_B 0.548929 
5 *293:22 *293:32 3.97714 
6 *293:32 *293:38 26.7036 
7 *293:38 *3887:RESET_B 15.5489 
8 *293:38 *3874:RESET_B 20.7793 
9 *3874:RESET_B *293:61 23.9589 
10 *293:61 *3879:RESET_B 15 
11 *293:61 *293:68 1.90571 
12 *293:68 *3877:RESET_B 23.5032 
13 *293:68 *293:86 5.42714 
14 *293:86 *3876:RESET_B 16.8746 
15 *293:86 *3878:RESET_B 23.0475 
16 *293:32 *3885:RESET_B 31.5536 
17 *293:6 *3875:RESET_B 32.61 
*END

*D_NET *294 0.00113999
*CONN
*I *3691:A1 I *D sky130_fd_sc_hd__o21ba_1
*I *3892:X O *D sky130_fd_sc_hd__dlygate4sd3_1
*CAP
1 *3691:A1 0.000172761
2 *3892:X 0.000158124
3 *294:8 0.000330885
4 *294:8 *301:10 0
5 *3872:B *3691:A1 6.36307e-05
6 *209:52 *3691:A1 9.67842e-05
7 *244:18 *3691:A1 1.32314e-05
8 *244:18 *294:8 0.00030457
*RES
1 *3892:X *294:8 42.0186 
2 *294:8 *3691:A1 41.8736 
*END

*D_NET *295 0.000240688
*CONN
*I *3847:A2 I *D sky130_fd_sc_hd__a22o_1
*I *3893:X O *D sky130_fd_sc_hd__dlygate4sd3_1
*CAP
1 *3847:A2 4.85166e-05
2 *3893:X 4.85166e-05
3 *244:64 *3847:A2 0.000143655
*RES
1 *3893:X *3847:A2 47.5743 
*END

*D_NET *296 0.0272262
*CONN
*I *3753:B I *D sky130_fd_sc_hd__and2_1
*I *3795:B I *D sky130_fd_sc_hd__nand2_1
*I *3788:A2 I *D sky130_fd_sc_hd__a31o_1
*I *3739:A2 I *D sky130_fd_sc_hd__a22o_1
*I *3740:C I *D sky130_fd_sc_hd__nand4_1
*I *3724:D I *D sky130_fd_sc_hd__nand4_1
*I *3865:A1 I *D sky130_fd_sc_hd__a31o_1
*I *3674:A I *D sky130_fd_sc_hd__xnor2_1
*I *3723:B1 I *D sky130_fd_sc_hd__a22o_1
*I *3661:A I *D sky130_fd_sc_hd__or4_1
*I *3913:X O *D sky130_fd_sc_hd__clkbuf_4
*CAP
1 *3753:B 1.00761e-05
2 *3795:B 0
3 *3788:A2 0.000125353
4 *3739:A2 1.59068e-05
5 *3740:C 0
6 *3724:D 0
7 *3865:A1 0
8 *3674:A 2.34823e-05
9 *3723:B1 7.98461e-05
10 *3661:A 0.000185373
11 *3913:X 0.00139072
12 *296:141 0.000167765
13 *296:139 0.000906165
14 *296:108 0.000453841
15 *296:98 0.000694429
16 *296:85 0.000976691
17 *296:66 0.00137704
18 *296:40 0.000322052
19 *296:38 0.000614202
20 *296:36 0.000533636
21 *296:34 0.00102908
22 *296:22 0.00185546
23 *296:16 0.000101153
24 *296:14 0.00181201
25 *296:12 0.00223871
26 *296:6 0.00181741
27 *3661:A *3671:A 2.02517e-05
28 *3661:A *301:115 0.000300117
29 *3723:B1 *3723:A2 0.000178517
30 *296:6 *300:12 0.00139255
31 *296:14 *300:31 0.000155729
32 *296:36 *301:136 5.09456e-05
33 *296:38 *301:115 3.70187e-05
34 *296:38 *301:136 0.000422638
35 *296:40 *301:115 0.000136486
36 *296:66 *300:43 1.32939e-05
37 *296:85 *304:26 0
38 *3675:B *296:85 2.18409e-05
39 *3723:B2 *3723:B1 1.76557e-05
40 *3740:B *296:98 0.000178517
41 *3743:A *296:98 2.32004e-05
42 *3743:A *296:108 2.9938e-05
43 *3743:B *296:108 0.000120537
44 *3752:A1 *296:34 0.000288117
45 *3765:B *296:139 2.75763e-05
46 *3767:A *3753:B 4.34745e-05
47 *3767:A *296:22 0.00010018
48 *3767:B *3753:B 5.50106e-05
49 *3767:B *296:22 0.000178123
50 *3767:B *296:139 1.37232e-05
51 *3770:A2 *296:139 0.000139357
52 *3771:A1 *296:139 1.41077e-05
53 *3771:B1 *296:139 0.000221992
54 *3773:A1 *296:139 9.84851e-05
55 *3782:A *296:139 0.000262858
56 *3784:B1 *3788:A2 1.00493e-05
57 *3784:B1 *296:139 1.57571e-05
58 *3784:B1 *296:141 2.93104e-06
59 *3795:A *3788:A2 0.000147173
60 *3883:CLK *296:85 0
61 *3907:A *296:6 1.84917e-05
62 *3907:A *296:12 9.21802e-05
63 *49:10 *296:85 2.29192e-05
64 *69:29 *296:108 3.62219e-05
65 *72:20 *3661:A 0
66 *83:10 *296:108 0.000163352
67 *84:12 *296:108 8.25811e-05
68 *85:21 *296:34 0.000141888
69 *87:10 *296:34 0.000136486
70 *87:10 *296:36 0.000167443
71 *87:10 *296:98 2.35663e-05
72 *87:20 *296:34 0.000106461
73 *88:8 *296:34 0
74 *90:6 *296:108 2.45549e-06
75 *98:17 *296:34 6.88732e-05
76 *100:6 *296:22 0.000202654
77 *100:6 *296:139 5.61255e-06
78 *100:14 *296:34 0.00015795
79 *100:23 *296:139 6.38926e-05
80 *102:8 *296:34 0
81 *103:8 *296:34 0.000122247
82 *111:50 *296:139 5.64787e-05
83 *114:8 *296:34 8.4047e-05
84 *115:14 *296:139 4.05745e-05
85 *115:23 *296:139 0.000137651
86 *115:23 *296:141 0
87 *117:8 *296:139 0.000441065
88 *118:6 *296:139 2.63595e-05
89 *129:10 *296:14 0
90 *129:10 *296:139 7.53721e-05
91 *131:18 *296:139 5.3304e-05
92 *136:14 *3788:A2 0.000267178
93 *136:14 *296:139 2.87922e-05
94 *142:10 *3788:A2 1.10417e-05
95 *212:80 *3739:A2 2.30984e-05
96 *212:136 *296:108 3.22879e-05
97 *213:89 *3661:A 6.17437e-06
98 *213:106 *3661:A 4.05745e-05
99 *214:77 *3661:A 1.14452e-05
100 *214:88 *3661:A 0.000302339
101 *214:88 *296:38 0.000290894
102 *214:88 *296:40 0.000128574
103 *228:8 *3674:A 0
104 *228:8 *296:85 0.000274265
105 *246:85 *296:98 9.5877e-05
106 *247:112 *3723:B1 2.64616e-05
107 *247:127 *296:36 5.76076e-05
108 *264:18 *296:14 0.00103388
109 *264:35 *296:34 0
110 *264:35 *296:139 6.81908e-05
111 *264:47 *296:108 0.000130771
112 *265:42 *296:66 0.000226306
113 *265:57 *296:34 0
114 *272:20 *3723:B1 1.79538e-05
115 *273:8 *296:6 3.61501e-05
116 *279:35 *296:36 2.70366e-05
117 *279:35 *296:38 7.70141e-05
118 *279:37 *296:98 3.3577e-05
*RES
1 *3913:X *296:6 45.0607 
2 *296:6 *296:12 23.8139 
3 *296:12 *296:14 40.6932 
4 *296:14 *296:16 15 
5 *296:16 *296:22 4.12214 
6 *296:22 *296:34 33.2286 
7 *296:34 *296:36 3.31429 
8 *296:36 *296:38 6.13143 
9 *296:38 *296:40 1.90571 
10 *296:40 *3661:A 43.6136 
11 *296:40 *3723:B1 40.0507 
12 *296:38 *296:66 21.3386 
13 *296:66 *3674:A 23.4971 
14 *296:66 *296:85 44.6036 
15 *296:85 *3865:A1 23 
16 *296:36 *296:98 19.9507 
17 *296:98 *296:108 38.2236 
18 *296:108 *3724:D 23 
19 *296:98 *3740:C 23 
20 *296:34 *3739:A2 38.2693 
21 *296:22 *296:139 49.8236 
22 *296:139 *296:141 0.849286 
23 *296:141 *3788:A2 26.9979 
24 *296:141 *3795:B 23 
25 *296:16 *3753:B 23.6214 
*END

*D_NET *297 0.000762489
*CONN
*I *3857:A2 I *D sky130_fd_sc_hd__a21bo_1
*I *3894:X O *D sky130_fd_sc_hd__dlygate4sd3_1
*CAP
1 *3857:A2 0
2 *3894:X 0.000106177
3 *297:8 0.000106177
4 *3857:A1 *297:8 1.71678e-05
5 *211:100 *297:8 0.000342994
6 *293:61 *297:8 0.000131878
7 *293:68 *297:8 5.80963e-05
*RES
1 *3894:X *297:8 42.7229 
2 *297:8 *3857:A2 38 
*END

*D_NET *298 0.00182949
*CONN
*I *3855:A2 I *D sky130_fd_sc_hd__a22o_1
*I *3895:X O *D sky130_fd_sc_hd__dlygate4sd3_1
*CAP
1 *3855:A2 3.76283e-05
2 *3895:X 6.55146e-05
3 *298:16 0.000544694
4 *298:8 0.000572581
5 *3847:A1 *298:8 4.08641e-05
6 *3850:A2 *298:8 0
7 *3855:A1 *3855:A2 1.14154e-05
8 *3876:CLK *298:16 0.000164528
9 *3878:RESET_B *298:16 7.73918e-05
10 *244:64 *298:16 0.000225265
11 *261:104 *298:16 5.12254e-05
12 *293:86 *298:16 3.83778e-05
*RES
1 *3895:X *298:8 39.2014 
2 *298:8 *298:16 38.3479 
3 *298:16 *3855:A2 38.8493 
*END

*D_NET *299 0.00128394
*CONN
*I *3851:A2 I *D sky130_fd_sc_hd__a22o_1
*I *3896:X O *D sky130_fd_sc_hd__dlygate4sd3_1
*CAP
1 *3851:A2 0
2 *3896:X 0.000477052
3 *299:12 0.000477052
4 *3851:B1 *299:12 2.02901e-05
5 *3851:B2 *299:12 2.30292e-05
6 *3855:A1 *299:12 0
7 *3855:B1 *299:12 0
8 *195:8 *299:12 0.000274078
9 *211:117 *299:12 1.24376e-05
*RES
1 *3896:X *299:12 30.83 
2 *299:12 *3851:A2 23 
*END

*D_NET *300 0.0295607
*CONN
*I *3738:B I *D sky130_fd_sc_hd__and2_1
*I *3723:A2 I *D sky130_fd_sc_hd__a22o_1
*I *3671:A I *D sky130_fd_sc_hd__xor2_1
*I *3867:A1 I *D sky130_fd_sc_hd__a31o_1
*I *3662:B I *D sky130_fd_sc_hd__or3_1
*I *3668:A1 I *D sky130_fd_sc_hd__o21a_1
*I *3695:D I *D sky130_fd_sc_hd__nand4_1
*I *3724:C I *D sky130_fd_sc_hd__nand4_1
*I *3697:B1 I *D sky130_fd_sc_hd__a22o_1
*I *3764:B I *D sky130_fd_sc_hd__and2_1
*I *3914:X O *D sky130_fd_sc_hd__clkbuf_4
*CAP
1 *3738:B 0
2 *3723:A2 0.000428894
3 *3671:A 0.000132536
4 *3867:A1 0.000282346
5 *3662:B 5.84022e-05
6 *3668:A1 1.10388e-05
7 *3695:D 2.00578e-05
8 *3724:C 0.000497718
9 *3697:B1 0.000299981
10 *3764:B 0.000380478
11 *3914:X 0.000464074
12 *300:130 0.00112947
13 *300:109 0.00094517
14 *300:96 0.000122892
15 *300:57 0.000969505
16 *300:51 0.000554045
17 *300:49 0.000556204
18 *300:45 0.000404302
19 *300:43 0.00126337
20 *300:31 0.00146645
21 *300:18 0.0015516
22 *300:14 0.0020202
23 *300:12 0.00285508
24 *300:8 0.00168815
25 *3697:B1 *302:131 0
26 *3724:C *302:131 0
27 *300:43 *301:136 1.02387e-05
28 *300:51 *3662:A 0.000181131
29 *300:96 *3662:A 9.24795e-06
30 *300:109 *3662:A 6.89881e-05
31 *300:130 *3662:A 2.02517e-05
32 *3661:A *3671:A 2.02517e-05
33 *3661:B *3671:A 4.69744e-05
34 *3665:A *300:130 4.95081e-05
35 *3665:B *3662:B 6.27021e-05
36 *3665:B *300:130 0.000137453
37 *3668:A2 *3668:A1 3.96752e-05
38 *3668:A2 *300:96 2.32004e-05
39 *3668:A2 *300:109 1.32314e-05
40 *3670:B *300:45 7.03317e-05
41 *3687:A1 *300:130 6.02277e-06
42 *3695:A *300:57 9.67842e-05
43 *3723:A1 *3723:A2 1.14154e-05
44 *3723:B1 *3723:A2 0.000178517
45 *3724:A *3724:C 1.21343e-05
46 *3724:B *3724:C 1.24376e-05
47 *3725:A2 *3724:C 2.61526e-05
48 *3736:A *3724:C 6.00453e-05
49 *3736:C *3724:C 2.93747e-05
50 *3764:A *3764:B 0.000441939
51 *3818:A2 *300:57 1.24376e-05
52 *3867:A2 *3867:A1 1.32939e-05
53 *3867:A3 *3867:A1 0.000139352
54 *3883:CLK *300:130 0
55 *3913:A *300:12 5.45644e-05
56 *3914:A *300:8 3.46302e-05
57 *3:13 *3697:B1 1.20837e-05
58 *50:10 *3867:A1 0.00014196
59 *70:10 *3724:C 5.21024e-05
60 *75:31 *3724:C 0
61 *76:19 *3724:C 0
62 *82:10 *3724:C 0.000110922
63 *111:10 *3764:B 2.65879e-05
64 *111:50 *3764:B 0.000104267
65 *209:115 *3867:A1 6.75055e-05
66 *212:10 *300:31 0
67 *212:10 *300:43 0
68 *212:12 *300:43 0
69 *212:16 *300:43 0
70 *213:106 *3671:A 5.12254e-05
71 *213:106 *300:45 1.83564e-05
72 *213:106 *300:49 7.461e-05
73 *215:8 *3671:A 0.000137651
74 *217:27 *300:51 0.000140736
75 *217:27 *300:57 7.17746e-05
76 *217:39 *3697:B1 1.34354e-05
77 *217:85 *300:51 0.00030974
78 *217:95 *3662:B 0
79 *217:95 *300:51 9.24795e-06
80 *217:95 *300:96 0.000207914
81 *217:95 *300:109 2.4754e-05
82 *217:116 *300:43 8.16356e-05
83 *217:116 *300:45 0
84 *220:23 *300:130 0.000196549
85 *221:8 *300:130 8.85189e-05
86 *230:10 *300:43 0
87 *236:16 *300:130 0.000268148
88 *246:31 *3697:B1 0.000164773
89 *246:42 *3697:B1 8.4047e-05
90 *246:62 *3697:B1 5.15096e-05
91 *246:62 *3724:C 0.000319731
92 *247:63 *300:57 0.000141052
93 *247:89 *3724:C 0.000265477
94 *247:99 *3723:A2 1.94693e-05
95 *247:112 *3723:A2 1.21972e-05
96 *262:12 *3697:B1 0.000272069
97 *262:29 *3697:B1 1.20966e-05
98 *262:40 *300:130 0
99 *262:62 *300:130 0
100 *264:18 *3764:B 0.00051819
101 *264:47 *3724:C 0
102 *265:29 *300:43 5.97612e-05
103 *265:29 *300:45 0.000138818
104 *265:29 *300:49 7.8128e-05
105 *265:42 *300:43 0.000840638
106 *265:57 *300:31 0.00107172
107 *265:57 *300:43 1.14452e-05
108 *270:10 *300:14 0
109 *272:20 *3723:A2 0.000101751
110 *273:10 *300:14 0.00158612
111 *275:10 *300:130 5.61414e-05
112 *288:16 *3867:A1 0
113 *296:6 *300:12 0.00139255
114 *296:14 *300:31 0.000155729
115 *296:66 *300:43 1.32939e-05
*RES
1 *3914:X *300:8 29.5975 
2 *300:8 *300:12 43.9689 
3 *300:12 *300:14 42.4021 
4 *300:14 *300:18 21.3386 
5 *300:18 *3764:B 34.6 
6 *300:18 *300:31 35.5693 
7 *300:31 *300:43 45.515 
8 *300:43 *300:45 4.01857 
9 *300:45 *300:49 17.2579 
10 *300:49 *300:51 8.24429 
11 *300:51 *300:57 18.9771 
12 *300:57 *3697:B1 44.4836 
13 *300:57 *3724:C 49.455 
14 *300:51 *3695:D 23.4971 
15 *300:49 *300:96 3.23143 
16 *300:96 *3668:A1 23.8079 
17 *300:96 *300:109 1.76071 
18 *300:109 *3662:B 24.4707 
19 *300:109 *300:130 47.835 
20 *300:130 *3867:A1 28.8829 
21 *300:45 *3671:A 41.5214 
22 *300:43 *3723:A2 43.7586 
23 *300:31 *3738:B 38 
*END

*D_NET *301 0.0318188
*CONN
*I *3695:C I *D sky130_fd_sc_hd__nand4_1
*I *3669:A I *D sky130_fd_sc_hd__xnor2_1
*I *3750:B I *D sky130_fd_sc_hd__and2_1
*I *3722:B I *D sky130_fd_sc_hd__and2_1
*I *3662:A I *D sky130_fd_sc_hd__or3_1
*I *3697:A2 I *D sky130_fd_sc_hd__a22o_1
*I *3701:D I *D sky130_fd_sc_hd__and4_1
*I *3702:B1 I *D sky130_fd_sc_hd__a22o_1
*I *3869:A1 I *D sky130_fd_sc_hd__a31o_1
*I *3915:X O *D sky130_fd_sc_hd__clkbuf_4
*CAP
1 *3695:C 0.000115632
2 *3669:A 0
3 *3750:B 0
4 *3722:B 0
5 *3662:A 0.000337176
6 *3697:A2 0
7 *3701:D 0
8 *3702:B1 0.000197045
9 *3869:A1 0.000157978
10 *3915:X 0.000381319
11 *301:136 0.00130977
12 *301:115 0.0015522
13 *301:98 0.000699641
14 *301:94 0.000322034
15 *301:82 0.000500746
16 *301:69 0.000951856
17 *301:42 0.00079121
18 *301:27 0.0011734
19 *301:12 0.00114425
20 *301:10 0.00424439
21 *301:8 0.00459332
22 *3702:B1 *3702:A2 6.92122e-05
23 *3702:B1 *302:73 5.49242e-05
24 *301:27 *302:102 0.00164449
25 *301:42 *302:71 1.05441e-05
26 *301:42 *302:73 1.28035e-05
27 *301:94 *3663:A 1.14154e-05
28 *301:94 *302:50 0.000235114
29 *301:94 *303:32 0
30 *301:94 *303:34 0.000250153
31 *301:94 *303:42 4.27531e-05
32 *3661:A *301:115 0.000300117
33 *3668:A2 *3662:A 4.9662e-05
34 *3669:B *301:94 5.3304e-05
35 *3697:A1 *301:69 6.5689e-05
36 *3702:A1 *3702:B1 6.52325e-05
37 *3752:A1 *301:136 2.24973e-05
38 *3775:A *301:136 0
39 *3874:RESET_B *301:10 0.000144475
40 *3878:RESET_B *301:10 0.000267561
41 *3:13 *3695:C 5.51222e-05
42 *3:13 *301:82 6.60558e-05
43 *44:10 *301:10 7.1357e-05
44 *56:8 *301:69 0.000298944
45 *86:8 *301:136 0.000141879
46 *86:21 *301:136 0.000244517
47 *87:10 *301:136 0.000105072
48 *98:17 *301:136 3.18683e-05
49 *99:23 *301:136 0.000136486
50 *103:8 *301:136 0.000124873
51 *209:52 *3869:A1 5.76957e-05
52 *209:52 *301:10 5.11935e-06
53 *214:6 *3702:B1 2.30292e-05
54 *214:77 *301:98 0.000296026
55 *214:77 *301:115 4.59441e-05
56 *222:8 *301:98 0.000113153
57 *243:22 *3702:B1 0
58 *243:26 *301:27 1.4344e-05
59 *243:55 *3869:A1 0
60 *244:18 *301:10 0
61 *244:64 *301:10 0
62 *248:10 *3695:C 4.96264e-05
63 *248:10 *301:82 2.3529e-05
64 *249:16 *301:69 0.000164469
65 *249:134 *301:69 7.44161e-06
66 *249:134 *301:82 0.000182826
67 *250:8 *301:69 3.45967e-05
68 *250:8 *301:82 0.000106087
69 *250:14 *301:82 0.000163352
70 *251:12 *301:69 1.24376e-05
71 *251:12 *301:82 1.55097e-05
72 *251:21 *3695:C 2.61699e-05
73 *252:20 *301:69 0.000567191
74 *254:6 *301:69 6.75184e-05
75 *256:8 *3702:B1 0
76 *261:16 *3869:A1 0
77 *262:38 *301:94 0.000399339
78 *263:23 *301:69 0
79 *264:35 *301:136 5.3304e-05
80 *264:47 *301:136 5.38612e-05
81 *265:29 *301:98 8.31977e-05
82 *265:29 *301:115 0.000558204
83 *265:29 *301:136 1.14452e-05
84 *265:42 *301:136 0
85 *265:57 *301:136 0
86 *266:8 *301:8 0.000325115
87 *267:44 *301:69 0.000176496
88 *277:20 *301:27 0.0026984
89 *278:10 *301:10 0.000192671
90 *278:21 *301:10 0.000196178
91 *281:27 *301:10 0
92 *293:38 *3869:A1 0
93 *293:38 *301:10 8.41777e-05
94 *293:61 *301:10 0.000493756
95 *293:68 *301:10 0.000132665
96 *293:86 *301:10 0.000398906
97 *294:8 *301:10 0
98 *296:36 *301:136 5.09456e-05
99 *296:38 *301:115 3.70187e-05
100 *296:38 *301:136 0.000422638
101 *296:40 *301:115 0.000136486
102 *300:43 *301:136 1.02387e-05
103 *300:51 *3662:A 0.000181131
104 *300:96 *3662:A 9.24795e-06
105 *300:109 *3662:A 6.89881e-05
106 *300:130 *3662:A 2.02517e-05
*RES
1 *3915:X *301:8 47.6736 
2 *301:8 *301:10 90.8218 
3 *301:10 *301:12 0.621429 
4 *301:12 *3869:A1 40.7861 
5 *301:12 *301:27 21.0363 
6 *301:27 *3702:B1 41.0554 
7 *301:27 *301:42 15.3211 
8 *301:42 *3701:D 23 
9 *301:42 *301:69 45.9086 
10 *301:69 *3697:A2 23 
11 *301:69 *301:82 20.51 
12 *301:82 *301:94 23.0993 
13 *301:94 *301:98 19.0186 
14 *301:98 *3662:A 43.4271 
15 *301:98 *301:115 8.16143 
16 *301:115 *3722:B 38 
17 *301:115 *301:136 43.3164 
18 *301:136 *3750:B 23 
19 *301:94 *3669:A 23 
20 *301:82 *3695:C 40.61 
*END

*D_NET *302 0.0378934
*CONN
*I *3666:A I *D sky130_fd_sc_hd__xor2_1
*I *3664:A I *D sky130_fd_sc_hd__or3b_2
*I *3735:B I *D sky130_fd_sc_hd__and2_1
*I *3710:B I *D sky130_fd_sc_hd__nand2_1
*I *3701:C I *D sky130_fd_sc_hd__and4_1
*I *3871:A1 I *D sky130_fd_sc_hd__a31o_1
*I *3702:A2 I *D sky130_fd_sc_hd__a22o_1
*I *3817:A I *D sky130_fd_sc_hd__nand2_1
*I *3726:A2 I *D sky130_fd_sc_hd__a22o_1
*I *3698:B I *D sky130_fd_sc_hd__nand4_1
*I *3916:X O *D sky130_fd_sc_hd__buf_4
*CAP
1 *3666:A 0.000111272
2 *3664:A 0
3 *3735:B 0
4 *3710:B 2.20322e-05
5 *3701:C 0
6 *3871:A1 0
7 *3702:A2 0.000221046
8 *3817:A 0
9 *3726:A2 0
10 *3698:B 4.66082e-05
11 *3916:X 0
12 *302:131 0.000468705
13 *302:102 0.000938141
14 *302:73 0.00120496
15 *302:71 0.000328827
16 *302:62 0.000503095
17 *302:54 0.000953534
18 *302:52 0.000427075
19 *302:50 0.00102322
20 *302:41 0.000419447
21 *302:28 0.000635089
22 *302:20 0.000485891
23 *302:18 0.00219634
24 *302:16 0.00356635
25 *302:12 0.00270232
26 *302:6 0.0056049
27 *302:4 0.00438386
28 *3666:A *303:32 0.000206587
29 *302:6 *303:8 0.00120397
30 *302:6 *303:12 0.00144656
31 *302:18 *303:32 0.000377172
32 *302:18 *304:42 0
33 *302:50 *3663:A 4.00259e-06
34 *302:50 *303:42 0.000196276
35 *302:52 *303:42 1.94812e-05
36 sideband_out[2] *302:6 0.00014196
37 *3664:C_N *302:28 0.000442771
38 *3664:C_N *302:41 0
39 *3682:B2 *302:18 0
40 *3697:B1 *302:131 0
41 *3698:A *3698:B 1.56762e-05
42 *3698:A *302:28 5.67058e-05
43 *3702:A1 *3702:A2 0.000212496
44 *3702:A1 *302:73 5.8447e-05
45 *3702:B1 *3702:A2 6.92122e-05
46 *3702:B1 *302:73 5.49242e-05
47 *3712:B *3710:B 1.09903e-05
48 *3712:B *302:52 2.02872e-05
49 *3712:B *302:54 7.4416e-05
50 *3724:C *302:131 0
51 *3726:B1 *302:50 5.3304e-05
52 *3730:A *302:131 0
53 *3859:A3 *302:102 9.33529e-06
54 *3868:A *302:102 0.00018657
55 *3871:A2 *302:102 5.33707e-05
56 *3890:A *302:52 2.64616e-05
57 *3909:A *302:6 0.00014196
58 *3916:A *302:6 0.000185434
59 *3:11 *302:12 0
60 *55:18 *302:62 0
61 *55:26 *302:62 0
62 *55:26 *302:71 0
63 *57:10 *302:54 0.000137651
64 *60:8 *302:71 0.000241159
65 *65:23 *302:62 0
66 *68:10 *302:62 0
67 *75:31 *302:131 0.000110922
68 *76:8 *302:131 9.94908e-05
69 *77:14 *302:62 0
70 *164:8 *302:62 8.85189e-05
71 *170:14 *302:62 0
72 *209:22 *302:102 0
73 *209:31 *302:102 8.44348e-05
74 *209:33 *302:102 5.6088e-05
75 *211:14 *302:102 0
76 *213:106 *302:18 1.22906e-05
77 *213:124 *302:18 0
78 *214:6 *3702:A2 5.14746e-06
79 *214:19 *302:102 0
80 *216:10 *3666:A 0.00021673
81 *216:10 *302:18 6.48049e-05
82 *217:39 *302:50 2.93845e-05
83 *217:39 *302:52 0.000256164
84 *217:39 *302:54 3.44001e-05
85 *217:39 *302:131 0.000131997
86 *217:43 *302:54 0.000137651
87 *217:43 *302:62 0.000485452
88 *218:12 *302:28 4.67488e-05
89 *223:10 *3666:A 5.3304e-05
90 *234:8 *302:18 0
91 *243:12 *302:18 0
92 *243:26 *302:102 0.000842618
93 *243:43 *302:102 2.71896e-05
94 *245:12 *302:62 0
95 *246:31 *302:131 2.51497e-05
96 *249:134 *3698:B 1.24376e-05
97 *249:134 *302:28 2.1136e-05
98 *249:140 *302:41 0.000110922
99 *251:21 *302:41 1.22803e-05
100 *257:8 *302:71 0
101 *262:38 *3666:A 1.59094e-05
102 *262:38 *302:50 0.000114856
103 *264:62 *302:131 0.000185428
104 *266:35 *302:131 7.03514e-05
105 *266:45 *302:71 0.000240608
106 *266:45 *302:73 1.05441e-05
107 *267:44 *302:71 0
108 *269:6 *302:6 0.000356724
109 *269:10 *302:12 0
110 *269:10 *302:16 0
111 *269:10 *302:18 0
112 *272:20 *302:131 6.88885e-05
113 *276:14 *302:18 0
114 *292:10 *302:18 7.20154e-05
115 *301:27 *302:102 0.00164449
116 *301:42 *302:71 1.05441e-05
117 *301:42 *302:73 1.28035e-05
118 *301:94 *302:50 0.000235114
*RES
1 *3916:X *302:4 23 
2 *302:4 *302:6 93.0486 
3 *302:6 *302:12 39.3496 
4 *302:12 *302:16 29.3521 
5 *302:16 *302:18 41.2939 
6 *302:18 *302:20 15 
7 *302:20 *302:28 10.6886 
8 *302:28 *3698:B 23.6214 
9 *302:28 *302:41 31.9057 
10 *302:41 *3726:A2 23 
11 *302:41 *302:50 7.78857 
12 *302:50 *302:52 5.38571 
13 *302:52 *302:54 3.95643 
14 *302:54 *302:62 40.8129 
15 *302:62 *3817:A 23 
16 *302:54 *302:71 21.1314 
17 *302:71 *302:73 1.02536 
18 *302:73 *3702:A2 41.9254 
19 *302:73 *302:102 44.0331 
20 *302:102 *3871:A1 23 
21 *302:71 *3701:C 38 
22 *302:52 *3710:B 23.4971 
23 *302:50 *302:131 40.7921 
24 *302:131 *3735:B 23 
25 *302:20 *3664:A 23 
26 *302:18 *3666:A 41.5836 
*END

*D_NET *303 0.0301899
*CONN
*I *3679:A I *D sky130_fd_sc_hd__nand2_1
*I *3663:A I *D sky130_fd_sc_hd__buf_2
*I *3713:A I *D sky130_fd_sc_hd__and3_1
*I *3708:B I *D sky130_fd_sc_hd__nand2_2
*I *3700:A I *D sky130_fd_sc_hd__nand2_1
*I *3709:A1 I *D sky130_fd_sc_hd__a31o_1
*I *3917:X O *D sky130_fd_sc_hd__buf_2
*CAP
1 *3679:A 4.09349e-05
2 *3663:A 1.92397e-05
3 *3713:A 0
4 *3708:B 2.96399e-05
5 *3700:A 4.69559e-05
6 *3709:A1 0.00021765
7 *3917:X 0
8 *303:97 0.000377708
9 *303:78 0.000815709
10 *303:61 0.000745822
11 *303:42 0.00129763
12 *303:34 0.000968366
13 *303:32 0.000621423
14 *303:20 0.000502703
15 *303:18 0.00260415
16 *303:16 0.00348825
17 *303:12 0.00162953
18 *303:8 0.00222368
19 *303:4 0.00147824
20 *3666:A *303:32 0.000206587
21 *3669:B *303:32 1.32314e-05
22 *3669:B *303:34 1.72202e-05
23 *3680:B *3679:A 5.3304e-05
24 *3680:B *303:32 9.74625e-05
25 *3697:A1 *303:61 0.000102226
26 *3700:B *3700:A 5.12055e-06
27 *3700:B *303:61 0
28 *3709:B1 *3709:A1 3.22879e-05
29 *3713:B *303:97 5.72749e-05
30 *3726:B1 *303:42 2.64616e-05
31 *3817:B *3708:B 0
32 *3817:B *303:97 4.5051e-05
33 *3820:S *303:97 9.67842e-05
34 *3861:B1 *3679:A 0
35 *3909:A *303:12 0.00014196
36 *55:18 *303:97 3.04021e-05
37 *55:66 *303:78 4.38638e-05
38 *55:66 *303:97 2.88036e-05
39 *58:8 *303:97 3.72639e-05
40 *59:10 *303:97 1.14452e-05
41 *209:10 *3709:A1 3.53115e-05
42 *209:108 *303:18 6.7177e-06
43 *213:106 *303:32 0.000541484
44 *213:108 *303:32 0.000271476
45 *213:124 *3679:A 0
46 *214:70 *303:18 0.000232668
47 *223:10 *303:32 0.000230303
48 *243:22 *303:32 0.0002263
49 *243:104 *303:32 0.000300012
50 *245:12 *303:97 0.000116314
51 *246:31 *303:42 2.01531e-05
52 *247:18 *303:78 6.08617e-05
53 *247:18 *303:97 9.67842e-05
54 *249:10 *3709:A1 0.000141954
55 *249:16 *303:78 8.82392e-05
56 *249:27 *303:78 0.000125797
57 *249:48 *303:78 0.000430736
58 *249:134 *3709:A1 0.000239883
59 *249:134 *303:42 1.01436e-05
60 *252:20 *3700:A 9.34204e-05
61 *252:20 *303:61 0.000308365
62 *262:38 *303:32 0.000126793
63 *263:23 *3709:A1 0
64 *266:35 *3709:A1 1.61295e-05
65 *266:35 *303:42 3.62323e-05
66 *266:45 *3709:A1 1.05658e-05
67 *267:44 *303:78 0.000644782
68 *268:10 *303:18 0
69 *269:10 *303:16 0.000887261
70 *269:10 *303:18 0.00137677
71 *269:18 *303:18 0
72 *275:6 *303:12 0.000849171
73 *275:10 *303:16 0
74 *275:10 *303:18 0
75 *276:14 *303:18 0.000951583
76 *277:20 *3709:A1 7.57281e-06
77 *301:94 *3663:A 1.14154e-05
78 *301:94 *303:32 0
79 *301:94 *303:34 0.000250153
80 *301:94 *303:42 4.27531e-05
81 *302:6 *303:8 0.00120397
82 *302:6 *303:12 0.00144656
83 *302:18 *303:32 0.000377172
84 *302:50 *3663:A 4.00259e-06
85 *302:50 *303:42 0.000196276
86 *302:52 *303:42 1.94812e-05
*RES
1 *3917:X *303:4 23 
2 *303:4 *303:8 33.2775 
3 *303:8 *303:12 44.4454 
4 *303:12 *303:16 23.6454 
5 *303:16 *303:18 64.9496 
6 *303:18 *303:20 15 
7 *303:20 *303:32 48.2079 
8 *303:32 *303:34 3.48 
9 *303:34 *303:42 25.8957 
10 *303:42 *3709:A1 43.2407 
11 *303:42 *303:61 21.2557 
12 *303:61 *3700:A 24.1186 
13 *303:61 *303:78 40.5229 
14 *303:78 *3708:B 23.4971 
15 *303:78 *303:97 37.5607 
16 *303:97 *3713:A 23 
17 *303:34 *3663:A 23.4971 
18 *303:20 *3679:A 24.1186 
*END

*D_NET *304 0.0155925
*CONN
*I *3882:RESET_B I *D sky130_fd_sc_hd__dfrtp_1
*I *3884:RESET_B I *D sky130_fd_sc_hd__dfrtp_2
*I *3881:RESET_B I *D sky130_fd_sc_hd__dfrtp_1
*I *3891:A I *D sky130_fd_sc_hd__clkbuf_4
*I *3883:RESET_B I *D sky130_fd_sc_hd__dfrtp_1
*I *3918:X O *D sky130_fd_sc_hd__buf_2
*CAP
1 *3882:RESET_B 3.85184e-05
2 *3884:RESET_B 3.85184e-05
3 *3881:RESET_B 3.0205e-05
4 *3891:A 0.000105961
5 *3883:RESET_B 0.00133786
6 *3918:X 9.53785e-05
7 *304:42 0.00141666
8 *304:32 0.00166379
9 *304:28 0.000679276
10 *304:26 0.000788397
11 *304:12 0.00459445
12 *304:10 0.0036886
13 *304:8 9.53785e-05
14 *3680:B *304:42 0.000116554
15 *3682:B2 *304:42 4.6318e-06
16 *3864:A *304:26 6.42618e-05
17 *3864:A *304:28 0
18 *3864:B *304:26 0.00014411
19 *3881:CLK *304:42 5.83407e-05
20 *3881:D *304:42 1.54424e-05
21 *209:108 *304:42 0.0002263
22 *211:42 *304:32 0
23 *211:51 *304:28 0
24 *211:51 *304:32 0
25 *214:57 *3891:A 0.000272383
26 *234:8 *304:42 3.98668e-05
27 *243:104 *304:42 1.29283e-05
28 *243:117 *304:42 9.8971e-06
29 *276:14 *304:42 0
30 *286:16 *304:28 0
31 *287:8 *3883:RESET_B 5.47927e-05
32 *288:16 *304:32 0
33 *296:85 *304:26 0
34 *302:18 *304:42 0
*RES
1 *3918:X *304:8 39.5536 
2 *304:8 *304:10 15 
3 *304:10 *304:12 62.7954 
4 *304:12 *3883:RESET_B 17.0064 
5 *3883:RESET_B *304:26 24.0107 
6 *304:26 *304:28 5.77929 
7 *304:28 *304:32 20.7793 
8 *304:32 *304:42 48.85 
9 *304:42 *3891:A 26.0036 
10 *304:32 *3881:RESET_B 0.548929 
11 *304:28 *3884:RESET_B 15.5489 
12 *304:26 *3882:RESET_B 15.5489 
*END
