*SPEF "ieee 1481-1999"
*DESIGN "gear_quantizer"
*DATE "11:11:11 Fri 11 11, 1111"
*VENDOR "OpenRCX"
*PROGRAM "Parallel Extraction"
*VERSION "1.0"
*DESIGN_FLOW "NAME_SCOPE LOCAL" "PIN_CAP NONE"
*DIVIDER /
*DELIMITER :
*BUS_DELIMITER []
*T_UNIT 1 NS
*C_UNIT 1 PF
*R_UNIT 1 OHM
*L_UNIT 1 HENRY

*NAME_MAP
*3 clk
*4 data_in[0]
*5 data_in[1]
*6 data_in[2]
*7 data_in[3]
*8 data_in[4]
*9 data_in[5]
*10 data_in[6]
*11 data_in[7]
*12 int4_out[0]
*13 int4_out[1]
*14 int4_out[2]
*15 int4_out[3]
*16 is_outlier
*17 round_mode
*18 rst_n
*19 scale[0]
*20 scale[1]
*21 scale[2]
*22 scale[3]
*23 sideband_out[0]
*24 sideband_out[1]
*25 sideband_out[2]
*26 sideband_out[3]
*27 sideband_out[4]
*28 sideband_out[5]
*29 sideband_out[6]
*30 sideband_out[7]
*31 threshold[0]
*32 threshold[1]
*33 threshold[2]
*34 threshold[3]
*35 threshold[4]
*36 threshold[5]
*37 threshold[6]
*38 threshold[7]
*39 valid_in
*40 valid_out
*41 _000_
*42 _001_
*43 _002_
*44 _003_
*45 _004_
*46 _005_
*47 _006_
*48 _007_
*49 _008_
*50 _009_
*51 _010_
*52 _011_
*53 _012_
*54 _013_
*55 _014_
*56 _015_
*57 _016_
*58 _017_
*59 _018_
*60 _019_
*61 _020_
*62 _021_
*63 _022_
*64 _023_
*65 _024_
*66 _025_
*67 _026_
*68 _027_
*69 _028_
*70 _029_
*71 _030_
*72 _031_
*73 _032_
*74 _033_
*75 _034_
*76 _035_
*77 _036_
*78 _037_
*79 _038_
*80 _039_
*81 _040_
*82 _041_
*83 _042_
*84 _043_
*85 _044_
*86 _045_
*87 _046_
*88 _047_
*89 _048_
*90 _049_
*91 _050_
*92 _051_
*93 _052_
*94 _053_
*95 _054_
*96 _055_
*97 _056_
*98 _057_
*99 _058_
*100 _059_
*101 _060_
*102 _061_
*103 _062_
*104 _063_
*105 _064_
*106 _065_
*107 _066_
*108 _067_
*109 _068_
*110 _069_
*111 _070_
*112 _071_
*113 _072_
*114 _073_
*115 _074_
*116 _075_
*117 _076_
*118 _077_
*119 _078_
*120 _079_
*121 _080_
*122 _081_
*123 _082_
*124 _083_
*125 _084_
*126 _085_
*127 _086_
*128 _087_
*129 _088_
*130 _089_
*131 _090_
*132 _091_
*133 _092_
*134 _093_
*135 _094_
*136 _095_
*137 _096_
*138 _097_
*139 _098_
*140 _099_
*141 _100_
*142 _101_
*143 _102_
*144 _103_
*145 _104_
*146 _105_
*147 _106_
*148 _107_
*149 _108_
*150 _109_
*151 _110_
*152 _111_
*153 _112_
*154 _113_
*155 _114_
*156 _115_
*157 _116_
*158 _117_
*159 _118_
*160 _119_
*161 _120_
*162 _121_
*163 _122_
*164 _123_
*165 _124_
*166 _125_
*167 _126_
*168 _127_
*169 _128_
*170 _129_
*171 _130_
*172 _131_
*173 _132_
*174 _133_
*175 _134_
*176 _135_
*177 _136_
*178 _137_
*179 _138_
*180 _139_
*181 _140_
*182 _141_
*183 _142_
*184 _143_
*185 _144_
*186 _145_
*187 _146_
*188 _147_
*189 _148_
*190 _149_
*191 _150_
*192 _151_
*193 _152_
*194 _153_
*195 _154_
*196 _155_
*197 _156_
*198 _157_
*199 _158_
*200 _159_
*201 _160_
*202 _161_
*203 _162_
*204 _163_
*205 _164_
*206 _165_
*207 _166_
*208 _167_
*209 _168_
*210 _169_
*211 _170_
*212 _171_
*213 _172_
*214 _173_
*215 _174_
*216 _175_
*217 _176_
*218 _177_
*219 _178_
*220 _179_
*221 _180_
*222 _181_
*223 _182_
*224 _183_
*225 _184_
*226 _185_
*227 _186_
*228 _187_
*229 _188_
*230 _189_
*231 _190_
*232 _191_
*233 _192_
*234 _193_
*235 _194_
*236 _195_
*237 _196_
*238 _197_
*239 _198_
*240 _199_
*241 _200_
*242 _201_
*243 _202_
*244 _203_
*245 _204_
*246 _205_
*247 _206_
*248 _207_
*249 _208_
*250 _209_
*251 _210_
*252 _211_
*253 _212_
*254 _213_
*255 _214_
*256 _215_
*257 _216_
*258 _217_
*259 _218_
*260 clknet_0_clk
*261 clknet_1_0__leaf_clk
*262 clknet_1_1__leaf_clk
*263 net1
*264 net10
*265 net11
*266 net12
*267 net13
*268 net14
*269 net15
*270 net16
*271 net17
*272 net18
*273 net19
*274 net2
*275 net20
*276 net21
*277 net22
*278 net23
*279 net24
*280 net25
*281 net26
*282 net27
*283 net28
*284 net29
*285 net3
*286 net30
*287 net31
*288 net32
*289 net33
*290 net34
*291 net35
*292 net36
*293 net37
*294 net38
*295 net39
*296 net4
*297 net40
*298 net41
*299 net42
*300 net5
*301 net6
*302 net7
*303 net8
*304 net9
*305 FILLER_0_0_109
*306 FILLER_0_0_113
*307 FILLER_0_0_119
*308 FILLER_0_0_126
*309 FILLER_0_0_138
*310 FILLER_0_0_141
*311 FILLER_0_0_153
*312 FILLER_0_0_161
*313 FILLER_0_0_167
*314 FILLER_0_0_169
*315 FILLER_0_0_181
*316 FILLER_0_0_19
*317 FILLER_0_0_193
*318 FILLER_0_0_197
*319 FILLER_0_0_209
*320 FILLER_0_0_221
*321 FILLER_0_0_225
*322 FILLER_0_0_237
*323 FILLER_0_0_249
*324 FILLER_0_0_253
*325 FILLER_0_0_258
*326 FILLER_0_0_27
*327 FILLER_0_0_270
*328 FILLER_0_0_278
*329 FILLER_0_0_281
*330 FILLER_0_0_293
*331 FILLER_0_0_303
*332 FILLER_0_0_307
*333 FILLER_0_0_309
*334 FILLER_0_0_321
*335 FILLER_0_0_333
*336 FILLER_0_0_337
*337 FILLER_0_0_343
*338 FILLER_0_0_35
*339 FILLER_0_0_355
*340 FILLER_0_0_363
*341 FILLER_0_0_365
*342 FILLER_0_0_377
*343 FILLER_0_0_389
*344 FILLER_0_0_399
*345 FILLER_0_0_47
*346 FILLER_0_0_55
*347 FILLER_0_0_57
*348 FILLER_0_0_69
*349 FILLER_0_0_7
*350 FILLER_0_0_77
*351 FILLER_0_0_83
*352 FILLER_0_0_85
*353 FILLER_0_0_97
*354 FILLER_0_10_109
*355 FILLER_0_10_121
*356 FILLER_0_10_133
*357 FILLER_0_10_139
*358 FILLER_0_10_141
*359 FILLER_0_10_15
*360 FILLER_0_10_153
*361 FILLER_0_10_165
*362 FILLER_0_10_177
*363 FILLER_0_10_189
*364 FILLER_0_10_195
*365 FILLER_0_10_197
*366 FILLER_0_10_209
*367 FILLER_0_10_221
*368 FILLER_0_10_233
*369 FILLER_0_10_245
*370 FILLER_0_10_251
*371 FILLER_0_10_253
*372 FILLER_0_10_265
*373 FILLER_0_10_27
*374 FILLER_0_10_277
*375 FILLER_0_10_289
*376 FILLER_0_10_29
*377 FILLER_0_10_3
*378 FILLER_0_10_301
*379 FILLER_0_10_307
*380 FILLER_0_10_309
*381 FILLER_0_10_321
*382 FILLER_0_10_333
*383 FILLER_0_10_345
*384 FILLER_0_10_357
*385 FILLER_0_10_363
*386 FILLER_0_10_365
*387 FILLER_0_10_377
*388 FILLER_0_10_389
*389 FILLER_0_10_401
*390 FILLER_0_10_41
*391 FILLER_0_10_53
*392 FILLER_0_10_65
*393 FILLER_0_10_77
*394 FILLER_0_10_83
*395 FILLER_0_10_85
*396 FILLER_0_10_97
*397 FILLER_0_11_105
*398 FILLER_0_11_111
*399 FILLER_0_11_113
*400 FILLER_0_11_125
*401 FILLER_0_11_137
*402 FILLER_0_11_149
*403 FILLER_0_11_161
*404 FILLER_0_11_167
*405 FILLER_0_11_169
*406 FILLER_0_11_181
*407 FILLER_0_11_193
*408 FILLER_0_11_205
*409 FILLER_0_11_21
*410 FILLER_0_11_217
*411 FILLER_0_11_223
*412 FILLER_0_11_225
*413 FILLER_0_11_237
*414 FILLER_0_11_249
*415 FILLER_0_11_261
*416 FILLER_0_11_273
*417 FILLER_0_11_279
*418 FILLER_0_11_281
*419 FILLER_0_11_293
*420 FILLER_0_11_305
*421 FILLER_0_11_317
*422 FILLER_0_11_329
*423 FILLER_0_11_33
*424 FILLER_0_11_335
*425 FILLER_0_11_337
*426 FILLER_0_11_349
*427 FILLER_0_11_361
*428 FILLER_0_11_373
*429 FILLER_0_11_385
*430 FILLER_0_11_391
*431 FILLER_0_11_393
*432 FILLER_0_11_405
*433 FILLER_0_11_45
*434 FILLER_0_11_53
*435 FILLER_0_11_57
*436 FILLER_0_11_69
*437 FILLER_0_11_81
*438 FILLER_0_11_9
*439 FILLER_0_11_93
*440 FILLER_0_12_109
*441 FILLER_0_12_121
*442 FILLER_0_12_133
*443 FILLER_0_12_139
*444 FILLER_0_12_141
*445 FILLER_0_12_15
*446 FILLER_0_12_153
*447 FILLER_0_12_165
*448 FILLER_0_12_177
*449 FILLER_0_12_189
*450 FILLER_0_12_195
*451 FILLER_0_12_197
*452 FILLER_0_12_209
*453 FILLER_0_12_221
*454 FILLER_0_12_233
*455 FILLER_0_12_245
*456 FILLER_0_12_251
*457 FILLER_0_12_253
*458 FILLER_0_12_265
*459 FILLER_0_12_27
*460 FILLER_0_12_277
*461 FILLER_0_12_289
*462 FILLER_0_12_29
*463 FILLER_0_12_3
*464 FILLER_0_12_301
*465 FILLER_0_12_307
*466 FILLER_0_12_309
*467 FILLER_0_12_321
*468 FILLER_0_12_333
*469 FILLER_0_12_345
*470 FILLER_0_12_357
*471 FILLER_0_12_363
*472 FILLER_0_12_365
*473 FILLER_0_12_377
*474 FILLER_0_12_389
*475 FILLER_0_12_401
*476 FILLER_0_12_41
*477 FILLER_0_12_53
*478 FILLER_0_12_65
*479 FILLER_0_12_77
*480 FILLER_0_12_83
*481 FILLER_0_12_85
*482 FILLER_0_12_97
*483 FILLER_0_13_105
*484 FILLER_0_13_111
*485 FILLER_0_13_113
*486 FILLER_0_13_125
*487 FILLER_0_13_137
*488 FILLER_0_13_149
*489 FILLER_0_13_15
*490 FILLER_0_13_161
*491 FILLER_0_13_167
*492 FILLER_0_13_169
*493 FILLER_0_13_181
*494 FILLER_0_13_193
*495 FILLER_0_13_205
*496 FILLER_0_13_217
*497 FILLER_0_13_223
*498 FILLER_0_13_225
*499 FILLER_0_13_237
*500 FILLER_0_13_249
*501 FILLER_0_13_261
*502 FILLER_0_13_27
*503 FILLER_0_13_273
*504 FILLER_0_13_279
*505 FILLER_0_13_281
*506 FILLER_0_13_293
*507 FILLER_0_13_3
*508 FILLER_0_13_305
*509 FILLER_0_13_317
*510 FILLER_0_13_329
*511 FILLER_0_13_335
*512 FILLER_0_13_337
*513 FILLER_0_13_349
*514 FILLER_0_13_361
*515 FILLER_0_13_373
*516 FILLER_0_13_385
*517 FILLER_0_13_39
*518 FILLER_0_13_391
*519 FILLER_0_13_393
*520 FILLER_0_13_405
*521 FILLER_0_13_51
*522 FILLER_0_13_55
*523 FILLER_0_13_57
*524 FILLER_0_13_69
*525 FILLER_0_13_81
*526 FILLER_0_13_93
*527 FILLER_0_14_109
*528 FILLER_0_14_121
*529 FILLER_0_14_133
*530 FILLER_0_14_139
*531 FILLER_0_14_141
*532 FILLER_0_14_15
*533 FILLER_0_14_153
*534 FILLER_0_14_165
*535 FILLER_0_14_177
*536 FILLER_0_14_189
*537 FILLER_0_14_195
*538 FILLER_0_14_197
*539 FILLER_0_14_209
*540 FILLER_0_14_221
*541 FILLER_0_14_233
*542 FILLER_0_14_245
*543 FILLER_0_14_251
*544 FILLER_0_14_253
*545 FILLER_0_14_265
*546 FILLER_0_14_27
*547 FILLER_0_14_277
*548 FILLER_0_14_289
*549 FILLER_0_14_29
*550 FILLER_0_14_3
*551 FILLER_0_14_301
*552 FILLER_0_14_307
*553 FILLER_0_14_309
*554 FILLER_0_14_321
*555 FILLER_0_14_333
*556 FILLER_0_14_345
*557 FILLER_0_14_357
*558 FILLER_0_14_363
*559 FILLER_0_14_365
*560 FILLER_0_14_377
*561 FILLER_0_14_389
*562 FILLER_0_14_401
*563 FILLER_0_14_41
*564 FILLER_0_14_53
*565 FILLER_0_14_65
*566 FILLER_0_14_77
*567 FILLER_0_14_83
*568 FILLER_0_14_85
*569 FILLER_0_14_97
*570 FILLER_0_15_105
*571 FILLER_0_15_111
*572 FILLER_0_15_113
*573 FILLER_0_15_125
*574 FILLER_0_15_137
*575 FILLER_0_15_149
*576 FILLER_0_15_15
*577 FILLER_0_15_161
*578 FILLER_0_15_167
*579 FILLER_0_15_169
*580 FILLER_0_15_181
*581 FILLER_0_15_193
*582 FILLER_0_15_205
*583 FILLER_0_15_217
*584 FILLER_0_15_223
*585 FILLER_0_15_225
*586 FILLER_0_15_237
*587 FILLER_0_15_249
*588 FILLER_0_15_261
*589 FILLER_0_15_27
*590 FILLER_0_15_273
*591 FILLER_0_15_279
*592 FILLER_0_15_281
*593 FILLER_0_15_293
*594 FILLER_0_15_3
*595 FILLER_0_15_305
*596 FILLER_0_15_317
*597 FILLER_0_15_329
*598 FILLER_0_15_335
*599 FILLER_0_15_337
*600 FILLER_0_15_349
*601 FILLER_0_15_361
*602 FILLER_0_15_373
*603 FILLER_0_15_385
*604 FILLER_0_15_39
*605 FILLER_0_15_391
*606 FILLER_0_15_393
*607 FILLER_0_15_405
*608 FILLER_0_15_51
*609 FILLER_0_15_55
*610 FILLER_0_15_57
*611 FILLER_0_15_69
*612 FILLER_0_15_81
*613 FILLER_0_15_93
*614 FILLER_0_16_109
*615 FILLER_0_16_121
*616 FILLER_0_16_133
*617 FILLER_0_16_139
*618 FILLER_0_16_141
*619 FILLER_0_16_15
*620 FILLER_0_16_153
*621 FILLER_0_16_165
*622 FILLER_0_16_177
*623 FILLER_0_16_189
*624 FILLER_0_16_195
*625 FILLER_0_16_197
*626 FILLER_0_16_209
*627 FILLER_0_16_221
*628 FILLER_0_16_233
*629 FILLER_0_16_245
*630 FILLER_0_16_251
*631 FILLER_0_16_253
*632 FILLER_0_16_265
*633 FILLER_0_16_27
*634 FILLER_0_16_277
*635 FILLER_0_16_289
*636 FILLER_0_16_29
*637 FILLER_0_16_3
*638 FILLER_0_16_301
*639 FILLER_0_16_307
*640 FILLER_0_16_309
*641 FILLER_0_16_321
*642 FILLER_0_16_333
*643 FILLER_0_16_345
*644 FILLER_0_16_357
*645 FILLER_0_16_363
*646 FILLER_0_16_365
*647 FILLER_0_16_377
*648 FILLER_0_16_389
*649 FILLER_0_16_401
*650 FILLER_0_16_41
*651 FILLER_0_16_53
*652 FILLER_0_16_65
*653 FILLER_0_16_77
*654 FILLER_0_16_83
*655 FILLER_0_16_85
*656 FILLER_0_16_97
*657 FILLER_0_17_105
*658 FILLER_0_17_111
*659 FILLER_0_17_113
*660 FILLER_0_17_125
*661 FILLER_0_17_137
*662 FILLER_0_17_149
*663 FILLER_0_17_15
*664 FILLER_0_17_161
*665 FILLER_0_17_167
*666 FILLER_0_17_169
*667 FILLER_0_17_181
*668 FILLER_0_17_193
*669 FILLER_0_17_205
*670 FILLER_0_17_217
*671 FILLER_0_17_223
*672 FILLER_0_17_225
*673 FILLER_0_17_237
*674 FILLER_0_17_249
*675 FILLER_0_17_261
*676 FILLER_0_17_27
*677 FILLER_0_17_273
*678 FILLER_0_17_279
*679 FILLER_0_17_281
*680 FILLER_0_17_293
*681 FILLER_0_17_3
*682 FILLER_0_17_305
*683 FILLER_0_17_317
*684 FILLER_0_17_329
*685 FILLER_0_17_335
*686 FILLER_0_17_337
*687 FILLER_0_17_349
*688 FILLER_0_17_361
*689 FILLER_0_17_373
*690 FILLER_0_17_385
*691 FILLER_0_17_39
*692 FILLER_0_17_391
*693 FILLER_0_17_393
*694 FILLER_0_17_405
*695 FILLER_0_17_51
*696 FILLER_0_17_55
*697 FILLER_0_17_57
*698 FILLER_0_17_69
*699 FILLER_0_17_81
*700 FILLER_0_17_93
*701 FILLER_0_18_109
*702 FILLER_0_18_121
*703 FILLER_0_18_133
*704 FILLER_0_18_139
*705 FILLER_0_18_141
*706 FILLER_0_18_15
*707 FILLER_0_18_153
*708 FILLER_0_18_165
*709 FILLER_0_18_177
*710 FILLER_0_18_189
*711 FILLER_0_18_195
*712 FILLER_0_18_197
*713 FILLER_0_18_209
*714 FILLER_0_18_221
*715 FILLER_0_18_233
*716 FILLER_0_18_245
*717 FILLER_0_18_251
*718 FILLER_0_18_253
*719 FILLER_0_18_265
*720 FILLER_0_18_27
*721 FILLER_0_18_277
*722 FILLER_0_18_289
*723 FILLER_0_18_29
*724 FILLER_0_18_3
*725 FILLER_0_18_301
*726 FILLER_0_18_307
*727 FILLER_0_18_309
*728 FILLER_0_18_321
*729 FILLER_0_18_333
*730 FILLER_0_18_345
*731 FILLER_0_18_357
*732 FILLER_0_18_363
*733 FILLER_0_18_365
*734 FILLER_0_18_377
*735 FILLER_0_18_389
*736 FILLER_0_18_401
*737 FILLER_0_18_41
*738 FILLER_0_18_53
*739 FILLER_0_18_65
*740 FILLER_0_18_77
*741 FILLER_0_18_83
*742 FILLER_0_18_85
*743 FILLER_0_18_97
*744 FILLER_0_19_105
*745 FILLER_0_19_111
*746 FILLER_0_19_113
*747 FILLER_0_19_125
*748 FILLER_0_19_137
*749 FILLER_0_19_149
*750 FILLER_0_19_15
*751 FILLER_0_19_161
*752 FILLER_0_19_167
*753 FILLER_0_19_169
*754 FILLER_0_19_181
*755 FILLER_0_19_193
*756 FILLER_0_19_205
*757 FILLER_0_19_217
*758 FILLER_0_19_223
*759 FILLER_0_19_225
*760 FILLER_0_19_237
*761 FILLER_0_19_249
*762 FILLER_0_19_261
*763 FILLER_0_19_27
*764 FILLER_0_19_273
*765 FILLER_0_19_279
*766 FILLER_0_19_281
*767 FILLER_0_19_293
*768 FILLER_0_19_3
*769 FILLER_0_19_305
*770 FILLER_0_19_317
*771 FILLER_0_19_329
*772 FILLER_0_19_335
*773 FILLER_0_19_337
*774 FILLER_0_19_349
*775 FILLER_0_19_361
*776 FILLER_0_19_373
*777 FILLER_0_19_385
*778 FILLER_0_19_39
*779 FILLER_0_19_391
*780 FILLER_0_19_393
*781 FILLER_0_19_405
*782 FILLER_0_19_51
*783 FILLER_0_19_55
*784 FILLER_0_19_57
*785 FILLER_0_19_69
*786 FILLER_0_19_81
*787 FILLER_0_19_93
*788 FILLER_0_1_105
*789 FILLER_0_1_111
*790 FILLER_0_1_113
*791 FILLER_0_1_125
*792 FILLER_0_1_137
*793 FILLER_0_1_149
*794 FILLER_0_1_15
*795 FILLER_0_1_161
*796 FILLER_0_1_167
*797 FILLER_0_1_169
*798 FILLER_0_1_181
*799 FILLER_0_1_193
*800 FILLER_0_1_205
*801 FILLER_0_1_217
*802 FILLER_0_1_223
*803 FILLER_0_1_225
*804 FILLER_0_1_237
*805 FILLER_0_1_249
*806 FILLER_0_1_261
*807 FILLER_0_1_27
*808 FILLER_0_1_273
*809 FILLER_0_1_279
*810 FILLER_0_1_281
*811 FILLER_0_1_293
*812 FILLER_0_1_3
*813 FILLER_0_1_305
*814 FILLER_0_1_317
*815 FILLER_0_1_329
*816 FILLER_0_1_335
*817 FILLER_0_1_337
*818 FILLER_0_1_349
*819 FILLER_0_1_361
*820 FILLER_0_1_373
*821 FILLER_0_1_385
*822 FILLER_0_1_39
*823 FILLER_0_1_391
*824 FILLER_0_1_393
*825 FILLER_0_1_405
*826 FILLER_0_1_51
*827 FILLER_0_1_55
*828 FILLER_0_1_57
*829 FILLER_0_1_69
*830 FILLER_0_1_81
*831 FILLER_0_1_93
*832 FILLER_0_20_109
*833 FILLER_0_20_121
*834 FILLER_0_20_133
*835 FILLER_0_20_139
*836 FILLER_0_20_141
*837 FILLER_0_20_153
*838 FILLER_0_20_165
*839 FILLER_0_20_177
*840 FILLER_0_20_189
*841 FILLER_0_20_19
*842 FILLER_0_20_195
*843 FILLER_0_20_197
*844 FILLER_0_20_209
*845 FILLER_0_20_221
*846 FILLER_0_20_233
*847 FILLER_0_20_245
*848 FILLER_0_20_251
*849 FILLER_0_20_253
*850 FILLER_0_20_265
*851 FILLER_0_20_27
*852 FILLER_0_20_277
*853 FILLER_0_20_289
*854 FILLER_0_20_29
*855 FILLER_0_20_301
*856 FILLER_0_20_307
*857 FILLER_0_20_309
*858 FILLER_0_20_321
*859 FILLER_0_20_333
*860 FILLER_0_20_345
*861 FILLER_0_20_357
*862 FILLER_0_20_363
*863 FILLER_0_20_365
*864 FILLER_0_20_377
*865 FILLER_0_20_389
*866 FILLER_0_20_401
*867 FILLER_0_20_41
*868 FILLER_0_20_53
*869 FILLER_0_20_65
*870 FILLER_0_20_7
*871 FILLER_0_20_77
*872 FILLER_0_20_83
*873 FILLER_0_20_85
*874 FILLER_0_20_97
*875 FILLER_0_21_105
*876 FILLER_0_21_111
*877 FILLER_0_21_113
*878 FILLER_0_21_125
*879 FILLER_0_21_137
*880 FILLER_0_21_149
*881 FILLER_0_21_15
*882 FILLER_0_21_161
*883 FILLER_0_21_167
*884 FILLER_0_21_169
*885 FILLER_0_21_181
*886 FILLER_0_21_193
*887 FILLER_0_21_205
*888 FILLER_0_21_217
*889 FILLER_0_21_223
*890 FILLER_0_21_225
*891 FILLER_0_21_237
*892 FILLER_0_21_249
*893 FILLER_0_21_261
*894 FILLER_0_21_27
*895 FILLER_0_21_273
*896 FILLER_0_21_279
*897 FILLER_0_21_281
*898 FILLER_0_21_293
*899 FILLER_0_21_3
*900 FILLER_0_21_305
*901 FILLER_0_21_317
*902 FILLER_0_21_329
*903 FILLER_0_21_335
*904 FILLER_0_21_337
*905 FILLER_0_21_349
*906 FILLER_0_21_361
*907 FILLER_0_21_373
*908 FILLER_0_21_385
*909 FILLER_0_21_39
*910 FILLER_0_21_391
*911 FILLER_0_21_393
*912 FILLER_0_21_51
*913 FILLER_0_21_55
*914 FILLER_0_21_57
*915 FILLER_0_21_69
*916 FILLER_0_21_81
*917 FILLER_0_21_93
*918 FILLER_0_22_109
*919 FILLER_0_22_121
*920 FILLER_0_22_133
*921 FILLER_0_22_139
*922 FILLER_0_22_141
*923 FILLER_0_22_15
*924 FILLER_0_22_153
*925 FILLER_0_22_165
*926 FILLER_0_22_177
*927 FILLER_0_22_189
*928 FILLER_0_22_195
*929 FILLER_0_22_197
*930 FILLER_0_22_209
*931 FILLER_0_22_221
*932 FILLER_0_22_233
*933 FILLER_0_22_245
*934 FILLER_0_22_251
*935 FILLER_0_22_253
*936 FILLER_0_22_265
*937 FILLER_0_22_27
*938 FILLER_0_22_277
*939 FILLER_0_22_289
*940 FILLER_0_22_29
*941 FILLER_0_22_3
*942 FILLER_0_22_301
*943 FILLER_0_22_307
*944 FILLER_0_22_309
*945 FILLER_0_22_321
*946 FILLER_0_22_333
*947 FILLER_0_22_345
*948 FILLER_0_22_357
*949 FILLER_0_22_363
*950 FILLER_0_22_365
*951 FILLER_0_22_377
*952 FILLER_0_22_389
*953 FILLER_0_22_401
*954 FILLER_0_22_41
*955 FILLER_0_22_53
*956 FILLER_0_22_65
*957 FILLER_0_22_77
*958 FILLER_0_22_83
*959 FILLER_0_22_85
*960 FILLER_0_22_97
*961 FILLER_0_23_105
*962 FILLER_0_23_111
*963 FILLER_0_23_113
*964 FILLER_0_23_125
*965 FILLER_0_23_137
*966 FILLER_0_23_149
*967 FILLER_0_23_15
*968 FILLER_0_23_161
*969 FILLER_0_23_167
*970 FILLER_0_23_169
*971 FILLER_0_23_181
*972 FILLER_0_23_193
*973 FILLER_0_23_205
*974 FILLER_0_23_217
*975 FILLER_0_23_223
*976 FILLER_0_23_225
*977 FILLER_0_23_237
*978 FILLER_0_23_249
*979 FILLER_0_23_261
*980 FILLER_0_23_27
*981 FILLER_0_23_273
*982 FILLER_0_23_279
*983 FILLER_0_23_281
*984 FILLER_0_23_293
*985 FILLER_0_23_3
*986 FILLER_0_23_305
*987 FILLER_0_23_317
*988 FILLER_0_23_329
*989 FILLER_0_23_335
*990 FILLER_0_23_337
*991 FILLER_0_23_349
*992 FILLER_0_23_361
*993 FILLER_0_23_373
*994 FILLER_0_23_385
*995 FILLER_0_23_39
*996 FILLER_0_23_391
*997 FILLER_0_23_393
*998 FILLER_0_23_405
*999 FILLER_0_23_51
*1000 FILLER_0_23_55
*1001 FILLER_0_23_57
*1002 FILLER_0_23_69
*1003 FILLER_0_23_81
*1004 FILLER_0_23_93
*1005 FILLER_0_24_109
*1006 FILLER_0_24_121
*1007 FILLER_0_24_133
*1008 FILLER_0_24_139
*1009 FILLER_0_24_141
*1010 FILLER_0_24_15
*1011 FILLER_0_24_153
*1012 FILLER_0_24_165
*1013 FILLER_0_24_177
*1014 FILLER_0_24_189
*1015 FILLER_0_24_195
*1016 FILLER_0_24_197
*1017 FILLER_0_24_209
*1018 FILLER_0_24_221
*1019 FILLER_0_24_233
*1020 FILLER_0_24_245
*1021 FILLER_0_24_251
*1022 FILLER_0_24_253
*1023 FILLER_0_24_265
*1024 FILLER_0_24_27
*1025 FILLER_0_24_277
*1026 FILLER_0_24_289
*1027 FILLER_0_24_29
*1028 FILLER_0_24_3
*1029 FILLER_0_24_301
*1030 FILLER_0_24_307
*1031 FILLER_0_24_309
*1032 FILLER_0_24_321
*1033 FILLER_0_24_333
*1034 FILLER_0_24_345
*1035 FILLER_0_24_357
*1036 FILLER_0_24_363
*1037 FILLER_0_24_365
*1038 FILLER_0_24_377
*1039 FILLER_0_24_389
*1040 FILLER_0_24_401
*1041 FILLER_0_24_41
*1042 FILLER_0_24_53
*1043 FILLER_0_24_65
*1044 FILLER_0_24_77
*1045 FILLER_0_24_83
*1046 FILLER_0_24_85
*1047 FILLER_0_24_97
*1048 FILLER_0_25_105
*1049 FILLER_0_25_111
*1050 FILLER_0_25_113
*1051 FILLER_0_25_125
*1052 FILLER_0_25_137
*1053 FILLER_0_25_149
*1054 FILLER_0_25_15
*1055 FILLER_0_25_161
*1056 FILLER_0_25_167
*1057 FILLER_0_25_169
*1058 FILLER_0_25_181
*1059 FILLER_0_25_193
*1060 FILLER_0_25_205
*1061 FILLER_0_25_217
*1062 FILLER_0_25_223
*1063 FILLER_0_25_225
*1064 FILLER_0_25_237
*1065 FILLER_0_25_249
*1066 FILLER_0_25_261
*1067 FILLER_0_25_27
*1068 FILLER_0_25_273
*1069 FILLER_0_25_279
*1070 FILLER_0_25_281
*1071 FILLER_0_25_293
*1072 FILLER_0_25_3
*1073 FILLER_0_25_305
*1074 FILLER_0_25_317
*1075 FILLER_0_25_329
*1076 FILLER_0_25_335
*1077 FILLER_0_25_337
*1078 FILLER_0_25_349
*1079 FILLER_0_25_361
*1080 FILLER_0_25_373
*1081 FILLER_0_25_385
*1082 FILLER_0_25_39
*1083 FILLER_0_25_391
*1084 FILLER_0_25_393
*1085 FILLER_0_25_405
*1086 FILLER_0_25_51
*1087 FILLER_0_25_55
*1088 FILLER_0_25_57
*1089 FILLER_0_25_69
*1090 FILLER_0_25_81
*1091 FILLER_0_25_93
*1092 FILLER_0_26_109
*1093 FILLER_0_26_121
*1094 FILLER_0_26_133
*1095 FILLER_0_26_139
*1096 FILLER_0_26_141
*1097 FILLER_0_26_15
*1098 FILLER_0_26_153
*1099 FILLER_0_26_165
*1100 FILLER_0_26_177
*1101 FILLER_0_26_189
*1102 FILLER_0_26_195
*1103 FILLER_0_26_197
*1104 FILLER_0_26_209
*1105 FILLER_0_26_221
*1106 FILLER_0_26_233
*1107 FILLER_0_26_245
*1108 FILLER_0_26_251
*1109 FILLER_0_26_253
*1110 FILLER_0_26_265
*1111 FILLER_0_26_27
*1112 FILLER_0_26_277
*1113 FILLER_0_26_289
*1114 FILLER_0_26_29
*1115 FILLER_0_26_3
*1116 FILLER_0_26_301
*1117 FILLER_0_26_307
*1118 FILLER_0_26_309
*1119 FILLER_0_26_321
*1120 FILLER_0_26_333
*1121 FILLER_0_26_345
*1122 FILLER_0_26_357
*1123 FILLER_0_26_363
*1124 FILLER_0_26_365
*1125 FILLER_0_26_377
*1126 FILLER_0_26_389
*1127 FILLER_0_26_401
*1128 FILLER_0_26_41
*1129 FILLER_0_26_53
*1130 FILLER_0_26_65
*1131 FILLER_0_26_77
*1132 FILLER_0_26_83
*1133 FILLER_0_26_85
*1134 FILLER_0_26_97
*1135 FILLER_0_27_105
*1136 FILLER_0_27_111
*1137 FILLER_0_27_113
*1138 FILLER_0_27_125
*1139 FILLER_0_27_137
*1140 FILLER_0_27_149
*1141 FILLER_0_27_161
*1142 FILLER_0_27_167
*1143 FILLER_0_27_169
*1144 FILLER_0_27_181
*1145 FILLER_0_27_19
*1146 FILLER_0_27_193
*1147 FILLER_0_27_205
*1148 FILLER_0_27_217
*1149 FILLER_0_27_223
*1150 FILLER_0_27_225
*1151 FILLER_0_27_237
*1152 FILLER_0_27_249
*1153 FILLER_0_27_261
*1154 FILLER_0_27_273
*1155 FILLER_0_27_279
*1156 FILLER_0_27_281
*1157 FILLER_0_27_293
*1158 FILLER_0_27_305
*1159 FILLER_0_27_31
*1160 FILLER_0_27_317
*1161 FILLER_0_27_329
*1162 FILLER_0_27_335
*1163 FILLER_0_27_337
*1164 FILLER_0_27_349
*1165 FILLER_0_27_361
*1166 FILLER_0_27_373
*1167 FILLER_0_27_385
*1168 FILLER_0_27_391
*1169 FILLER_0_27_393
*1170 FILLER_0_27_405
*1171 FILLER_0_27_43
*1172 FILLER_0_27_55
*1173 FILLER_0_27_57
*1174 FILLER_0_27_69
*1175 FILLER_0_27_7
*1176 FILLER_0_27_81
*1177 FILLER_0_27_93
*1178 FILLER_0_28_109
*1179 FILLER_0_28_121
*1180 FILLER_0_28_133
*1181 FILLER_0_28_139
*1182 FILLER_0_28_141
*1183 FILLER_0_28_15
*1184 FILLER_0_28_153
*1185 FILLER_0_28_165
*1186 FILLER_0_28_177
*1187 FILLER_0_28_189
*1188 FILLER_0_28_195
*1189 FILLER_0_28_197
*1190 FILLER_0_28_209
*1191 FILLER_0_28_221
*1192 FILLER_0_28_233
*1193 FILLER_0_28_245
*1194 FILLER_0_28_251
*1195 FILLER_0_28_253
*1196 FILLER_0_28_265
*1197 FILLER_0_28_27
*1198 FILLER_0_28_277
*1199 FILLER_0_28_289
*1200 FILLER_0_28_29
*1201 FILLER_0_28_3
*1202 FILLER_0_28_301
*1203 FILLER_0_28_307
*1204 FILLER_0_28_309
*1205 FILLER_0_28_321
*1206 FILLER_0_28_333
*1207 FILLER_0_28_345
*1208 FILLER_0_28_357
*1209 FILLER_0_28_363
*1210 FILLER_0_28_365
*1211 FILLER_0_28_377
*1212 FILLER_0_28_389
*1213 FILLER_0_28_401
*1214 FILLER_0_28_41
*1215 FILLER_0_28_53
*1216 FILLER_0_28_65
*1217 FILLER_0_28_77
*1218 FILLER_0_28_83
*1219 FILLER_0_28_85
*1220 FILLER_0_28_97
*1221 FILLER_0_29_105
*1222 FILLER_0_29_111
*1223 FILLER_0_29_113
*1224 FILLER_0_29_125
*1225 FILLER_0_29_137
*1226 FILLER_0_29_149
*1227 FILLER_0_29_15
*1228 FILLER_0_29_161
*1229 FILLER_0_29_167
*1230 FILLER_0_29_169
*1231 FILLER_0_29_181
*1232 FILLER_0_29_193
*1233 FILLER_0_29_205
*1234 FILLER_0_29_217
*1235 FILLER_0_29_223
*1236 FILLER_0_29_225
*1237 FILLER_0_29_237
*1238 FILLER_0_29_249
*1239 FILLER_0_29_261
*1240 FILLER_0_29_27
*1241 FILLER_0_29_273
*1242 FILLER_0_29_279
*1243 FILLER_0_29_281
*1244 FILLER_0_29_293
*1245 FILLER_0_29_3
*1246 FILLER_0_29_305
*1247 FILLER_0_29_317
*1248 FILLER_0_29_329
*1249 FILLER_0_29_335
*1250 FILLER_0_29_337
*1251 FILLER_0_29_349
*1252 FILLER_0_29_361
*1253 FILLER_0_29_373
*1254 FILLER_0_29_385
*1255 FILLER_0_29_39
*1256 FILLER_0_29_391
*1257 FILLER_0_29_393
*1258 FILLER_0_29_405
*1259 FILLER_0_29_51
*1260 FILLER_0_29_55
*1261 FILLER_0_29_57
*1262 FILLER_0_29_69
*1263 FILLER_0_29_77
*1264 FILLER_0_2_109
*1265 FILLER_0_2_121
*1266 FILLER_0_2_133
*1267 FILLER_0_2_139
*1268 FILLER_0_2_141
*1269 FILLER_0_2_15
*1270 FILLER_0_2_153
*1271 FILLER_0_2_165
*1272 FILLER_0_2_177
*1273 FILLER_0_2_189
*1274 FILLER_0_2_195
*1275 FILLER_0_2_197
*1276 FILLER_0_2_209
*1277 FILLER_0_2_221
*1278 FILLER_0_2_233
*1279 FILLER_0_2_245
*1280 FILLER_0_2_251
*1281 FILLER_0_2_253
*1282 FILLER_0_2_265
*1283 FILLER_0_2_27
*1284 FILLER_0_2_277
*1285 FILLER_0_2_289
*1286 FILLER_0_2_29
*1287 FILLER_0_2_3
*1288 FILLER_0_2_301
*1289 FILLER_0_2_307
*1290 FILLER_0_2_309
*1291 FILLER_0_2_321
*1292 FILLER_0_2_333
*1293 FILLER_0_2_345
*1294 FILLER_0_2_357
*1295 FILLER_0_2_363
*1296 FILLER_0_2_365
*1297 FILLER_0_2_377
*1298 FILLER_0_2_389
*1299 FILLER_0_2_401
*1300 FILLER_0_2_41
*1301 FILLER_0_2_53
*1302 FILLER_0_2_65
*1303 FILLER_0_2_77
*1304 FILLER_0_2_83
*1305 FILLER_0_2_85
*1306 FILLER_0_2_97
*1307 FILLER_0_30_131
*1308 FILLER_0_30_139
*1309 FILLER_0_30_141
*1310 FILLER_0_30_15
*1311 FILLER_0_30_153
*1312 FILLER_0_30_165
*1313 FILLER_0_30_177
*1314 FILLER_0_30_189
*1315 FILLER_0_30_195
*1316 FILLER_0_30_203
*1317 FILLER_0_30_207
*1318 FILLER_0_30_220
*1319 FILLER_0_30_233
*1320 FILLER_0_30_245
*1321 FILLER_0_30_251
*1322 FILLER_0_30_253
*1323 FILLER_0_30_265
*1324 FILLER_0_30_27
*1325 FILLER_0_30_277
*1326 FILLER_0_30_289
*1327 FILLER_0_30_29
*1328 FILLER_0_30_3
*1329 FILLER_0_30_301
*1330 FILLER_0_30_307
*1331 FILLER_0_30_309
*1332 FILLER_0_30_321
*1333 FILLER_0_30_333
*1334 FILLER_0_30_345
*1335 FILLER_0_30_357
*1336 FILLER_0_30_363
*1337 FILLER_0_30_365
*1338 FILLER_0_30_377
*1339 FILLER_0_30_389
*1340 FILLER_0_30_401
*1341 FILLER_0_30_41
*1342 FILLER_0_30_53
*1343 FILLER_0_30_65
*1344 FILLER_0_30_77
*1345 FILLER_0_30_83
*1346 FILLER_0_30_85
*1347 FILLER_0_31_103
*1348 FILLER_0_31_111
*1349 FILLER_0_31_120
*1350 FILLER_0_31_132
*1351 FILLER_0_31_143
*1352 FILLER_0_31_147
*1353 FILLER_0_31_15
*1354 FILLER_0_31_167
*1355 FILLER_0_31_169
*1356 FILLER_0_31_201
*1357 FILLER_0_31_214
*1358 FILLER_0_31_245
*1359 FILLER_0_31_257
*1360 FILLER_0_31_269
*1361 FILLER_0_31_27
*1362 FILLER_0_31_277
*1363 FILLER_0_31_281
*1364 FILLER_0_31_293
*1365 FILLER_0_31_3
*1366 FILLER_0_31_305
*1367 FILLER_0_31_317
*1368 FILLER_0_31_329
*1369 FILLER_0_31_335
*1370 FILLER_0_31_337
*1371 FILLER_0_31_349
*1372 FILLER_0_31_361
*1373 FILLER_0_31_373
*1374 FILLER_0_31_385
*1375 FILLER_0_31_39
*1376 FILLER_0_31_391
*1377 FILLER_0_31_393
*1378 FILLER_0_31_405
*1379 FILLER_0_31_51
*1380 FILLER_0_31_55
*1381 FILLER_0_31_57
*1382 FILLER_0_31_69
*1383 FILLER_0_31_81
*1384 FILLER_0_32_102
*1385 FILLER_0_32_114
*1386 FILLER_0_32_125
*1387 FILLER_0_32_129
*1388 FILLER_0_32_144
*1389 FILLER_0_32_15
*1390 FILLER_0_32_166
*1391 FILLER_0_32_176
*1392 FILLER_0_32_184
*1393 FILLER_0_32_197
*1394 FILLER_0_32_205
*1395 FILLER_0_32_214
*1396 FILLER_0_32_222
*1397 FILLER_0_32_237
*1398 FILLER_0_32_249
*1399 FILLER_0_32_253
*1400 FILLER_0_32_265
*1401 FILLER_0_32_27
*1402 FILLER_0_32_277
*1403 FILLER_0_32_289
*1404 FILLER_0_32_29
*1405 FILLER_0_32_3
*1406 FILLER_0_32_301
*1407 FILLER_0_32_307
*1408 FILLER_0_32_309
*1409 FILLER_0_32_321
*1410 FILLER_0_32_333
*1411 FILLER_0_32_345
*1412 FILLER_0_32_357
*1413 FILLER_0_32_363
*1414 FILLER_0_32_365
*1415 FILLER_0_32_377
*1416 FILLER_0_32_389
*1417 FILLER_0_32_401
*1418 FILLER_0_32_41
*1419 FILLER_0_32_53
*1420 FILLER_0_32_65
*1421 FILLER_0_32_77
*1422 FILLER_0_32_83
*1423 FILLER_0_32_85
*1424 FILLER_0_33_109
*1425 FILLER_0_33_142
*1426 FILLER_0_33_15
*1427 FILLER_0_33_158
*1428 FILLER_0_33_166
*1429 FILLER_0_33_176
*1430 FILLER_0_33_184
*1431 FILLER_0_33_196
*1432 FILLER_0_33_222
*1433 FILLER_0_33_246
*1434 FILLER_0_33_258
*1435 FILLER_0_33_27
*1436 FILLER_0_33_270
*1437 FILLER_0_33_278
*1438 FILLER_0_33_281
*1439 FILLER_0_33_293
*1440 FILLER_0_33_3
*1441 FILLER_0_33_305
*1442 FILLER_0_33_317
*1443 FILLER_0_33_329
*1444 FILLER_0_33_335
*1445 FILLER_0_33_337
*1446 FILLER_0_33_349
*1447 FILLER_0_33_361
*1448 FILLER_0_33_373
*1449 FILLER_0_33_385
*1450 FILLER_0_33_39
*1451 FILLER_0_33_391
*1452 FILLER_0_33_393
*1453 FILLER_0_33_405
*1454 FILLER_0_33_51
*1455 FILLER_0_33_55
*1456 FILLER_0_33_57
*1457 FILLER_0_33_69
*1458 FILLER_0_33_81
*1459 FILLER_0_34_100
*1460 FILLER_0_34_133
*1461 FILLER_0_34_139
*1462 FILLER_0_34_141
*1463 FILLER_0_34_15
*1464 FILLER_0_34_157
*1465 FILLER_0_34_197
*1466 FILLER_0_34_216
*1467 FILLER_0_34_228
*1468 FILLER_0_34_235
*1469 FILLER_0_34_247
*1470 FILLER_0_34_251
*1471 FILLER_0_34_253
*1472 FILLER_0_34_265
*1473 FILLER_0_34_27
*1474 FILLER_0_34_277
*1475 FILLER_0_34_289
*1476 FILLER_0_34_29
*1477 FILLER_0_34_3
*1478 FILLER_0_34_301
*1479 FILLER_0_34_307
*1480 FILLER_0_34_309
*1481 FILLER_0_34_321
*1482 FILLER_0_34_333
*1483 FILLER_0_34_345
*1484 FILLER_0_34_357
*1485 FILLER_0_34_363
*1486 FILLER_0_34_365
*1487 FILLER_0_34_377
*1488 FILLER_0_34_389
*1489 FILLER_0_34_401
*1490 FILLER_0_34_41
*1491 FILLER_0_34_53
*1492 FILLER_0_34_65
*1493 FILLER_0_34_77
*1494 FILLER_0_34_83
*1495 FILLER_0_34_85
*1496 FILLER_0_34_95
*1497 FILLER_0_35_107
*1498 FILLER_0_35_111
*1499 FILLER_0_35_120
*1500 FILLER_0_35_127
*1501 FILLER_0_35_139
*1502 FILLER_0_35_157
*1503 FILLER_0_35_166
*1504 FILLER_0_35_173
*1505 FILLER_0_35_179
*1506 FILLER_0_35_191
*1507 FILLER_0_35_203
*1508 FILLER_0_35_207
*1509 FILLER_0_35_21
*1510 FILLER_0_35_219
*1511 FILLER_0_35_223
*1512 FILLER_0_35_245
*1513 FILLER_0_35_257
*1514 FILLER_0_35_269
*1515 FILLER_0_35_277
*1516 FILLER_0_35_281
*1517 FILLER_0_35_293
*1518 FILLER_0_35_305
*1519 FILLER_0_35_317
*1520 FILLER_0_35_329
*1521 FILLER_0_35_33
*1522 FILLER_0_35_335
*1523 FILLER_0_35_337
*1524 FILLER_0_35_349
*1525 FILLER_0_35_361
*1526 FILLER_0_35_373
*1527 FILLER_0_35_385
*1528 FILLER_0_35_391
*1529 FILLER_0_35_393
*1530 FILLER_0_35_405
*1531 FILLER_0_35_45
*1532 FILLER_0_35_53
*1533 FILLER_0_35_57
*1534 FILLER_0_35_69
*1535 FILLER_0_35_81
*1536 FILLER_0_35_9
*1537 FILLER_0_36_104
*1538 FILLER_0_36_133
*1539 FILLER_0_36_15
*1540 FILLER_0_36_185
*1541 FILLER_0_36_189
*1542 FILLER_0_36_197
*1543 FILLER_0_36_205
*1544 FILLER_0_36_213
*1545 FILLER_0_36_221
*1546 FILLER_0_36_229
*1547 FILLER_0_36_241
*1548 FILLER_0_36_249
*1549 FILLER_0_36_253
*1550 FILLER_0_36_265
*1551 FILLER_0_36_27
*1552 FILLER_0_36_277
*1553 FILLER_0_36_289
*1554 FILLER_0_36_29
*1555 FILLER_0_36_3
*1556 FILLER_0_36_301
*1557 FILLER_0_36_307
*1558 FILLER_0_36_309
*1559 FILLER_0_36_321
*1560 FILLER_0_36_333
*1561 FILLER_0_36_345
*1562 FILLER_0_36_357
*1563 FILLER_0_36_363
*1564 FILLER_0_36_365
*1565 FILLER_0_36_377
*1566 FILLER_0_36_389
*1567 FILLER_0_36_401
*1568 FILLER_0_36_41
*1569 FILLER_0_36_53
*1570 FILLER_0_36_65
*1571 FILLER_0_36_77
*1572 FILLER_0_36_83
*1573 FILLER_0_36_85
*1574 FILLER_0_37_100
*1575 FILLER_0_37_113
*1576 FILLER_0_37_137
*1577 FILLER_0_37_145
*1578 FILLER_0_37_15
*1579 FILLER_0_37_167
*1580 FILLER_0_37_174
*1581 FILLER_0_37_182
*1582 FILLER_0_37_190
*1583 FILLER_0_37_201
*1584 FILLER_0_37_207
*1585 FILLER_0_37_220
*1586 FILLER_0_37_237
*1587 FILLER_0_37_249
*1588 FILLER_0_37_261
*1589 FILLER_0_37_27
*1590 FILLER_0_37_273
*1591 FILLER_0_37_279
*1592 FILLER_0_37_281
*1593 FILLER_0_37_293
*1594 FILLER_0_37_3
*1595 FILLER_0_37_305
*1596 FILLER_0_37_317
*1597 FILLER_0_37_329
*1598 FILLER_0_37_335
*1599 FILLER_0_37_337
*1600 FILLER_0_37_349
*1601 FILLER_0_37_361
*1602 FILLER_0_37_373
*1603 FILLER_0_37_385
*1604 FILLER_0_37_39
*1605 FILLER_0_37_391
*1606 FILLER_0_37_393
*1607 FILLER_0_37_401
*1608 FILLER_0_37_51
*1609 FILLER_0_37_55
*1610 FILLER_0_37_57
*1611 FILLER_0_37_69
*1612 FILLER_0_37_77
*1613 FILLER_0_38_119
*1614 FILLER_0_38_131
*1615 FILLER_0_38_139
*1616 FILLER_0_38_141
*1617 FILLER_0_38_15
*1618 FILLER_0_38_153
*1619 FILLER_0_38_170
*1620 FILLER_0_38_195
*1621 FILLER_0_38_197
*1622 FILLER_0_38_201
*1623 FILLER_0_38_209
*1624 FILLER_0_38_217
*1625 FILLER_0_38_243
*1626 FILLER_0_38_251
*1627 FILLER_0_38_253
*1628 FILLER_0_38_265
*1629 FILLER_0_38_27
*1630 FILLER_0_38_277
*1631 FILLER_0_38_289
*1632 FILLER_0_38_29
*1633 FILLER_0_38_3
*1634 FILLER_0_38_301
*1635 FILLER_0_38_307
*1636 FILLER_0_38_309
*1637 FILLER_0_38_321
*1638 FILLER_0_38_333
*1639 FILLER_0_38_345
*1640 FILLER_0_38_357
*1641 FILLER_0_38_363
*1642 FILLER_0_38_365
*1643 FILLER_0_38_377
*1644 FILLER_0_38_389
*1645 FILLER_0_38_401
*1646 FILLER_0_38_41
*1647 FILLER_0_38_53
*1648 FILLER_0_38_65
*1649 FILLER_0_38_77
*1650 FILLER_0_38_83
*1651 FILLER_0_38_85
*1652 FILLER_0_38_94
*1653 FILLER_0_39_128
*1654 FILLER_0_39_148
*1655 FILLER_0_39_15
*1656 FILLER_0_39_161
*1657 FILLER_0_39_167
*1658 FILLER_0_39_173
*1659 FILLER_0_39_189
*1660 FILLER_0_39_210
*1661 FILLER_0_39_225
*1662 FILLER_0_39_237
*1663 FILLER_0_39_249
*1664 FILLER_0_39_261
*1665 FILLER_0_39_27
*1666 FILLER_0_39_273
*1667 FILLER_0_39_279
*1668 FILLER_0_39_281
*1669 FILLER_0_39_293
*1670 FILLER_0_39_3
*1671 FILLER_0_39_305
*1672 FILLER_0_39_317
*1673 FILLER_0_39_329
*1674 FILLER_0_39_335
*1675 FILLER_0_39_337
*1676 FILLER_0_39_349
*1677 FILLER_0_39_361
*1678 FILLER_0_39_373
*1679 FILLER_0_39_385
*1680 FILLER_0_39_39
*1681 FILLER_0_39_391
*1682 FILLER_0_39_393
*1683 FILLER_0_39_405
*1684 FILLER_0_39_51
*1685 FILLER_0_39_55
*1686 FILLER_0_39_57
*1687 FILLER_0_39_69
*1688 FILLER_0_39_81
*1689 FILLER_0_39_89
*1690 FILLER_0_3_105
*1691 FILLER_0_3_111
*1692 FILLER_0_3_113
*1693 FILLER_0_3_125
*1694 FILLER_0_3_137
*1695 FILLER_0_3_149
*1696 FILLER_0_3_15
*1697 FILLER_0_3_161
*1698 FILLER_0_3_167
*1699 FILLER_0_3_169
*1700 FILLER_0_3_181
*1701 FILLER_0_3_193
*1702 FILLER_0_3_205
*1703 FILLER_0_3_217
*1704 FILLER_0_3_223
*1705 FILLER_0_3_225
*1706 FILLER_0_3_237
*1707 FILLER_0_3_249
*1708 FILLER_0_3_261
*1709 FILLER_0_3_27
*1710 FILLER_0_3_273
*1711 FILLER_0_3_279
*1712 FILLER_0_3_281
*1713 FILLER_0_3_293
*1714 FILLER_0_3_3
*1715 FILLER_0_3_305
*1716 FILLER_0_3_317
*1717 FILLER_0_3_329
*1718 FILLER_0_3_335
*1719 FILLER_0_3_337
*1720 FILLER_0_3_349
*1721 FILLER_0_3_361
*1722 FILLER_0_3_373
*1723 FILLER_0_3_385
*1724 FILLER_0_3_39
*1725 FILLER_0_3_391
*1726 FILLER_0_3_393
*1727 FILLER_0_3_405
*1728 FILLER_0_3_51
*1729 FILLER_0_3_55
*1730 FILLER_0_3_57
*1731 FILLER_0_3_69
*1732 FILLER_0_3_81
*1733 FILLER_0_3_93
*1734 FILLER_0_40_105
*1735 FILLER_0_40_118
*1736 FILLER_0_40_137
*1737 FILLER_0_40_141
*1738 FILLER_0_40_149
*1739 FILLER_0_40_15
*1740 FILLER_0_40_164
*1741 FILLER_0_40_174
*1742 FILLER_0_40_181
*1743 FILLER_0_40_187
*1744 FILLER_0_40_195
*1745 FILLER_0_40_197
*1746 FILLER_0_40_203
*1747 FILLER_0_40_211
*1748 FILLER_0_40_219
*1749 FILLER_0_40_231
*1750 FILLER_0_40_243
*1751 FILLER_0_40_251
*1752 FILLER_0_40_253
*1753 FILLER_0_40_265
*1754 FILLER_0_40_27
*1755 FILLER_0_40_277
*1756 FILLER_0_40_289
*1757 FILLER_0_40_29
*1758 FILLER_0_40_3
*1759 FILLER_0_40_301
*1760 FILLER_0_40_307
*1761 FILLER_0_40_309
*1762 FILLER_0_40_321
*1763 FILLER_0_40_333
*1764 FILLER_0_40_345
*1765 FILLER_0_40_357
*1766 FILLER_0_40_363
*1767 FILLER_0_40_365
*1768 FILLER_0_40_377
*1769 FILLER_0_40_389
*1770 FILLER_0_40_401
*1771 FILLER_0_40_41
*1772 FILLER_0_40_53
*1773 FILLER_0_40_65
*1774 FILLER_0_40_77
*1775 FILLER_0_40_83
*1776 FILLER_0_41_126
*1777 FILLER_0_41_140
*1778 FILLER_0_41_15
*1779 FILLER_0_41_165
*1780 FILLER_0_41_175
*1781 FILLER_0_41_194
*1782 FILLER_0_41_206
*1783 FILLER_0_41_218
*1784 FILLER_0_41_225
*1785 FILLER_0_41_237
*1786 FILLER_0_41_249
*1787 FILLER_0_41_261
*1788 FILLER_0_41_27
*1789 FILLER_0_41_273
*1790 FILLER_0_41_279
*1791 FILLER_0_41_281
*1792 FILLER_0_41_293
*1793 FILLER_0_41_3
*1794 FILLER_0_41_305
*1795 FILLER_0_41_317
*1796 FILLER_0_41_329
*1797 FILLER_0_41_335
*1798 FILLER_0_41_337
*1799 FILLER_0_41_349
*1800 FILLER_0_41_361
*1801 FILLER_0_41_373
*1802 FILLER_0_41_385
*1803 FILLER_0_41_39
*1804 FILLER_0_41_391
*1805 FILLER_0_41_393
*1806 FILLER_0_41_405
*1807 FILLER_0_41_51
*1808 FILLER_0_41_55
*1809 FILLER_0_41_57
*1810 FILLER_0_41_69
*1811 FILLER_0_41_81
*1812 FILLER_0_42_121
*1813 FILLER_0_42_125
*1814 FILLER_0_42_15
*1815 FILLER_0_42_163
*1816 FILLER_0_42_169
*1817 FILLER_0_42_176
*1818 FILLER_0_42_184
*1819 FILLER_0_42_193
*1820 FILLER_0_42_202
*1821 FILLER_0_42_214
*1822 FILLER_0_42_226
*1823 FILLER_0_42_238
*1824 FILLER_0_42_250
*1825 FILLER_0_42_253
*1826 FILLER_0_42_265
*1827 FILLER_0_42_27
*1828 FILLER_0_42_277
*1829 FILLER_0_42_289
*1830 FILLER_0_42_29
*1831 FILLER_0_42_3
*1832 FILLER_0_42_301
*1833 FILLER_0_42_307
*1834 FILLER_0_42_309
*1835 FILLER_0_42_321
*1836 FILLER_0_42_333
*1837 FILLER_0_42_345
*1838 FILLER_0_42_357
*1839 FILLER_0_42_363
*1840 FILLER_0_42_365
*1841 FILLER_0_42_377
*1842 FILLER_0_42_389
*1843 FILLER_0_42_401
*1844 FILLER_0_42_41
*1845 FILLER_0_42_53
*1846 FILLER_0_42_65
*1847 FILLER_0_42_77
*1848 FILLER_0_42_83
*1849 FILLER_0_42_85
*1850 FILLER_0_43_105
*1851 FILLER_0_43_111
*1852 FILLER_0_43_113
*1853 FILLER_0_43_125
*1854 FILLER_0_43_129
*1855 FILLER_0_43_138
*1856 FILLER_0_43_15
*1857 FILLER_0_43_165
*1858 FILLER_0_43_173
*1859 FILLER_0_43_185
*1860 FILLER_0_43_199
*1861 FILLER_0_43_211
*1862 FILLER_0_43_223
*1863 FILLER_0_43_225
*1864 FILLER_0_43_237
*1865 FILLER_0_43_249
*1866 FILLER_0_43_261
*1867 FILLER_0_43_27
*1868 FILLER_0_43_273
*1869 FILLER_0_43_279
*1870 FILLER_0_43_281
*1871 FILLER_0_43_293
*1872 FILLER_0_43_3
*1873 FILLER_0_43_305
*1874 FILLER_0_43_317
*1875 FILLER_0_43_329
*1876 FILLER_0_43_335
*1877 FILLER_0_43_337
*1878 FILLER_0_43_349
*1879 FILLER_0_43_361
*1880 FILLER_0_43_373
*1881 FILLER_0_43_385
*1882 FILLER_0_43_39
*1883 FILLER_0_43_391
*1884 FILLER_0_43_393
*1885 FILLER_0_43_405
*1886 FILLER_0_43_51
*1887 FILLER_0_43_55
*1888 FILLER_0_43_57
*1889 FILLER_0_43_69
*1890 FILLER_0_43_81
*1891 FILLER_0_43_93
*1892 FILLER_0_44_105
*1893 FILLER_0_44_154
*1894 FILLER_0_44_166
*1895 FILLER_0_44_172
*1896 FILLER_0_44_195
*1897 FILLER_0_44_197
*1898 FILLER_0_44_209
*1899 FILLER_0_44_21
*1900 FILLER_0_44_221
*1901 FILLER_0_44_233
*1902 FILLER_0_44_245
*1903 FILLER_0_44_251
*1904 FILLER_0_44_253
*1905 FILLER_0_44_265
*1906 FILLER_0_44_27
*1907 FILLER_0_44_277
*1908 FILLER_0_44_289
*1909 FILLER_0_44_29
*1910 FILLER_0_44_301
*1911 FILLER_0_44_307
*1912 FILLER_0_44_309
*1913 FILLER_0_44_321
*1914 FILLER_0_44_333
*1915 FILLER_0_44_345
*1916 FILLER_0_44_357
*1917 FILLER_0_44_363
*1918 FILLER_0_44_365
*1919 FILLER_0_44_377
*1920 FILLER_0_44_389
*1921 FILLER_0_44_401
*1922 FILLER_0_44_41
*1923 FILLER_0_44_53
*1924 FILLER_0_44_65
*1925 FILLER_0_44_77
*1926 FILLER_0_44_83
*1927 FILLER_0_44_85
*1928 FILLER_0_44_9
*1929 FILLER_0_44_97
*1930 FILLER_0_45_105
*1931 FILLER_0_45_111
*1932 FILLER_0_45_119
*1933 FILLER_0_45_125
*1934 FILLER_0_45_143
*1935 FILLER_0_45_15
*1936 FILLER_0_45_151
*1937 FILLER_0_45_158
*1938 FILLER_0_45_164
*1939 FILLER_0_45_178
*1940 FILLER_0_45_185
*1941 FILLER_0_45_197
*1942 FILLER_0_45_209
*1943 FILLER_0_45_221
*1944 FILLER_0_45_225
*1945 FILLER_0_45_237
*1946 FILLER_0_45_249
*1947 FILLER_0_45_261
*1948 FILLER_0_45_27
*1949 FILLER_0_45_273
*1950 FILLER_0_45_279
*1951 FILLER_0_45_281
*1952 FILLER_0_45_293
*1953 FILLER_0_45_3
*1954 FILLER_0_45_305
*1955 FILLER_0_45_317
*1956 FILLER_0_45_329
*1957 FILLER_0_45_335
*1958 FILLER_0_45_337
*1959 FILLER_0_45_349
*1960 FILLER_0_45_361
*1961 FILLER_0_45_373
*1962 FILLER_0_45_385
*1963 FILLER_0_45_39
*1964 FILLER_0_45_391
*1965 FILLER_0_45_393
*1966 FILLER_0_45_401
*1967 FILLER_0_45_51
*1968 FILLER_0_45_55
*1969 FILLER_0_45_57
*1970 FILLER_0_45_69
*1971 FILLER_0_45_81
*1972 FILLER_0_45_93
*1973 FILLER_0_46_109
*1974 FILLER_0_46_121
*1975 FILLER_0_46_147
*1976 FILLER_0_46_15
*1977 FILLER_0_46_151
*1978 FILLER_0_46_166
*1979 FILLER_0_46_178
*1980 FILLER_0_46_184
*1981 FILLER_0_46_193
*1982 FILLER_0_46_197
*1983 FILLER_0_46_209
*1984 FILLER_0_46_221
*1985 FILLER_0_46_233
*1986 FILLER_0_46_245
*1987 FILLER_0_46_251
*1988 FILLER_0_46_253
*1989 FILLER_0_46_265
*1990 FILLER_0_46_27
*1991 FILLER_0_46_277
*1992 FILLER_0_46_289
*1993 FILLER_0_46_29
*1994 FILLER_0_46_3
*1995 FILLER_0_46_301
*1996 FILLER_0_46_307
*1997 FILLER_0_46_309
*1998 FILLER_0_46_321
*1999 FILLER_0_46_333
*2000 FILLER_0_46_345
*2001 FILLER_0_46_357
*2002 FILLER_0_46_363
*2003 FILLER_0_46_365
*2004 FILLER_0_46_377
*2005 FILLER_0_46_389
*2006 FILLER_0_46_401
*2007 FILLER_0_46_41
*2008 FILLER_0_46_53
*2009 FILLER_0_46_65
*2010 FILLER_0_46_77
*2011 FILLER_0_46_83
*2012 FILLER_0_46_85
*2013 FILLER_0_46_97
*2014 FILLER_0_47_105
*2015 FILLER_0_47_111
*2016 FILLER_0_47_113
*2017 FILLER_0_47_125
*2018 FILLER_0_47_143
*2019 FILLER_0_47_15
*2020 FILLER_0_47_151
*2021 FILLER_0_47_163
*2022 FILLER_0_47_167
*2023 FILLER_0_47_169
*2024 FILLER_0_47_178
*2025 FILLER_0_47_200
*2026 FILLER_0_47_208
*2027 FILLER_0_47_215
*2028 FILLER_0_47_223
*2029 FILLER_0_47_225
*2030 FILLER_0_47_237
*2031 FILLER_0_47_249
*2032 FILLER_0_47_261
*2033 FILLER_0_47_27
*2034 FILLER_0_47_273
*2035 FILLER_0_47_279
*2036 FILLER_0_47_281
*2037 FILLER_0_47_293
*2038 FILLER_0_47_3
*2039 FILLER_0_47_305
*2040 FILLER_0_47_317
*2041 FILLER_0_47_329
*2042 FILLER_0_47_335
*2043 FILLER_0_47_337
*2044 FILLER_0_47_349
*2045 FILLER_0_47_361
*2046 FILLER_0_47_373
*2047 FILLER_0_47_385
*2048 FILLER_0_47_39
*2049 FILLER_0_47_391
*2050 FILLER_0_47_393
*2051 FILLER_0_47_405
*2052 FILLER_0_47_51
*2053 FILLER_0_47_55
*2054 FILLER_0_47_57
*2055 FILLER_0_47_69
*2056 FILLER_0_47_81
*2057 FILLER_0_47_93
*2058 FILLER_0_48_109
*2059 FILLER_0_48_121
*2060 FILLER_0_48_133
*2061 FILLER_0_48_146
*2062 FILLER_0_48_15
*2063 FILLER_0_48_171
*2064 FILLER_0_48_192
*2065 FILLER_0_48_197
*2066 FILLER_0_48_209
*2067 FILLER_0_48_221
*2068 FILLER_0_48_233
*2069 FILLER_0_48_245
*2070 FILLER_0_48_251
*2071 FILLER_0_48_253
*2072 FILLER_0_48_265
*2073 FILLER_0_48_27
*2074 FILLER_0_48_277
*2075 FILLER_0_48_289
*2076 FILLER_0_48_29
*2077 FILLER_0_48_3
*2078 FILLER_0_48_301
*2079 FILLER_0_48_307
*2080 FILLER_0_48_309
*2081 FILLER_0_48_321
*2082 FILLER_0_48_333
*2083 FILLER_0_48_345
*2084 FILLER_0_48_357
*2085 FILLER_0_48_363
*2086 FILLER_0_48_365
*2087 FILLER_0_48_377
*2088 FILLER_0_48_389
*2089 FILLER_0_48_401
*2090 FILLER_0_48_41
*2091 FILLER_0_48_53
*2092 FILLER_0_48_65
*2093 FILLER_0_48_77
*2094 FILLER_0_48_83
*2095 FILLER_0_48_85
*2096 FILLER_0_48_97
*2097 FILLER_0_49_105
*2098 FILLER_0_49_111
*2099 FILLER_0_49_113
*2100 FILLER_0_49_125
*2101 FILLER_0_49_137
*2102 FILLER_0_49_15
*2103 FILLER_0_49_166
*2104 FILLER_0_49_169
*2105 FILLER_0_49_173
*2106 FILLER_0_49_183
*2107 FILLER_0_49_195
*2108 FILLER_0_49_207
*2109 FILLER_0_49_219
*2110 FILLER_0_49_223
*2111 FILLER_0_49_225
*2112 FILLER_0_49_237
*2113 FILLER_0_49_249
*2114 FILLER_0_49_261
*2115 FILLER_0_49_27
*2116 FILLER_0_49_273
*2117 FILLER_0_49_279
*2118 FILLER_0_49_281
*2119 FILLER_0_49_293
*2120 FILLER_0_49_3
*2121 FILLER_0_49_305
*2122 FILLER_0_49_317
*2123 FILLER_0_49_329
*2124 FILLER_0_49_335
*2125 FILLER_0_49_337
*2126 FILLER_0_49_349
*2127 FILLER_0_49_361
*2128 FILLER_0_49_373
*2129 FILLER_0_49_385
*2130 FILLER_0_49_39
*2131 FILLER_0_49_391
*2132 FILLER_0_49_393
*2133 FILLER_0_49_405
*2134 FILLER_0_49_51
*2135 FILLER_0_49_55
*2136 FILLER_0_49_57
*2137 FILLER_0_49_69
*2138 FILLER_0_49_81
*2139 FILLER_0_49_93
*2140 FILLER_0_4_109
*2141 FILLER_0_4_121
*2142 FILLER_0_4_133
*2143 FILLER_0_4_139
*2144 FILLER_0_4_141
*2145 FILLER_0_4_153
*2146 FILLER_0_4_165
*2147 FILLER_0_4_177
*2148 FILLER_0_4_189
*2149 FILLER_0_4_19
*2150 FILLER_0_4_195
*2151 FILLER_0_4_197
*2152 FILLER_0_4_209
*2153 FILLER_0_4_221
*2154 FILLER_0_4_233
*2155 FILLER_0_4_245
*2156 FILLER_0_4_251
*2157 FILLER_0_4_253
*2158 FILLER_0_4_265
*2159 FILLER_0_4_27
*2160 FILLER_0_4_277
*2161 FILLER_0_4_289
*2162 FILLER_0_4_29
*2163 FILLER_0_4_301
*2164 FILLER_0_4_307
*2165 FILLER_0_4_309
*2166 FILLER_0_4_321
*2167 FILLER_0_4_333
*2168 FILLER_0_4_345
*2169 FILLER_0_4_357
*2170 FILLER_0_4_363
*2171 FILLER_0_4_365
*2172 FILLER_0_4_377
*2173 FILLER_0_4_389
*2174 FILLER_0_4_401
*2175 FILLER_0_4_41
*2176 FILLER_0_4_53
*2177 FILLER_0_4_65
*2178 FILLER_0_4_7
*2179 FILLER_0_4_77
*2180 FILLER_0_4_83
*2181 FILLER_0_4_85
*2182 FILLER_0_4_97
*2183 FILLER_0_50_109
*2184 FILLER_0_50_121
*2185 FILLER_0_50_133
*2186 FILLER_0_50_139
*2187 FILLER_0_50_141
*2188 FILLER_0_50_15
*2189 FILLER_0_50_153
*2190 FILLER_0_50_165
*2191 FILLER_0_50_177
*2192 FILLER_0_50_189
*2193 FILLER_0_50_195
*2194 FILLER_0_50_197
*2195 FILLER_0_50_209
*2196 FILLER_0_50_221
*2197 FILLER_0_50_233
*2198 FILLER_0_50_245
*2199 FILLER_0_50_251
*2200 FILLER_0_50_253
*2201 FILLER_0_50_265
*2202 FILLER_0_50_27
*2203 FILLER_0_50_277
*2204 FILLER_0_50_289
*2205 FILLER_0_50_29
*2206 FILLER_0_50_3
*2207 FILLER_0_50_301
*2208 FILLER_0_50_307
*2209 FILLER_0_50_309
*2210 FILLER_0_50_321
*2211 FILLER_0_50_333
*2212 FILLER_0_50_345
*2213 FILLER_0_50_357
*2214 FILLER_0_50_363
*2215 FILLER_0_50_365
*2216 FILLER_0_50_377
*2217 FILLER_0_50_389
*2218 FILLER_0_50_401
*2219 FILLER_0_50_41
*2220 FILLER_0_50_53
*2221 FILLER_0_50_65
*2222 FILLER_0_50_77
*2223 FILLER_0_50_83
*2224 FILLER_0_50_85
*2225 FILLER_0_50_97
*2226 FILLER_0_51_105
*2227 FILLER_0_51_111
*2228 FILLER_0_51_113
*2229 FILLER_0_51_125
*2230 FILLER_0_51_137
*2231 FILLER_0_51_149
*2232 FILLER_0_51_161
*2233 FILLER_0_51_167
*2234 FILLER_0_51_169
*2235 FILLER_0_51_181
*2236 FILLER_0_51_19
*2237 FILLER_0_51_193
*2238 FILLER_0_51_205
*2239 FILLER_0_51_217
*2240 FILLER_0_51_223
*2241 FILLER_0_51_225
*2242 FILLER_0_51_237
*2243 FILLER_0_51_249
*2244 FILLER_0_51_261
*2245 FILLER_0_51_273
*2246 FILLER_0_51_279
*2247 FILLER_0_51_281
*2248 FILLER_0_51_293
*2249 FILLER_0_51_305
*2250 FILLER_0_51_31
*2251 FILLER_0_51_317
*2252 FILLER_0_51_329
*2253 FILLER_0_51_335
*2254 FILLER_0_51_337
*2255 FILLER_0_51_349
*2256 FILLER_0_51_361
*2257 FILLER_0_51_373
*2258 FILLER_0_51_385
*2259 FILLER_0_51_391
*2260 FILLER_0_51_393
*2261 FILLER_0_51_405
*2262 FILLER_0_51_43
*2263 FILLER_0_51_55
*2264 FILLER_0_51_57
*2265 FILLER_0_51_69
*2266 FILLER_0_51_7
*2267 FILLER_0_51_81
*2268 FILLER_0_51_93
*2269 FILLER_0_52_109
*2270 FILLER_0_52_121
*2271 FILLER_0_52_133
*2272 FILLER_0_52_139
*2273 FILLER_0_52_141
*2274 FILLER_0_52_15
*2275 FILLER_0_52_153
*2276 FILLER_0_52_165
*2277 FILLER_0_52_177
*2278 FILLER_0_52_189
*2279 FILLER_0_52_195
*2280 FILLER_0_52_197
*2281 FILLER_0_52_209
*2282 FILLER_0_52_221
*2283 FILLER_0_52_233
*2284 FILLER_0_52_245
*2285 FILLER_0_52_251
*2286 FILLER_0_52_253
*2287 FILLER_0_52_265
*2288 FILLER_0_52_27
*2289 FILLER_0_52_277
*2290 FILLER_0_52_289
*2291 FILLER_0_52_29
*2292 FILLER_0_52_3
*2293 FILLER_0_52_301
*2294 FILLER_0_52_307
*2295 FILLER_0_52_309
*2296 FILLER_0_52_321
*2297 FILLER_0_52_333
*2298 FILLER_0_52_345
*2299 FILLER_0_52_357
*2300 FILLER_0_52_363
*2301 FILLER_0_52_365
*2302 FILLER_0_52_377
*2303 FILLER_0_52_389
*2304 FILLER_0_52_401
*2305 FILLER_0_52_41
*2306 FILLER_0_52_53
*2307 FILLER_0_52_65
*2308 FILLER_0_52_77
*2309 FILLER_0_52_83
*2310 FILLER_0_52_85
*2311 FILLER_0_52_97
*2312 FILLER_0_53_105
*2313 FILLER_0_53_111
*2314 FILLER_0_53_113
*2315 FILLER_0_53_125
*2316 FILLER_0_53_137
*2317 FILLER_0_53_149
*2318 FILLER_0_53_15
*2319 FILLER_0_53_161
*2320 FILLER_0_53_167
*2321 FILLER_0_53_169
*2322 FILLER_0_53_181
*2323 FILLER_0_53_193
*2324 FILLER_0_53_205
*2325 FILLER_0_53_217
*2326 FILLER_0_53_223
*2327 FILLER_0_53_225
*2328 FILLER_0_53_237
*2329 FILLER_0_53_249
*2330 FILLER_0_53_261
*2331 FILLER_0_53_27
*2332 FILLER_0_53_273
*2333 FILLER_0_53_279
*2334 FILLER_0_53_281
*2335 FILLER_0_53_293
*2336 FILLER_0_53_3
*2337 FILLER_0_53_305
*2338 FILLER_0_53_317
*2339 FILLER_0_53_329
*2340 FILLER_0_53_335
*2341 FILLER_0_53_337
*2342 FILLER_0_53_349
*2343 FILLER_0_53_361
*2344 FILLER_0_53_373
*2345 FILLER_0_53_385
*2346 FILLER_0_53_39
*2347 FILLER_0_53_391
*2348 FILLER_0_53_393
*2349 FILLER_0_53_405
*2350 FILLER_0_53_51
*2351 FILLER_0_53_55
*2352 FILLER_0_53_57
*2353 FILLER_0_53_69
*2354 FILLER_0_53_81
*2355 FILLER_0_53_93
*2356 FILLER_0_54_109
*2357 FILLER_0_54_121
*2358 FILLER_0_54_133
*2359 FILLER_0_54_139
*2360 FILLER_0_54_141
*2361 FILLER_0_54_15
*2362 FILLER_0_54_153
*2363 FILLER_0_54_165
*2364 FILLER_0_54_177
*2365 FILLER_0_54_189
*2366 FILLER_0_54_195
*2367 FILLER_0_54_197
*2368 FILLER_0_54_209
*2369 FILLER_0_54_221
*2370 FILLER_0_54_233
*2371 FILLER_0_54_245
*2372 FILLER_0_54_251
*2373 FILLER_0_54_253
*2374 FILLER_0_54_265
*2375 FILLER_0_54_27
*2376 FILLER_0_54_277
*2377 FILLER_0_54_289
*2378 FILLER_0_54_29
*2379 FILLER_0_54_3
*2380 FILLER_0_54_301
*2381 FILLER_0_54_307
*2382 FILLER_0_54_309
*2383 FILLER_0_54_321
*2384 FILLER_0_54_333
*2385 FILLER_0_54_345
*2386 FILLER_0_54_357
*2387 FILLER_0_54_363
*2388 FILLER_0_54_365
*2389 FILLER_0_54_377
*2390 FILLER_0_54_389
*2391 FILLER_0_54_401
*2392 FILLER_0_54_41
*2393 FILLER_0_54_53
*2394 FILLER_0_54_65
*2395 FILLER_0_54_77
*2396 FILLER_0_54_83
*2397 FILLER_0_54_85
*2398 FILLER_0_54_97
*2399 FILLER_0_55_105
*2400 FILLER_0_55_111
*2401 FILLER_0_55_113
*2402 FILLER_0_55_125
*2403 FILLER_0_55_137
*2404 FILLER_0_55_149
*2405 FILLER_0_55_15
*2406 FILLER_0_55_161
*2407 FILLER_0_55_167
*2408 FILLER_0_55_169
*2409 FILLER_0_55_181
*2410 FILLER_0_55_193
*2411 FILLER_0_55_205
*2412 FILLER_0_55_217
*2413 FILLER_0_55_223
*2414 FILLER_0_55_225
*2415 FILLER_0_55_237
*2416 FILLER_0_55_249
*2417 FILLER_0_55_261
*2418 FILLER_0_55_27
*2419 FILLER_0_55_273
*2420 FILLER_0_55_279
*2421 FILLER_0_55_281
*2422 FILLER_0_55_293
*2423 FILLER_0_55_3
*2424 FILLER_0_55_305
*2425 FILLER_0_55_317
*2426 FILLER_0_55_329
*2427 FILLER_0_55_335
*2428 FILLER_0_55_337
*2429 FILLER_0_55_349
*2430 FILLER_0_55_361
*2431 FILLER_0_55_373
*2432 FILLER_0_55_385
*2433 FILLER_0_55_39
*2434 FILLER_0_55_391
*2435 FILLER_0_55_393
*2436 FILLER_0_55_405
*2437 FILLER_0_55_51
*2438 FILLER_0_55_55
*2439 FILLER_0_55_57
*2440 FILLER_0_55_69
*2441 FILLER_0_55_81
*2442 FILLER_0_55_93
*2443 FILLER_0_56_109
*2444 FILLER_0_56_121
*2445 FILLER_0_56_133
*2446 FILLER_0_56_139
*2447 FILLER_0_56_141
*2448 FILLER_0_56_15
*2449 FILLER_0_56_153
*2450 FILLER_0_56_165
*2451 FILLER_0_56_177
*2452 FILLER_0_56_189
*2453 FILLER_0_56_195
*2454 FILLER_0_56_197
*2455 FILLER_0_56_209
*2456 FILLER_0_56_221
*2457 FILLER_0_56_233
*2458 FILLER_0_56_245
*2459 FILLER_0_56_251
*2460 FILLER_0_56_253
*2461 FILLER_0_56_265
*2462 FILLER_0_56_27
*2463 FILLER_0_56_277
*2464 FILLER_0_56_289
*2465 FILLER_0_56_29
*2466 FILLER_0_56_3
*2467 FILLER_0_56_301
*2468 FILLER_0_56_307
*2469 FILLER_0_56_309
*2470 FILLER_0_56_321
*2471 FILLER_0_56_333
*2472 FILLER_0_56_345
*2473 FILLER_0_56_357
*2474 FILLER_0_56_363
*2475 FILLER_0_56_365
*2476 FILLER_0_56_377
*2477 FILLER_0_56_389
*2478 FILLER_0_56_401
*2479 FILLER_0_56_41
*2480 FILLER_0_56_53
*2481 FILLER_0_56_65
*2482 FILLER_0_56_77
*2483 FILLER_0_56_83
*2484 FILLER_0_56_85
*2485 FILLER_0_56_97
*2486 FILLER_0_57_105
*2487 FILLER_0_57_111
*2488 FILLER_0_57_113
*2489 FILLER_0_57_125
*2490 FILLER_0_57_137
*2491 FILLER_0_57_149
*2492 FILLER_0_57_15
*2493 FILLER_0_57_161
*2494 FILLER_0_57_167
*2495 FILLER_0_57_169
*2496 FILLER_0_57_181
*2497 FILLER_0_57_193
*2498 FILLER_0_57_205
*2499 FILLER_0_57_217
*2500 FILLER_0_57_223
*2501 FILLER_0_57_225
*2502 FILLER_0_57_237
*2503 FILLER_0_57_249
*2504 FILLER_0_57_261
*2505 FILLER_0_57_27
*2506 FILLER_0_57_273
*2507 FILLER_0_57_279
*2508 FILLER_0_57_281
*2509 FILLER_0_57_293
*2510 FILLER_0_57_3
*2511 FILLER_0_57_305
*2512 FILLER_0_57_317
*2513 FILLER_0_57_329
*2514 FILLER_0_57_335
*2515 FILLER_0_57_337
*2516 FILLER_0_57_349
*2517 FILLER_0_57_361
*2518 FILLER_0_57_373
*2519 FILLER_0_57_385
*2520 FILLER_0_57_39
*2521 FILLER_0_57_391
*2522 FILLER_0_57_393
*2523 FILLER_0_57_405
*2524 FILLER_0_57_51
*2525 FILLER_0_57_55
*2526 FILLER_0_57_57
*2527 FILLER_0_57_69
*2528 FILLER_0_57_81
*2529 FILLER_0_57_93
*2530 FILLER_0_58_109
*2531 FILLER_0_58_121
*2532 FILLER_0_58_133
*2533 FILLER_0_58_139
*2534 FILLER_0_58_141
*2535 FILLER_0_58_15
*2536 FILLER_0_58_153
*2537 FILLER_0_58_165
*2538 FILLER_0_58_177
*2539 FILLER_0_58_189
*2540 FILLER_0_58_195
*2541 FILLER_0_58_197
*2542 FILLER_0_58_209
*2543 FILLER_0_58_221
*2544 FILLER_0_58_233
*2545 FILLER_0_58_245
*2546 FILLER_0_58_251
*2547 FILLER_0_58_253
*2548 FILLER_0_58_265
*2549 FILLER_0_58_27
*2550 FILLER_0_58_277
*2551 FILLER_0_58_289
*2552 FILLER_0_58_29
*2553 FILLER_0_58_3
*2554 FILLER_0_58_301
*2555 FILLER_0_58_307
*2556 FILLER_0_58_309
*2557 FILLER_0_58_321
*2558 FILLER_0_58_333
*2559 FILLER_0_58_345
*2560 FILLER_0_58_357
*2561 FILLER_0_58_363
*2562 FILLER_0_58_365
*2563 FILLER_0_58_377
*2564 FILLER_0_58_389
*2565 FILLER_0_58_401
*2566 FILLER_0_58_41
*2567 FILLER_0_58_53
*2568 FILLER_0_58_65
*2569 FILLER_0_58_77
*2570 FILLER_0_58_83
*2571 FILLER_0_58_85
*2572 FILLER_0_58_97
*2573 FILLER_0_59_105
*2574 FILLER_0_59_111
*2575 FILLER_0_59_113
*2576 FILLER_0_59_125
*2577 FILLER_0_59_137
*2578 FILLER_0_59_149
*2579 FILLER_0_59_161
*2580 FILLER_0_59_167
*2581 FILLER_0_59_169
*2582 FILLER_0_59_181
*2583 FILLER_0_59_193
*2584 FILLER_0_59_205
*2585 FILLER_0_59_21
*2586 FILLER_0_59_217
*2587 FILLER_0_59_223
*2588 FILLER_0_59_225
*2589 FILLER_0_59_237
*2590 FILLER_0_59_249
*2591 FILLER_0_59_261
*2592 FILLER_0_59_273
*2593 FILLER_0_59_279
*2594 FILLER_0_59_281
*2595 FILLER_0_59_293
*2596 FILLER_0_59_305
*2597 FILLER_0_59_317
*2598 FILLER_0_59_329
*2599 FILLER_0_59_33
*2600 FILLER_0_59_335
*2601 FILLER_0_59_337
*2602 FILLER_0_59_349
*2603 FILLER_0_59_361
*2604 FILLER_0_59_373
*2605 FILLER_0_59_385
*2606 FILLER_0_59_391
*2607 FILLER_0_59_393
*2608 FILLER_0_59_405
*2609 FILLER_0_59_45
*2610 FILLER_0_59_53
*2611 FILLER_0_59_57
*2612 FILLER_0_59_69
*2613 FILLER_0_59_81
*2614 FILLER_0_59_9
*2615 FILLER_0_59_93
*2616 FILLER_0_5_105
*2617 FILLER_0_5_111
*2618 FILLER_0_5_113
*2619 FILLER_0_5_125
*2620 FILLER_0_5_137
*2621 FILLER_0_5_149
*2622 FILLER_0_5_15
*2623 FILLER_0_5_161
*2624 FILLER_0_5_167
*2625 FILLER_0_5_169
*2626 FILLER_0_5_181
*2627 FILLER_0_5_193
*2628 FILLER_0_5_205
*2629 FILLER_0_5_217
*2630 FILLER_0_5_223
*2631 FILLER_0_5_225
*2632 FILLER_0_5_237
*2633 FILLER_0_5_249
*2634 FILLER_0_5_261
*2635 FILLER_0_5_27
*2636 FILLER_0_5_273
*2637 FILLER_0_5_279
*2638 FILLER_0_5_281
*2639 FILLER_0_5_293
*2640 FILLER_0_5_3
*2641 FILLER_0_5_305
*2642 FILLER_0_5_317
*2643 FILLER_0_5_329
*2644 FILLER_0_5_335
*2645 FILLER_0_5_337
*2646 FILLER_0_5_349
*2647 FILLER_0_5_361
*2648 FILLER_0_5_373
*2649 FILLER_0_5_385
*2650 FILLER_0_5_39
*2651 FILLER_0_5_391
*2652 FILLER_0_5_393
*2653 FILLER_0_5_405
*2654 FILLER_0_5_51
*2655 FILLER_0_5_55
*2656 FILLER_0_5_57
*2657 FILLER_0_5_69
*2658 FILLER_0_5_81
*2659 FILLER_0_5_93
*2660 FILLER_0_60_109
*2661 FILLER_0_60_121
*2662 FILLER_0_60_133
*2663 FILLER_0_60_139
*2664 FILLER_0_60_141
*2665 FILLER_0_60_15
*2666 FILLER_0_60_153
*2667 FILLER_0_60_165
*2668 FILLER_0_60_177
*2669 FILLER_0_60_189
*2670 FILLER_0_60_195
*2671 FILLER_0_60_197
*2672 FILLER_0_60_209
*2673 FILLER_0_60_221
*2674 FILLER_0_60_233
*2675 FILLER_0_60_245
*2676 FILLER_0_60_251
*2677 FILLER_0_60_253
*2678 FILLER_0_60_265
*2679 FILLER_0_60_27
*2680 FILLER_0_60_277
*2681 FILLER_0_60_289
*2682 FILLER_0_60_29
*2683 FILLER_0_60_3
*2684 FILLER_0_60_301
*2685 FILLER_0_60_307
*2686 FILLER_0_60_309
*2687 FILLER_0_60_321
*2688 FILLER_0_60_333
*2689 FILLER_0_60_345
*2690 FILLER_0_60_357
*2691 FILLER_0_60_363
*2692 FILLER_0_60_365
*2693 FILLER_0_60_377
*2694 FILLER_0_60_389
*2695 FILLER_0_60_401
*2696 FILLER_0_60_41
*2697 FILLER_0_60_53
*2698 FILLER_0_60_65
*2699 FILLER_0_60_77
*2700 FILLER_0_60_83
*2701 FILLER_0_60_85
*2702 FILLER_0_60_97
*2703 FILLER_0_61_105
*2704 FILLER_0_61_111
*2705 FILLER_0_61_113
*2706 FILLER_0_61_125
*2707 FILLER_0_61_137
*2708 FILLER_0_61_149
*2709 FILLER_0_61_15
*2710 FILLER_0_61_161
*2711 FILLER_0_61_167
*2712 FILLER_0_61_169
*2713 FILLER_0_61_181
*2714 FILLER_0_61_193
*2715 FILLER_0_61_205
*2716 FILLER_0_61_217
*2717 FILLER_0_61_223
*2718 FILLER_0_61_225
*2719 FILLER_0_61_237
*2720 FILLER_0_61_249
*2721 FILLER_0_61_261
*2722 FILLER_0_61_27
*2723 FILLER_0_61_273
*2724 FILLER_0_61_279
*2725 FILLER_0_61_281
*2726 FILLER_0_61_293
*2727 FILLER_0_61_3
*2728 FILLER_0_61_305
*2729 FILLER_0_61_317
*2730 FILLER_0_61_329
*2731 FILLER_0_61_335
*2732 FILLER_0_61_337
*2733 FILLER_0_61_349
*2734 FILLER_0_61_361
*2735 FILLER_0_61_373
*2736 FILLER_0_61_385
*2737 FILLER_0_61_39
*2738 FILLER_0_61_391
*2739 FILLER_0_61_393
*2740 FILLER_0_61_51
*2741 FILLER_0_61_55
*2742 FILLER_0_61_57
*2743 FILLER_0_61_69
*2744 FILLER_0_61_81
*2745 FILLER_0_61_93
*2746 FILLER_0_62_109
*2747 FILLER_0_62_121
*2748 FILLER_0_62_133
*2749 FILLER_0_62_139
*2750 FILLER_0_62_141
*2751 FILLER_0_62_15
*2752 FILLER_0_62_153
*2753 FILLER_0_62_165
*2754 FILLER_0_62_177
*2755 FILLER_0_62_189
*2756 FILLER_0_62_195
*2757 FILLER_0_62_197
*2758 FILLER_0_62_209
*2759 FILLER_0_62_221
*2760 FILLER_0_62_233
*2761 FILLER_0_62_245
*2762 FILLER_0_62_251
*2763 FILLER_0_62_253
*2764 FILLER_0_62_265
*2765 FILLER_0_62_27
*2766 FILLER_0_62_277
*2767 FILLER_0_62_289
*2768 FILLER_0_62_29
*2769 FILLER_0_62_3
*2770 FILLER_0_62_301
*2771 FILLER_0_62_307
*2772 FILLER_0_62_309
*2773 FILLER_0_62_321
*2774 FILLER_0_62_333
*2775 FILLER_0_62_345
*2776 FILLER_0_62_357
*2777 FILLER_0_62_363
*2778 FILLER_0_62_365
*2779 FILLER_0_62_377
*2780 FILLER_0_62_389
*2781 FILLER_0_62_401
*2782 FILLER_0_62_41
*2783 FILLER_0_62_53
*2784 FILLER_0_62_65
*2785 FILLER_0_62_77
*2786 FILLER_0_62_83
*2787 FILLER_0_62_85
*2788 FILLER_0_62_97
*2789 FILLER_0_63_105
*2790 FILLER_0_63_111
*2791 FILLER_0_63_113
*2792 FILLER_0_63_125
*2793 FILLER_0_63_137
*2794 FILLER_0_63_149
*2795 FILLER_0_63_15
*2796 FILLER_0_63_161
*2797 FILLER_0_63_167
*2798 FILLER_0_63_169
*2799 FILLER_0_63_181
*2800 FILLER_0_63_193
*2801 FILLER_0_63_205
*2802 FILLER_0_63_217
*2803 FILLER_0_63_223
*2804 FILLER_0_63_225
*2805 FILLER_0_63_237
*2806 FILLER_0_63_249
*2807 FILLER_0_63_261
*2808 FILLER_0_63_27
*2809 FILLER_0_63_273
*2810 FILLER_0_63_279
*2811 FILLER_0_63_281
*2812 FILLER_0_63_293
*2813 FILLER_0_63_3
*2814 FILLER_0_63_305
*2815 FILLER_0_63_317
*2816 FILLER_0_63_329
*2817 FILLER_0_63_335
*2818 FILLER_0_63_337
*2819 FILLER_0_63_349
*2820 FILLER_0_63_361
*2821 FILLER_0_63_373
*2822 FILLER_0_63_385
*2823 FILLER_0_63_39
*2824 FILLER_0_63_391
*2825 FILLER_0_63_393
*2826 FILLER_0_63_405
*2827 FILLER_0_63_51
*2828 FILLER_0_63_55
*2829 FILLER_0_63_57
*2830 FILLER_0_63_69
*2831 FILLER_0_63_81
*2832 FILLER_0_63_93
*2833 FILLER_0_64_109
*2834 FILLER_0_64_119
*2835 FILLER_0_64_131
*2836 FILLER_0_64_139
*2837 FILLER_0_64_141
*2838 FILLER_0_64_149
*2839 FILLER_0_64_15
*2840 FILLER_0_64_153
*2841 FILLER_0_64_165
*2842 FILLER_0_64_169
*2843 FILLER_0_64_181
*2844 FILLER_0_64_193
*2845 FILLER_0_64_197
*2846 FILLER_0_64_202
*2847 FILLER_0_64_21
*2848 FILLER_0_64_214
*2849 FILLER_0_64_222
*2850 FILLER_0_64_225
*2851 FILLER_0_64_237
*2852 FILLER_0_64_247
*2853 FILLER_0_64_251
*2854 FILLER_0_64_253
*2855 FILLER_0_64_265
*2856 FILLER_0_64_27
*2857 FILLER_0_64_277
*2858 FILLER_0_64_281
*2859 FILLER_0_64_289
*2860 FILLER_0_64_29
*2861 FILLER_0_64_301
*2862 FILLER_0_64_307
*2863 FILLER_0_64_309
*2864 FILLER_0_64_321
*2865 FILLER_0_64_329
*2866 FILLER_0_64_335
*2867 FILLER_0_64_337
*2868 FILLER_0_64_349
*2869 FILLER_0_64_361
*2870 FILLER_0_64_365
*2871 FILLER_0_64_373
*2872 FILLER_0_64_380
*2873 FILLER_0_64_393
*2874 FILLER_0_64_401
*2875 FILLER_0_64_41
*2876 FILLER_0_64_53
*2877 FILLER_0_64_57
*2878 FILLER_0_64_65
*2879 FILLER_0_64_7
*2880 FILLER_0_64_72
*2881 FILLER_0_64_85
*2882 FILLER_0_64_97
*2883 FILLER_0_6_109
*2884 FILLER_0_6_121
*2885 FILLER_0_6_133
*2886 FILLER_0_6_139
*2887 FILLER_0_6_141
*2888 FILLER_0_6_15
*2889 FILLER_0_6_153
*2890 FILLER_0_6_165
*2891 FILLER_0_6_177
*2892 FILLER_0_6_189
*2893 FILLER_0_6_195
*2894 FILLER_0_6_197
*2895 FILLER_0_6_209
*2896 FILLER_0_6_221
*2897 FILLER_0_6_233
*2898 FILLER_0_6_245
*2899 FILLER_0_6_251
*2900 FILLER_0_6_253
*2901 FILLER_0_6_265
*2902 FILLER_0_6_27
*2903 FILLER_0_6_277
*2904 FILLER_0_6_289
*2905 FILLER_0_6_29
*2906 FILLER_0_6_3
*2907 FILLER_0_6_301
*2908 FILLER_0_6_307
*2909 FILLER_0_6_309
*2910 FILLER_0_6_321
*2911 FILLER_0_6_333
*2912 FILLER_0_6_345
*2913 FILLER_0_6_357
*2914 FILLER_0_6_363
*2915 FILLER_0_6_365
*2916 FILLER_0_6_377
*2917 FILLER_0_6_389
*2918 FILLER_0_6_41
*2919 FILLER_0_6_53
*2920 FILLER_0_6_65
*2921 FILLER_0_6_77
*2922 FILLER_0_6_83
*2923 FILLER_0_6_85
*2924 FILLER_0_6_97
*2925 FILLER_0_7_105
*2926 FILLER_0_7_111
*2927 FILLER_0_7_113
*2928 FILLER_0_7_125
*2929 FILLER_0_7_137
*2930 FILLER_0_7_149
*2931 FILLER_0_7_15
*2932 FILLER_0_7_161
*2933 FILLER_0_7_167
*2934 FILLER_0_7_169
*2935 FILLER_0_7_181
*2936 FILLER_0_7_193
*2937 FILLER_0_7_205
*2938 FILLER_0_7_217
*2939 FILLER_0_7_223
*2940 FILLER_0_7_225
*2941 FILLER_0_7_237
*2942 FILLER_0_7_249
*2943 FILLER_0_7_261
*2944 FILLER_0_7_27
*2945 FILLER_0_7_273
*2946 FILLER_0_7_279
*2947 FILLER_0_7_281
*2948 FILLER_0_7_293
*2949 FILLER_0_7_3
*2950 FILLER_0_7_305
*2951 FILLER_0_7_317
*2952 FILLER_0_7_329
*2953 FILLER_0_7_335
*2954 FILLER_0_7_337
*2955 FILLER_0_7_349
*2956 FILLER_0_7_361
*2957 FILLER_0_7_373
*2958 FILLER_0_7_385
*2959 FILLER_0_7_39
*2960 FILLER_0_7_391
*2961 FILLER_0_7_393
*2962 FILLER_0_7_405
*2963 FILLER_0_7_51
*2964 FILLER_0_7_55
*2965 FILLER_0_7_57
*2966 FILLER_0_7_69
*2967 FILLER_0_7_81
*2968 FILLER_0_7_93
*2969 FILLER_0_8_109
*2970 FILLER_0_8_121
*2971 FILLER_0_8_133
*2972 FILLER_0_8_139
*2973 FILLER_0_8_141
*2974 FILLER_0_8_15
*2975 FILLER_0_8_153
*2976 FILLER_0_8_165
*2977 FILLER_0_8_177
*2978 FILLER_0_8_189
*2979 FILLER_0_8_195
*2980 FILLER_0_8_197
*2981 FILLER_0_8_209
*2982 FILLER_0_8_221
*2983 FILLER_0_8_233
*2984 FILLER_0_8_245
*2985 FILLER_0_8_251
*2986 FILLER_0_8_253
*2987 FILLER_0_8_265
*2988 FILLER_0_8_27
*2989 FILLER_0_8_277
*2990 FILLER_0_8_289
*2991 FILLER_0_8_29
*2992 FILLER_0_8_3
*2993 FILLER_0_8_301
*2994 FILLER_0_8_307
*2995 FILLER_0_8_309
*2996 FILLER_0_8_321
*2997 FILLER_0_8_333
*2998 FILLER_0_8_345
*2999 FILLER_0_8_357
*3000 FILLER_0_8_363
*3001 FILLER_0_8_365
*3002 FILLER_0_8_377
*3003 FILLER_0_8_389
*3004 FILLER_0_8_401
*3005 FILLER_0_8_41
*3006 FILLER_0_8_53
*3007 FILLER_0_8_65
*3008 FILLER_0_8_77
*3009 FILLER_0_8_83
*3010 FILLER_0_8_85
*3011 FILLER_0_8_97
*3012 FILLER_0_9_105
*3013 FILLER_0_9_111
*3014 FILLER_0_9_113
*3015 FILLER_0_9_125
*3016 FILLER_0_9_137
*3017 FILLER_0_9_149
*3018 FILLER_0_9_15
*3019 FILLER_0_9_161
*3020 FILLER_0_9_167
*3021 FILLER_0_9_169
*3022 FILLER_0_9_181
*3023 FILLER_0_9_193
*3024 FILLER_0_9_205
*3025 FILLER_0_9_217
*3026 FILLER_0_9_223
*3027 FILLER_0_9_225
*3028 FILLER_0_9_237
*3029 FILLER_0_9_249
*3030 FILLER_0_9_261
*3031 FILLER_0_9_27
*3032 FILLER_0_9_273
*3033 FILLER_0_9_279
*3034 FILLER_0_9_281
*3035 FILLER_0_9_293
*3036 FILLER_0_9_3
*3037 FILLER_0_9_305
*3038 FILLER_0_9_317
*3039 FILLER_0_9_329
*3040 FILLER_0_9_335
*3041 FILLER_0_9_337
*3042 FILLER_0_9_349
*3043 FILLER_0_9_361
*3044 FILLER_0_9_373
*3045 FILLER_0_9_385
*3046 FILLER_0_9_39
*3047 FILLER_0_9_391
*3048 FILLER_0_9_393
*3049 FILLER_0_9_405
*3050 FILLER_0_9_51
*3051 FILLER_0_9_55
*3052 FILLER_0_9_57
*3053 FILLER_0_9_69
*3054 FILLER_0_9_81
*3055 FILLER_0_9_93
*3056 PHY_0
*3057 PHY_1
*3058 PHY_10
*3059 PHY_100
*3060 PHY_101
*3061 PHY_102
*3062 PHY_103
*3063 PHY_104
*3064 PHY_105
*3065 PHY_106
*3066 PHY_107
*3067 PHY_108
*3068 PHY_109
*3069 PHY_11
*3070 PHY_110
*3071 PHY_111
*3072 PHY_112
*3073 PHY_113
*3074 PHY_114
*3075 PHY_115
*3076 PHY_116
*3077 PHY_117
*3078 PHY_118
*3079 PHY_119
*3080 PHY_12
*3081 PHY_120
*3082 PHY_121
*3083 PHY_122
*3084 PHY_123
*3085 PHY_124
*3086 PHY_125
*3087 PHY_126
*3088 PHY_127
*3089 PHY_128
*3090 PHY_129
*3091 PHY_13
*3092 PHY_14
*3093 PHY_15
*3094 PHY_16
*3095 PHY_17
*3096 PHY_18
*3097 PHY_19
*3098 PHY_2
*3099 PHY_20
*3100 PHY_21
*3101 PHY_22
*3102 PHY_23
*3103 PHY_24
*3104 PHY_25
*3105 PHY_26
*3106 PHY_27
*3107 PHY_28
*3108 PHY_29
*3109 PHY_3
*3110 PHY_30
*3111 PHY_31
*3112 PHY_32
*3113 PHY_33
*3114 PHY_34
*3115 PHY_35
*3116 PHY_36
*3117 PHY_37
*3118 PHY_38
*3119 PHY_39
*3120 PHY_4
*3121 PHY_40
*3122 PHY_41
*3123 PHY_42
*3124 PHY_43
*3125 PHY_44
*3126 PHY_45
*3127 PHY_46
*3128 PHY_47
*3129 PHY_48
*3130 PHY_49
*3131 PHY_5
*3132 PHY_50
*3133 PHY_51
*3134 PHY_52
*3135 PHY_53
*3136 PHY_54
*3137 PHY_55
*3138 PHY_56
*3139 PHY_57
*3140 PHY_58
*3141 PHY_59
*3142 PHY_6
*3143 PHY_60
*3144 PHY_61
*3145 PHY_62
*3146 PHY_63
*3147 PHY_64
*3148 PHY_65
*3149 PHY_66
*3150 PHY_67
*3151 PHY_68
*3152 PHY_69
*3153 PHY_7
*3154 PHY_70
*3155 PHY_71
*3156 PHY_72
*3157 PHY_73
*3158 PHY_74
*3159 PHY_75
*3160 PHY_76
*3161 PHY_77
*3162 PHY_78
*3163 PHY_79
*3164 PHY_8
*3165 PHY_80
*3166 PHY_81
*3167 PHY_82
*3168 PHY_83
*3169 PHY_84
*3170 PHY_85
*3171 PHY_86
*3172 PHY_87
*3173 PHY_88
*3174 PHY_89
*3175 PHY_9
*3176 PHY_90
*3177 PHY_91
*3178 PHY_92
*3179 PHY_93
*3180 PHY_94
*3181 PHY_95
*3182 PHY_96
*3183 PHY_97
*3184 PHY_98
*3185 PHY_99
*3186 TAP_130
*3187 TAP_131
*3188 TAP_132
*3189 TAP_133
*3190 TAP_134
*3191 TAP_135
*3192 TAP_136
*3193 TAP_137
*3194 TAP_138
*3195 TAP_139
*3196 TAP_140
*3197 TAP_141
*3198 TAP_142
*3199 TAP_143
*3200 TAP_144
*3201 TAP_145
*3202 TAP_146
*3203 TAP_147
*3204 TAP_148
*3205 TAP_149
*3206 TAP_150
*3207 TAP_151
*3208 TAP_152
*3209 TAP_153
*3210 TAP_154
*3211 TAP_155
*3212 TAP_156
*3213 TAP_157
*3214 TAP_158
*3215 TAP_159
*3216 TAP_160
*3217 TAP_161
*3218 TAP_162
*3219 TAP_163
*3220 TAP_164
*3221 TAP_165
*3222 TAP_166
*3223 TAP_167
*3224 TAP_168
*3225 TAP_169
*3226 TAP_170
*3227 TAP_171
*3228 TAP_172
*3229 TAP_173
*3230 TAP_174
*3231 TAP_175
*3232 TAP_176
*3233 TAP_177
*3234 TAP_178
*3235 TAP_179
*3236 TAP_180
*3237 TAP_181
*3238 TAP_182
*3239 TAP_183
*3240 TAP_184
*3241 TAP_185
*3242 TAP_186
*3243 TAP_187
*3244 TAP_188
*3245 TAP_189
*3246 TAP_190
*3247 TAP_191
*3248 TAP_192
*3249 TAP_193
*3250 TAP_194
*3251 TAP_195
*3252 TAP_196
*3253 TAP_197
*3254 TAP_198
*3255 TAP_199
*3256 TAP_200
*3257 TAP_201
*3258 TAP_202
*3259 TAP_203
*3260 TAP_204
*3261 TAP_205
*3262 TAP_206
*3263 TAP_207
*3264 TAP_208
*3265 TAP_209
*3266 TAP_210
*3267 TAP_211
*3268 TAP_212
*3269 TAP_213
*3270 TAP_214
*3271 TAP_215
*3272 TAP_216
*3273 TAP_217
*3274 TAP_218
*3275 TAP_219
*3276 TAP_220
*3277 TAP_221
*3278 TAP_222
*3279 TAP_223
*3280 TAP_224
*3281 TAP_225
*3282 TAP_226
*3283 TAP_227
*3284 TAP_228
*3285 TAP_229
*3286 TAP_230
*3287 TAP_231
*3288 TAP_232
*3289 TAP_233
*3290 TAP_234
*3291 TAP_235
*3292 TAP_236
*3293 TAP_237
*3294 TAP_238
*3295 TAP_239
*3296 TAP_240
*3297 TAP_241
*3298 TAP_242
*3299 TAP_243
*3300 TAP_244
*3301 TAP_245
*3302 TAP_246
*3303 TAP_247
*3304 TAP_248
*3305 TAP_249
*3306 TAP_250
*3307 TAP_251
*3308 TAP_252
*3309 TAP_253
*3310 TAP_254
*3311 TAP_255
*3312 TAP_256
*3313 TAP_257
*3314 TAP_258
*3315 TAP_259
*3316 TAP_260
*3317 TAP_261
*3318 TAP_262
*3319 TAP_263
*3320 TAP_264
*3321 TAP_265
*3322 TAP_266
*3323 TAP_267
*3324 TAP_268
*3325 TAP_269
*3326 TAP_270
*3327 TAP_271
*3328 TAP_272
*3329 TAP_273
*3330 TAP_274
*3331 TAP_275
*3332 TAP_276
*3333 TAP_277
*3334 TAP_278
*3335 TAP_279
*3336 TAP_280
*3337 TAP_281
*3338 TAP_282
*3339 TAP_283
*3340 TAP_284
*3341 TAP_285
*3342 TAP_286
*3343 TAP_287
*3344 TAP_288
*3345 TAP_289
*3346 TAP_290
*3347 TAP_291
*3348 TAP_292
*3349 TAP_293
*3350 TAP_294
*3351 TAP_295
*3352 TAP_296
*3353 TAP_297
*3354 TAP_298
*3355 TAP_299
*3356 TAP_300
*3357 TAP_301
*3358 TAP_302
*3359 TAP_303
*3360 TAP_304
*3361 TAP_305
*3362 TAP_306
*3363 TAP_307
*3364 TAP_308
*3365 TAP_309
*3366 TAP_310
*3367 TAP_311
*3368 TAP_312
*3369 TAP_313
*3370 TAP_314
*3371 TAP_315
*3372 TAP_316
*3373 TAP_317
*3374 TAP_318
*3375 TAP_319
*3376 TAP_320
*3377 TAP_321
*3378 TAP_322
*3379 TAP_323
*3380 TAP_324
*3381 TAP_325
*3382 TAP_326
*3383 TAP_327
*3384 TAP_328
*3385 TAP_329
*3386 TAP_330
*3387 TAP_331
*3388 TAP_332
*3389 TAP_333
*3390 TAP_334
*3391 TAP_335
*3392 TAP_336
*3393 TAP_337
*3394 TAP_338
*3395 TAP_339
*3396 TAP_340
*3397 TAP_341
*3398 TAP_342
*3399 TAP_343
*3400 TAP_344
*3401 TAP_345
*3402 TAP_346
*3403 TAP_347
*3404 TAP_348
*3405 TAP_349
*3406 TAP_350
*3407 TAP_351
*3408 TAP_352
*3409 TAP_353
*3410 TAP_354
*3411 TAP_355
*3412 TAP_356
*3413 TAP_357
*3414 TAP_358
*3415 TAP_359
*3416 TAP_360
*3417 TAP_361
*3418 TAP_362
*3419 TAP_363
*3420 TAP_364
*3421 TAP_365
*3422 TAP_366
*3423 TAP_367
*3424 TAP_368
*3425 TAP_369
*3426 TAP_370
*3427 TAP_371
*3428 TAP_372
*3429 TAP_373
*3430 TAP_374
*3431 TAP_375
*3432 TAP_376
*3433 TAP_377
*3434 TAP_378
*3435 TAP_379
*3436 TAP_380
*3437 TAP_381
*3438 TAP_382
*3439 TAP_383
*3440 TAP_384
*3441 TAP_385
*3442 TAP_386
*3443 TAP_387
*3444 TAP_388
*3445 TAP_389
*3446 TAP_390
*3447 TAP_391
*3448 TAP_392
*3449 TAP_393
*3450 TAP_394
*3451 TAP_395
*3452 TAP_396
*3453 TAP_397
*3454 TAP_398
*3455 TAP_399
*3456 TAP_400
*3457 TAP_401
*3458 TAP_402
*3459 TAP_403
*3460 TAP_404
*3461 TAP_405
*3462 TAP_406
*3463 TAP_407
*3464 TAP_408
*3465 TAP_409
*3466 TAP_410
*3467 TAP_411
*3468 TAP_412
*3469 TAP_413
*3470 TAP_414
*3471 TAP_415
*3472 TAP_416
*3473 TAP_417
*3474 TAP_418
*3475 TAP_419
*3476 TAP_420
*3477 TAP_421
*3478 TAP_422
*3479 TAP_423
*3480 TAP_424
*3481 TAP_425
*3482 TAP_426
*3483 TAP_427
*3484 TAP_428
*3485 TAP_429
*3486 TAP_430
*3487 TAP_431
*3488 TAP_432
*3489 TAP_433
*3490 TAP_434
*3491 TAP_435
*3492 TAP_436
*3493 TAP_437
*3494 TAP_438
*3495 TAP_439
*3496 TAP_440
*3497 TAP_441
*3498 TAP_442
*3499 TAP_443
*3500 TAP_444
*3501 TAP_445
*3502 TAP_446
*3503 TAP_447
*3504 TAP_448
*3505 TAP_449
*3506 TAP_450
*3507 TAP_451
*3508 TAP_452
*3509 TAP_453
*3510 TAP_454
*3511 TAP_455
*3512 TAP_456
*3513 TAP_457
*3514 TAP_458
*3515 TAP_459
*3516 TAP_460
*3517 TAP_461
*3518 TAP_462
*3519 TAP_463
*3520 TAP_464
*3521 TAP_465
*3522 TAP_466
*3523 TAP_467
*3524 TAP_468
*3525 TAP_469
*3526 TAP_470
*3527 TAP_471
*3528 TAP_472
*3529 TAP_473
*3530 TAP_474
*3531 TAP_475
*3532 TAP_476
*3533 TAP_477
*3534 TAP_478
*3535 TAP_479
*3536 TAP_480
*3537 TAP_481
*3538 TAP_482
*3539 TAP_483
*3540 TAP_484
*3541 TAP_485
*3542 TAP_486
*3543 TAP_487
*3544 TAP_488
*3545 TAP_489
*3546 TAP_490
*3547 TAP_491
*3548 TAP_492
*3549 TAP_493
*3550 TAP_494
*3551 TAP_495
*3552 TAP_496
*3553 TAP_497
*3554 TAP_498
*3555 TAP_499
*3556 TAP_500
*3557 TAP_501
*3558 TAP_502
*3559 TAP_503
*3560 TAP_504
*3561 TAP_505
*3562 TAP_506
*3563 TAP_507
*3564 TAP_508
*3565 TAP_509
*3566 TAP_510
*3567 TAP_511
*3568 TAP_512
*3569 TAP_513
*3570 TAP_514
*3571 TAP_515
*3572 TAP_516
*3573 TAP_517
*3574 TAP_518
*3575 TAP_519
*3576 TAP_520
*3577 TAP_521
*3578 TAP_522
*3579 TAP_523
*3580 TAP_524
*3581 TAP_525
*3582 TAP_526
*3583 TAP_527
*3584 TAP_528
*3585 TAP_529
*3586 TAP_530
*3587 TAP_531
*3588 TAP_532
*3589 TAP_533
*3590 TAP_534
*3591 TAP_535
*3592 TAP_536
*3593 TAP_537
*3594 TAP_538
*3595 TAP_539
*3596 TAP_540
*3597 TAP_541
*3598 TAP_542
*3599 TAP_543
*3600 TAP_544
*3601 TAP_545
*3602 TAP_546
*3603 TAP_547
*3604 TAP_548
*3605 TAP_549
*3606 TAP_550
*3607 TAP_551
*3608 TAP_552
*3609 TAP_553
*3610 TAP_554
*3611 TAP_555
*3612 TAP_556
*3613 TAP_557
*3614 TAP_558
*3615 TAP_559
*3616 TAP_560
*3617 TAP_561
*3618 TAP_562
*3619 TAP_563
*3620 TAP_564
*3621 TAP_565
*3622 TAP_566
*3623 TAP_567
*3624 TAP_568
*3625 TAP_569
*3626 TAP_570
*3627 TAP_571
*3628 TAP_572
*3629 TAP_573
*3630 TAP_574
*3631 TAP_575
*3632 TAP_576
*3633 TAP_577
*3634 TAP_578
*3635 TAP_579
*3636 TAP_580
*3637 TAP_581
*3638 TAP_582
*3639 TAP_583
*3640 TAP_584
*3641 TAP_585
*3642 TAP_586
*3643 TAP_587
*3644 TAP_588
*3645 TAP_589
*3646 TAP_590
*3647 TAP_591
*3648 TAP_592
*3649 TAP_593
*3650 TAP_594
*3651 TAP_595
*3652 TAP_596
*3653 TAP_597
*3654 TAP_598
*3655 _219_
*3656 _220_
*3657 _221_
*3658 _222_
*3659 _223_
*3660 _224_
*3661 _225_
*3662 _226_
*3663 _227_
*3664 _228_
*3665 _229_
*3666 _230_
*3667 _231_
*3668 _232_
*3669 _233_
*3670 _234_
*3671 _235_
*3672 _236_
*3673 _237_
*3674 _238_
*3675 _239_
*3676 _240_
*3677 _241_
*3678 _242_
*3679 _243_
*3680 _244_
*3681 _245_
*3682 _246_
*3683 _247_
*3684 _248_
*3685 _249_
*3686 _250_
*3687 _251_
*3688 _252_
*3689 _253_
*3690 _254_
*3691 _255_
*3692 _256_
*3693 _257_
*3694 _258_
*3695 _259_
*3696 _260_
*3697 _261_
*3698 _262_
*3699 _263_
*3700 _264_
*3701 _265_
*3702 _266_
*3703 _267_
*3704 _268_
*3705 _269_
*3706 _270_
*3707 _271_
*3708 _272_
*3709 _273_
*3710 _274_
*3711 _275_
*3712 _276_
*3713 _277_
*3714 _278_
*3715 _279_
*3716 _280_
*3717 _281_
*3718 _282_
*3719 _283_
*3720 _284_
*3721 _285_
*3722 _286_
*3723 _287_
*3724 _288_
*3725 _289_
*3726 _290_
*3727 _291_
*3728 _292_
*3729 _293_
*3730 _294_
*3731 _295_
*3732 _296_
*3733 _297_
*3734 _298_
*3735 _299_
*3736 _300_
*3737 _301_
*3738 _302_
*3739 _303_
*3740 _304_
*3741 _305_
*3742 _306_
*3743 _307_
*3744 _308_
*3745 _309_
*3746 _310_
*3747 _311_
*3748 _312_
*3749 _313_
*3750 _314_
*3751 _315_
*3752 _316_
*3753 _317_
*3754 _318_
*3755 _319_
*3756 _320_
*3757 _321_
*3758 _322_
*3759 _323_
*3760 _324_
*3761 _325_
*3762 _326_
*3763 _327_
*3764 _328_
*3765 _329_
*3766 _330_
*3767 _331_
*3768 _332_
*3769 _333_
*3770 _334_
*3771 _335_
*3772 _336_
*3773 _337_
*3774 _338_
*3775 _339_
*3776 _340_
*3777 _341_
*3778 _342_
*3779 _343_
*3780 _344_
*3781 _345_
*3782 _346_
*3783 _347_
*3784 _348_
*3785 _349_
*3786 _350_
*3787 _351_
*3788 _352_
*3789 _353_
*3790 _354_
*3791 _355_
*3792 _356_
*3793 _357_
*3794 _358_
*3795 _359_
*3796 _360_
*3797 _361_
*3798 _362_
*3799 _363_
*3800 _364_
*3801 _365_
*3802 _366_
*3803 _367_
*3804 _368_
*3805 _369_
*3806 _370_
*3807 _371_
*3808 _372_
*3809 _373_
*3810 _374_
*3811 _375_
*3812 _376_
*3813 _377_
*3814 _378_
*3815 _379_
*3816 _380_
*3817 _381_
*3818 _382_
*3819 _383_
*3820 _384_
*3821 _385_
*3822 _386_
*3823 _387_
*3824 _388_
*3825 _389_
*3826 _390_
*3827 _391_
*3828 _392_
*3829 _393_
*3830 _394_
*3831 _395_
*3832 _396_
*3833 _397_
*3834 _398_
*3835 _399_
*3836 _400_
*3837 _401_
*3838 _402_
*3839 _403_
*3840 _404_
*3841 _405_
*3842 _406_
*3843 _407_
*3844 _408_
*3845 _409_
*3846 _410_
*3847 _411_
*3848 _412_
*3849 _413_
*3850 _414_
*3851 _415_
*3852 _416_
*3853 _417_
*3854 _418_
*3855 _419_
*3856 _420_
*3857 _421_
*3858 _422_
*3859 _423_
*3860 _424_
*3861 _425_
*3862 _426_
*3863 _427_
*3864 _428_
*3865 _429_
*3866 _430_
*3867 _431_
*3868 _432_
*3869 _433_
*3870 _434_
*3871 _435_
*3872 _436_
*3873 _437_
*3874 _438_
*3875 _439_
*3876 _440_
*3877 _441_
*3878 _442_
*3879 _443_
*3880 _444_
*3881 _445_
*3882 _446_
*3883 _447_
*3884 _448_
*3885 _449_
*3886 _450_
*3887 _451_
*3888 clkbuf_0_clk
*3889 clkbuf_1_0__f_clk
*3890 clkbuf_1_1__f_clk
*3891 fanout37
*3892 hold1
*3893 hold2
*3894 hold3
*3895 hold4
*3896 hold5
*3897 input1
*3898 input10
*3899 input11
*3900 input12
*3901 input13
*3902 input14
*3903 input15
*3904 input16
*3905 input17
*3906 input18
*3907 input19
*3908 input2
*3909 input20
*3910 input21
*3911 input22
*3912 input3
*3913 input4
*3914 input5
*3915 input6
*3916 input7
*3917 input8
*3918 input9
*3919 output23
*3920 output24
*3921 output25
*3922 output26
*3923 output27
*3924 output28
*3925 output29
*3926 output30
*3927 output31
*3928 output32
*3929 output33
*3930 output34
*3931 output35
*3932 output36

*PORTS
clk I
data_in[0] I
data_in[1] I
data_in[2] I
data_in[3] I
data_in[4] I
data_in[5] I
data_in[6] I
data_in[7] I
int4_out[0] O
int4_out[1] O
int4_out[2] O
int4_out[3] O
is_outlier O
round_mode I
rst_n I
scale[0] I
scale[1] I
scale[2] I
scale[3] I
sideband_out[0] O
sideband_out[1] O
sideband_out[2] O
sideband_out[3] O
sideband_out[4] O
sideband_out[5] O
sideband_out[6] O
sideband_out[7] O
threshold[0] I
threshold[1] I
threshold[2] I
threshold[3] I
threshold[4] I
threshold[5] I
threshold[6] I
threshold[7] I
valid_in I
valid_out O

*D_NET *3 0.0122277
*CONN
*P clk I
*I *3888:A I *D sky130_fd_sc_hd__clkbuf_16
*CAP
1 clk 0.00135295
2 *3888:A 0
3 *3:13 0.00441371
4 *3:11 0.00576667
5 *3:11 *269:10 0
6 *3:11 *302:12 0
7 *3:13 *3695:B 0.00010326
8 *3:13 *3695:C 5.53499e-05
9 *3:13 *3697:B1 1.25544e-05
10 *3:13 *3699:A 0
11 *3:13 *3699:B 0.000150618
12 *3:13 *3726:B2 0
13 *3:13 *3727:A 0
14 *3:13 *3874:CLK 7.69776e-06
15 *3:13 *3875:CLK 0.00023564
16 *3:13 *3875:D 0
17 *3:13 *246:42 4.02462e-05
18 *3:13 *246:62 2.26424e-05
19 *3:13 *251:21 0
20 *3:13 *265:14 0
21 *3:13 *301:82 6.63476e-05
*RES
1 clk *3:11 21.3064 
2 *3:11 *3:13 82.5446 
3 *3:13 *3888:A 13.8 
*END

*D_NET *4 0.000630504
*CONN
*P data_in[0] I
*I *3897:A I *D sky130_fd_sc_hd__clkbuf_2
*CAP
1 data_in[0] 0.000315252
2 *3897:A 0.000315252
*RES
1 data_in[0] *3897:A 21.2625 
*END

*D_NET *5 0.000610303
*CONN
*P data_in[1] I
*I *3908:A I *D sky130_fd_sc_hd__clkbuf_2
*CAP
1 data_in[1] 0.000305151
2 *3908:A 0.000305151
3 *3908:A *277:8 0
*RES
1 data_in[1] *3908:A 21.2625 
*END

*D_NET *6 0.00116426
*CONN
*P data_in[2] I
*I *3912:A I *D sky130_fd_sc_hd__buf_1
*CAP
1 data_in[2] 0.000510316
2 *3912:A 0.000510316
3 *3912:A *3927:A 0.000143633
*RES
1 data_in[2] *3912:A 24.3 
*END

*D_NET *7 0.00107588
*CONN
*P data_in[3] I
*I *3913:A I *D sky130_fd_sc_hd__clkbuf_4
*CAP
1 data_in[3] 0.000511747
2 *3913:A 0.000511747
3 *3913:A *300:12 5.23822e-05
*RES
1 data_in[3] *3913:A 23.7643 
*END

*D_NET *8 0.00104999
*CONN
*P data_in[4] I
*I *3914:A I *D sky130_fd_sc_hd__clkbuf_4
*CAP
1 data_in[4] 0.00050765
2 *3914:A 0.00050765
3 *3914:A *300:12 3.4689e-05
*RES
1 data_in[4] *3914:A 23.7643 
*END

*D_NET *9 0.00104442
*CONN
*P data_in[5] I
*I *3915:A I *D sky130_fd_sc_hd__clkbuf_4
*CAP
1 data_in[5] 0.000494732
2 *3915:A 0.000494732
3 *3915:A *266:8 5.4959e-05
*RES
1 data_in[5] *3915:A 23.7643 
*END

*D_NET *10 0.00119379
*CONN
*P data_in[6] I
*I *3916:A I *D sky130_fd_sc_hd__buf_4
*CAP
1 data_in[6] 0.000503562
2 *3916:A 0.000503562
3 *3916:A *302:6 0.000186669
*RES
1 data_in[6] *3916:A 24.1393 
*END

*D_NET *11 0.000826448
*CONN
*P data_in[7] I
*I *3917:A I *D sky130_fd_sc_hd__buf_2
*CAP
1 data_in[7] 0.000413224
2 *3917:A 0.000413224
*RES
1 data_in[7] *3917:A 21.9607 
*END

*D_NET *12 0.00064281
*CONN
*P int4_out[0] O
*I *3919:X O *D sky130_fd_sc_hd__clkbuf_4
*CAP
1 int4_out[0] 0.000309978
2 *3919:X 0.000309978
3 int4_out[0] *277:8 2.28544e-05
*RES
1 *3919:X int4_out[0] 18.7335 
*END

*D_NET *13 0.000572833
*CONN
*P int4_out[1] O
*I *3920:X O *D sky130_fd_sc_hd__buf_2
*CAP
1 int4_out[1] 0.0002526
2 *3920:X 0.0002526
3 int4_out[1] *271:8 6.76337e-05
*RES
1 *3920:X int4_out[1] 18.8021 
*END

*D_NET *14 0.00142479
*CONN
*P int4_out[2] O
*I *3921:X O *D sky130_fd_sc_hd__clkbuf_4
*CAP
1 int4_out[2] 0.00067886
2 *3921:X 0.00067886
3 int4_out[2] *3921:A 4.79605e-05
4 int4_out[2] *266:8 1.55667e-05
5 int4_out[2] *266:18 3.54697e-06
*RES
1 *3921:X int4_out[2] 25.3179 
*END

*D_NET *15 0.000709109
*CONN
*P int4_out[3] O
*I *3922:X O *D sky130_fd_sc_hd__clkbuf_4
*CAP
1 int4_out[3] 0.000343983
2 *3922:X 0.000343983
3 int4_out[3] *277:8 2.11419e-05
*RES
1 *3922:X int4_out[3] 18.6085 
*END

*D_NET *16 0.000697403
*CONN
*P is_outlier O
*I *3923:X O *D sky130_fd_sc_hd__clkbuf_4
*CAP
1 is_outlier 0.000348702
2 *3923:X 0.000348702
3 is_outlier *277:8 0
*RES
1 *3923:X is_outlier 20.9589 
*END

*D_NET *18 0.000502071
*CONN
*P rst_n I
*I *3918:A I *D sky130_fd_sc_hd__buf_2
*CAP
1 rst_n 0.000251036
2 *3918:A 0.000251036
*RES
1 rst_n *3918:A 19.906 
*END

*D_NET *19 0.000654029
*CONN
*P scale[0] I
*I *3898:A I *D sky130_fd_sc_hd__buf_2
*CAP
1 scale[0] 0.000327015
2 *3898:A 0.000327015
3 *3898:A *271:8 0
*RES
1 scale[0] *3898:A 21.4239 
*END

*D_NET *20 0.00143417
*CONN
*P scale[1] I
*I *3899:A I *D sky130_fd_sc_hd__buf_2
*CAP
1 scale[1] 0.000717087
2 *3899:A 0.000717087
*RES
1 scale[1] *3899:A 27.5857 
*END

*D_NET *21 0.000983357
*CONN
*P scale[2] I
*I *3900:A I *D sky130_fd_sc_hd__buf_2
*CAP
1 scale[2] 0.000491679
2 *3900:A 0.000491679
*RES
1 scale[2] *3900:A 23.3536 
*END

*D_NET *22 0.000668671
*CONN
*P scale[3] I
*I *3901:A I *D sky130_fd_sc_hd__buf_2
*CAP
1 scale[3] 0.000334336
2 *3901:A 0.000334336
*RES
1 scale[3] *3901:A 21.7625 
*END

*D_NET *23 0.000700258
*CONN
*P sideband_out[0] O
*I *3924:X O *D sky130_fd_sc_hd__clkbuf_4
*CAP
1 sideband_out[0] 0.000350129
2 *3924:X 0.000350129
*RES
1 *3924:X sideband_out[0] 20.6929 
*END

*D_NET *24 0.000588084
*CONN
*P sideband_out[1] O
*I *3925:X O *D sky130_fd_sc_hd__clkbuf_4
*CAP
1 sideband_out[1] 0.000294042
2 *3925:X 0.000294042
3 sideband_out[1] *288:27 0
*RES
1 *3925:X sideband_out[1] 19.2657 
*END

*D_NET *25 0.00103762
*CONN
*P sideband_out[2] O
*I *3926:X O *D sky130_fd_sc_hd__clkbuf_4
*CAP
1 sideband_out[2] 0.000447383
2 *3926:X 0.000447383
3 sideband_out[2] *302:6 0.000142856
*RES
1 *3926:X sideband_out[2] 22.05 
*END

*D_NET *26 0.00123774
*CONN
*P sideband_out[3] O
*I *3927:X O *D sky130_fd_sc_hd__clkbuf_4
*CAP
1 sideband_out[3] 0.00060566
2 *3927:X 0.00060566
3 sideband_out[3] *3927:A 2.64196e-05
*RES
1 *3927:X sideband_out[3] 24.0857 
*END

*D_NET *27 0.000574362
*CONN
*P sideband_out[4] O
*I *3928:X O *D sky130_fd_sc_hd__clkbuf_4
*CAP
1 sideband_out[4] 0.000287181
2 *3928:X 0.000287181
*RES
1 *3928:X sideband_out[4] 18.6586 
*END

*D_NET *28 0.000700258
*CONN
*P sideband_out[5] O
*I *3929:X O *D sky130_fd_sc_hd__clkbuf_4
*CAP
1 sideband_out[5] 0.000350129
2 *3929:X 0.000350129
*RES
1 *3929:X sideband_out[5] 20.6929 
*END

*D_NET *29 0.000700258
*CONN
*P sideband_out[6] O
*I *3930:X O *D sky130_fd_sc_hd__clkbuf_4
*CAP
1 sideband_out[6] 0.000350129
2 *3930:X 0.000350129
*RES
1 *3930:X sideband_out[6] 20.6929 
*END

*D_NET *30 0.000527464
*CONN
*P sideband_out[7] O
*I *3931:X O *D sky130_fd_sc_hd__clkbuf_4
*CAP
1 sideband_out[7] 0.000263732
2 *3931:X 0.000263732
*RES
1 *3931:X sideband_out[7] 18.4985 
*END

*D_NET *31 0.000678761
*CONN
*P threshold[0] I
*I *3902:A I *D sky130_fd_sc_hd__buf_1
*CAP
1 threshold[0] 0.00033938
2 *3902:A 0.00033938
*RES
1 threshold[0] *3902:A 22.2262 
*END

*D_NET *32 0.000813598
*CONN
*P threshold[1] I
*I *3903:A I *D sky130_fd_sc_hd__buf_1
*CAP
1 threshold[1] 0.000406799
2 *3903:A 0.000406799
*RES
1 threshold[1] *3903:A 21.9607 
*END

*D_NET *33 0.000548403
*CONN
*P threshold[2] I
*I *3904:A I *D sky130_fd_sc_hd__dlymetal6s2s_1
*CAP
1 threshold[2] 0.000254917
2 *3904:A 0.000254917
3 *3904:A *271:8 3.85681e-05
*RES
1 threshold[2] *3904:A 18.73 
*END

*D_NET *34 0.00136298
*CONN
*P threshold[3] I
*I *3905:A I *D sky130_fd_sc_hd__clkbuf_2
*CAP
1 threshold[3] 0.000681489
2 *3905:A 0.000681489
*RES
1 threshold[3] *3905:A 27.05 
*END

*D_NET *35 0.00101365
*CONN
*P threshold[4] I
*I *3906:A I *D sky130_fd_sc_hd__buf_1
*CAP
1 threshold[4] 0.000478478
2 *3906:A 0.000478478
3 *3906:A *266:18 5.66971e-05
*RES
1 threshold[4] *3906:A 23.3536 
*END

*D_NET *36 0.00104057
*CONN
*P threshold[5] I
*I *3907:A I *D sky130_fd_sc_hd__buf_1
*CAP
1 threshold[5] 0.000469965
2 *3907:A 0.000469965
3 *3907:A *296:12 0.000100642
*RES
1 threshold[5] *3907:A 23.3536 
*END

*D_NET *37 0.00110989
*CONN
*P threshold[6] I
*I *3909:A I *D sky130_fd_sc_hd__buf_1
*CAP
1 threshold[6] 0.000412087
2 *3909:A 0.000412087
3 *3909:A *302:6 0.000142856
4 *3909:A *303:14 0.000142856
*RES
1 threshold[6] *3909:A 22.6571 
*END

*D_NET *38 0.000550889
*CONN
*P threshold[7] I
*I *3910:A I *D sky130_fd_sc_hd__clkbuf_2
*CAP
1 threshold[7] 0.000275444
2 *3910:A 0.000275444
*RES
1 threshold[7] *3910:A 20.6554 
*END

*D_NET *39 0.00122907
*CONN
*P valid_in I
*I *3911:A I *D sky130_fd_sc_hd__clkbuf_2
*CAP
1 valid_in 0.000614536
2 *3911:A 0.000614536
*RES
1 valid_in *3911:A 23.7692 
*END

*D_NET *40 0.000556553
*CONN
*P valid_out O
*I *3932:X O *D sky130_fd_sc_hd__buf_2
*CAP
1 valid_out 0.000278276
2 *3932:X 0.000278276
3 valid_out *288:27 0
*RES
1 *3932:X valid_out 18.8021 
*END

*D_NET *41 0.00161846
*CONN
*I *3874:D I *D sky130_fd_sc_hd__dfrtp_1
*I *3691:X O *D sky130_fd_sc_hd__o21ba_1
*CAP
1 *3874:D 0.000258521
2 *3691:X 0.000258521
3 *3874:D *3856:A 5.83304e-05
4 *3874:D *3872:A 2.89016e-05
5 *3874:D *3872:B 1.00073e-05
6 *3874:D *210:10 0.000267814
7 *3874:D *210:25 2.89114e-05
8 *3874:D *210:51 0.000200406
9 *3874:D *261:10 0.000117196
10 *3874:D *261:16 0.000197984
11 *3874:D *261:64 0.00019187
*RES
1 *3691:X *3874:D 35.4571 
*END

*D_NET *42 0.00110628
*CONN
*I *3876:D I *D sky130_fd_sc_hd__dfrtp_1
*I *3847:X O *D sky130_fd_sc_hd__a22o_1
*CAP
1 *3876:D 0.000324135
2 *3847:X 0.000324135
3 *3876:D *3847:B1 9.90367e-05
4 *3876:D *3855:B2 0.000189908
5 *3876:D *3876:CLK 7.3237e-05
6 *3876:D *3878:CLK 3.75052e-05
7 *3876:D *261:92 5.83233e-05
*RES
1 *3847:X *3876:D 34.5821 
*END

*D_NET *43 0.000638033
*CONN
*I *3877:D I *D sky130_fd_sc_hd__dfrtp_2
*I *3851:X O *D sky130_fd_sc_hd__a22o_1
*CAP
1 *3877:D 0.000113143
2 *3851:X 0.000113143
3 *3877:D *3877:CLK 6.05161e-06
4 *3877:D *3877:RESET_B 0.00014285
5 *3877:D *244:39 7.63616e-05
6 *3877:D *261:79 5.83233e-05
7 *3877:D *261:92 0.000128161
*RES
1 *3851:X *3877:D 31.2071 
*END

*D_NET *44 0.000886127
*CONN
*I *3878:D I *D sky130_fd_sc_hd__dfrtp_1
*I *3855:X O *D sky130_fd_sc_hd__a22o_1
*CAP
1 *3878:D 0.000344806
2 *3855:X 0.000344806
3 *3878:D *278:10 0.000125724
4 *3878:D *301:10 7.07908e-05
*RES
1 *3855:X *3878:D 33.4393 
*END

*D_NET *45 0.000313407
*CONN
*I *3879:D I *D sky130_fd_sc_hd__dfrtp_1
*I *3857:X O *D sky130_fd_sc_hd__a21bo_1
*CAP
1 *3879:D 0.000114784
2 *3857:X 0.000114784
3 *3879:D *3691:B1_N 1.40415e-05
4 *3879:D *211:100 6.97972e-05
5 *3879:D *261:64 0
*RES
1 *3857:X *3879:D 29.7786 
*END

*D_NET *46 0.000447076
*CONN
*I *3880:D I *D sky130_fd_sc_hd__dfrtp_1
*I *3859:X O *D sky130_fd_sc_hd__a31o_1
*CAP
1 *3880:D 0.000170956
2 *3859:X 0.000170956
3 *3880:D *211:14 0
4 *3880:D *214:25 0
5 *3880:D *293:22 0.000105163
*RES
1 *3859:X *3880:D 31.0107 
*END

*D_NET *47 0.000478288
*CONN
*I *3881:D I *D sky130_fd_sc_hd__dfrtp_1
*I *3861:X O *D sky130_fd_sc_hd__a31o_1
*CAP
1 *3881:D 0.000191519
2 *3861:X 0.000191519
3 *3881:D *3861:A3 0
4 *3881:D *3881:CLK 2.44318e-05
5 *3881:D *3891:A 1.55953e-05
6 *3881:D *243:104 0
7 *3881:D *243:117 5.52238e-05
*RES
1 *3861:X *3881:D 21.2071 
*END

*D_NET *48 0.000226667
*CONN
*I *3882:D I *D sky130_fd_sc_hd__dfrtp_1
*I *3863:X O *D sky130_fd_sc_hd__a31o_1
*CAP
1 *3882:D 8.54378e-05
2 *3863:X 8.54378e-05
3 *3882:D *3864:A 0
4 *3882:D *209:121 5.57914e-05
*RES
1 *3863:X *3882:D 29.5464 
*END

*D_NET *49 0.000280109
*CONN
*I *3883:D I *D sky130_fd_sc_hd__dfrtp_1
*I *3865:X O *D sky130_fd_sc_hd__a31o_1
*CAP
1 *3883:D 9.95865e-05
2 *3865:X 9.95865e-05
3 *3883:D *3865:A1 2.34204e-05
4 *3883:D *3865:A3 2.27416e-05
5 *3883:D *3883:CLK 3.47737e-05
*RES
1 *3865:X *3883:D 29.475 
*END

*D_NET *50 0.000536071
*CONN
*I *3884:D I *D sky130_fd_sc_hd__dfrtp_2
*I *3867:X O *D sky130_fd_sc_hd__a31o_1
*CAP
1 *3884:D 0.000174855
2 *3867:X 0.000174855
3 *3884:D *3867:A1 0.000142856
4 *3884:D *209:121 4.35048e-05
5 *3884:D *211:51 0
*RES
1 *3867:X *3884:D 30.6 
*END

*D_NET *51 0.000614439
*CONN
*I *3885:D I *D sky130_fd_sc_hd__dfrtp_1
*I *3869:X O *D sky130_fd_sc_hd__a31o_1
*CAP
1 *3885:D 0.00021467
2 *3869:X 0.00021467
3 *3885:D *3870:B 5.52302e-05
4 *3885:D *3885:CLK 0
5 *3885:D *3885:RESET_B 0
6 *3885:D *3886:D 0.000129868
7 *3885:D *293:38 0
*RES
1 *3869:X *3885:D 31.9036 
*END

*D_NET *52 0.000678907
*CONN
*I *3886:D I *D sky130_fd_sc_hd__dfrtp_1
*I *3871:X O *D sky130_fd_sc_hd__a31o_1
*CAP
1 *3886:D 0.000153599
2 *3871:X 0.000153599
3 *3886:D *3885:CLK 2.19778e-05
4 *3886:D *3886:RESET_B 2.81497e-05
5 *3886:D *261:16 2.37761e-05
6 *3886:D *261:33 5.17614e-05
7 *3886:D *293:22 9.6087e-05
8 *3886:D *293:32 2.00884e-05
9 *3885:D *3886:D 0.000129868
*RES
1 *3871:X *3886:D 31.8321 
*END

*D_NET *53 0.000311291
*CONN
*I *3887:D I *D sky130_fd_sc_hd__dfrtp_1
*I *3873:X O *D sky130_fd_sc_hd__a31o_1
*CAP
1 *3887:D 9.53702e-05
2 *3873:X 9.53702e-05
3 *3887:D *3887:CLK 2.59355e-05
4 *3887:D *243:47 2.89114e-05
5 *3887:D *243:55 6.57032e-05
*RES
1 *3873:X *3887:D 20.3679 
*END

*D_NET *54 0.00211453
*CONN
*I *3719:A2 I *D sky130_fd_sc_hd__o21ai_1
*I *3732:A I *D sky130_fd_sc_hd__nor2_1
*I *3720:C I *D sky130_fd_sc_hd__or3_1
*I *3707:X O *D sky130_fd_sc_hd__and3_1
*CAP
1 *3719:A2 0.000150552
2 *3732:A 0.000194489
3 *3720:C 0.000252791
4 *3707:X 0
5 *54:6 0.000447279
6 *54:4 0.000150552
7 *3719:A2 *3707:A 2.89114e-05
8 *3719:A2 *3707:C 2.04134e-05
9 *3719:A2 *217:43 0.000185643
10 *3719:A2 *217:47 4.59075e-05
11 *3720:C *3707:C 4.92942e-05
12 *3720:C *3720:B 0
13 *3720:C *214:25 0.000170458
14 *3732:A *3707:A 0.000142965
15 *3732:A *3707:C 3.39401e-05
16 *3732:A *3889:A 2.11419e-05
17 *3732:A *79:8 9.90367e-05
18 *3732:A *179:39 4.02462e-05
19 *3732:A *214:25 8.09064e-05
*RES
1 *3707:X *54:4 9.3 
2 *54:4 *54:6 4.5 
3 *54:6 *3720:C 18.8357 
4 *54:6 *3732:A 18.2107 
5 *54:4 *3719:A2 12.925 
*END

*D_NET *55 0.00476662
*CONN
*I *3745:B1_N I *D sky130_fd_sc_hd__a21bo_1
*I *3729:A_N I *D sky130_fd_sc_hd__nand3b_1
*I *3820:A1 I *D sky130_fd_sc_hd__mux2_1
*I *3832:A I *D sky130_fd_sc_hd__and2_1
*I *3822:A1 I *D sky130_fd_sc_hd__o21ai_1
*I *3718:A I *D sky130_fd_sc_hd__xnor2_1
*I *3708:Y O *D sky130_fd_sc_hd__nand2_2
*CAP
1 *3745:B1_N 8.54063e-05
2 *3729:A_N 8.43131e-05
3 *3820:A1 0
4 *3832:A 1.55603e-05
5 *3822:A1 0
6 *3718:A 0.00024938
7 *3708:Y 1.24159e-05
8 *55:66 0.000506279
9 *55:26 0.000613149
10 *55:18 0.000570542
11 *55:10 0.000339636
12 *55:6 0.000497399
13 *3718:A *3717:A 0
14 *3718:A *3717:B 1.33343e-05
15 *3718:A *3718:B 9.59532e-06
16 *3718:A *3719:B1 0
17 *3718:A *3721:B 0
18 *3718:A *3822:A2 5.71472e-05
19 *3718:A *3823:S 1.19309e-05
20 *3718:A *168:16 0.000182659
21 *3718:A *252:20 4.88637e-05
22 *3718:A *257:16 1.02936e-05
23 *3729:A_N *3818:A2 9.80173e-05
24 *3729:A_N *260:10 0.000126439
25 *3729:A_N *263:23 0.000128146
26 *3745:B1_N *3729:C 2.91887e-05
27 *3745:B1_N *3745:A2 1.50087e-05
28 *3745:B1_N *247:14 6.09572e-05
29 *3745:B1_N *260:10 9.25014e-06
30 *3745:B1_N *263:23 0.000236092
31 *3832:A *3819:A3 1.92905e-05
32 *3832:A *3832:B 5.52302e-05
33 *55:6 *3817:B 5.7661e-06
34 *55:10 *3817:B 5.00917e-05
35 *55:10 *3820:S 2.95726e-05
36 *55:18 *3713:A 3.06406e-05
37 *55:18 *3817:A 0
38 *55:18 *3817:B 0.0001399
39 *55:18 *3819:A3 0
40 *55:18 *3820:A0 5.80706e-06
41 *55:18 *59:14 0
42 *55:18 *167:8 1.97695e-05
43 *55:26 *3714:B 0
44 *55:26 *3717:B 3.4855e-05
45 *55:26 *3817:A 0
46 *55:26 *3823:A0 2.47631e-06
47 *55:26 *59:14 0
48 *55:26 *252:20 0.000230475
49 *55:26 *257:16 4.63078e-05
50 *55:26 *302:71 0
51 *55:66 *3713:A 2.90075e-05
52 *55:66 *3820:S 3.69047e-06
53 *55:66 *247:18 9.20635e-06
54 *55:66 *303:78 4.35306e-05
*RES
1 *3708:Y *55:6 9.72857 
2 *55:6 *55:10 2.19643 
3 *55:10 *55:18 8.23214 
4 *55:18 *55:26 11.4821 
5 *55:26 *3718:A 23.175 
6 *55:26 *3822:A1 9.3 
7 *55:18 *3832:A 14.3357 
8 *55:10 *3820:A1 9.3 
9 *55:6 *55:66 8.32143 
10 *55:66 *3729:A_N 16.3893 
11 *55:66 *3745:B1_N 16.9607 
*END

*D_NET *56 0.00316198
*CONN
*I *3715:A I *D sky130_fd_sc_hd__and2_1
*I *3821:A I *D sky130_fd_sc_hd__nand2_1
*I *3716:A I *D sky130_fd_sc_hd__nor2_1
*I *3709:X O *D sky130_fd_sc_hd__a31o_1
*CAP
1 *3715:A 0.000178093
2 *3821:A 0
3 *3716:A 0.000179334
4 *3709:X 0.000603656
5 *56:23 0.000228093
6 *56:8 0.000832989
7 *3715:A *3715:B 2.04644e-05
8 *3715:A *3717:A 0.000115935
9 *3715:A *61:20 5.33005e-05
10 *3715:A *209:16 0.000234673
11 *3715:A *214:6 0.000105163
12 *3715:A *267:23 5.25192e-06
13 *3716:A *3716:B 1.62866e-05
14 *3716:A *61:20 8.25843e-06
15 *3716:A *63:12 7.74578e-05
16 *3716:A *168:16 8.91696e-05
17 *56:8 *61:16 2.27416e-05
18 *56:8 *61:20 7.49387e-06
19 *56:8 *209:16 2.87555e-06
20 *56:8 *249:10 3.08382e-06
21 *56:8 *249:16 2.44318e-05
22 *56:8 *267:44 3.80414e-05
23 *56:8 *301:69 0.0002976
24 *56:23 *3716:B 5.04841e-06
25 *56:23 *61:16 7.48927e-06
26 *56:23 *61:20 5.04841e-06
*RES
1 *3709:X *56:8 17.2464 
2 *56:8 *3716:A 21.1036 
3 *56:8 *56:23 1.03571 
4 *56:23 *3821:A 9.3 
5 *56:23 *3715:A 23.2821 
*END

*D_NET *57 0.000759007
*CONN
*I *3714:A I *D sky130_fd_sc_hd__xnor2_1
*I *3710:Y O *D sky130_fd_sc_hd__nand2_1
*CAP
1 *3714:A 0.000149692
2 *3710:Y 0.000149692
3 *3714:A *3710:A 2.63834e-05
4 *3714:A *3712:A 5.4695e-05
5 *3714:A *3714:B 5.12892e-05
6 *3714:A *217:43 0.000137983
7 *3714:A *267:44 5.12892e-05
8 *3714:A *302:54 0.000137983
*RES
1 *3710:Y *3714:A 31.8143 
*END

*D_NET *58 0.00163256
*CONN
*I *3817:B I *D sky130_fd_sc_hd__nand2_1
*I *3713:B I *D sky130_fd_sc_hd__and3_1
*I *3711:Y O *D sky130_fd_sc_hd__nand2_1
*CAP
1 *3817:B 0.000175547
2 *3713:B 0.000148353
3 *3711:Y 9.22617e-05
4 *58:8 0.000416162
5 *3713:B *3712:A 3.56212e-05
6 *3713:B *3713:A 5.51406e-05
7 *3713:B *3714:B 9.25014e-06
8 *3713:B *3820:S 5.24274e-05
9 *3713:B *3832:B 5.33005e-05
10 *3713:B *59:14 0.000101545
11 *3817:B *3708:B 0
12 *3817:B *3713:A 4.43256e-05
13 *3817:B *3820:S 1.24368e-05
14 *3817:B *167:8 0.00010096
15 *58:8 *3712:A 1.59782e-05
16 *58:8 *3713:A 3.57844e-05
17 *58:8 *3820:A0 3.38136e-05
18 *58:8 *3820:S 2.84398e-05
19 *58:8 *247:33 1.9643e-05
20 *58:8 *272:14 5.80706e-06
21 *55:6 *3817:B 5.7661e-06
22 *55:10 *3817:B 5.00917e-05
23 *55:18 *3817:B 0.0001399
*RES
1 *3711:Y *58:8 16.05 
2 *58:8 *3713:B 17.1929 
3 *58:8 *3817:B 18.05 
*END

*D_NET *59 0.00271555
*CONN
*I *3818:A2 I *D sky130_fd_sc_hd__o21ai_1
*I *3819:A2 I *D sky130_fd_sc_hd__a31o_1
*I *3713:C I *D sky130_fd_sc_hd__and3_1
*I *3712:X O *D sky130_fd_sc_hd__or2_1
*CAP
1 *3818:A2 0.000375415
2 *3819:A2 0
3 *3713:C 0
4 *3712:X 0.000206122
5 *59:23 0.000521994
6 *59:14 0.000352702
7 *3818:A2 *3729:C 5.7661e-06
8 *3818:A2 *3819:B1 1.04232e-05
9 *3818:A2 *3832:B 4.87854e-05
10 *3818:A2 *165:6 0.000453629
11 *3818:A2 *217:27 9.90367e-05
12 *3818:A2 *217:43 5.52302e-05
13 *3818:A2 *300:57 1.24368e-05
14 *59:14 *3713:A 1.02504e-05
15 *59:14 *3714:B 2.84419e-05
16 *59:14 *3819:A3 2.66502e-05
17 *59:14 *217:43 9.90367e-05
18 *59:23 *3819:A3 0.000197939
19 *59:23 *3832:B 1.21289e-05
20 *3713:B *59:14 0.000101545
21 *3729:A_N *3818:A2 9.80173e-05
22 *55:18 *59:14 0
23 *55:26 *59:14 0
*RES
1 *3712:X *59:14 21.7643 
2 *59:14 *3713:C 9.3 
3 *59:14 *59:23 2.875 
4 *59:23 *3819:A2 9.3 
5 *59:23 *3818:A2 17.925 
*END

*D_NET *60 0.000866442
*CONN
*I *3714:B I *D sky130_fd_sc_hd__xnor2_1
*I *3713:X O *D sky130_fd_sc_hd__and3_1
*CAP
1 *3714:B 0.000199334
2 *3713:X 0.000199334
3 *3714:B *3712:A 6.72827e-05
4 *3714:B *252:20 3.67257e-05
5 *3714:B *257:16 5.62995e-05
6 *3714:B *267:44 0
7 *3714:B *302:71 0.000218486
8 *3713:B *3714:B 9.25014e-06
9 *3714:A *3714:B 5.12892e-05
10 *55:26 *3714:B 0
11 *59:14 *3714:B 2.84419e-05
*RES
1 *3713:X *3714:B 32.9214 
*END

*D_NET *61 0.00150028
*CONN
*I *3821:B I *D sky130_fd_sc_hd__nand2_1
*I *3715:B I *D sky130_fd_sc_hd__and2_1
*I *3716:B I *D sky130_fd_sc_hd__nor2_1
*I *3714:Y O *D sky130_fd_sc_hd__xnor2_1
*CAP
1 *3821:B 0
2 *3715:B 0.000105299
3 *3716:B 3.56146e-05
4 *3714:Y 0.000176914
5 *61:20 0.000223537
6 *61:16 0.000259538
7 *3715:B *3717:A 9.67087e-05
8 *3715:B *63:12 4.6025e-06
9 *3716:B *168:16 5.80812e-05
10 *61:16 *3717:A 4.62984e-05
11 *61:16 *209:16 2.28598e-05
12 *61:16 *252:20 4.55516e-05
13 *61:16 *257:16 0.000181796
14 *61:16 *266:45 4.40493e-05
15 *61:20 *168:16 4.08637e-05
16 *61:20 *209:16 1.24368e-05
17 *3715:A *3715:B 2.04644e-05
18 *3715:A *61:20 5.33005e-05
19 *3716:A *3716:B 1.62866e-05
20 *3716:A *61:20 8.25843e-06
21 *56:8 *61:16 2.27416e-05
22 *56:8 *61:20 7.49387e-06
23 *56:23 *3716:B 5.04841e-06
24 *56:23 *61:16 7.48927e-06
25 *56:23 *61:20 5.04841e-06
*RES
1 *3714:Y *61:16 22.9786 
2 *61:16 *61:20 1.78571 
3 *61:20 *3716:B 10.5679 
4 *61:20 *3715:B 20.2464 
5 *61:16 *3821:B 9.3 
*END

*D_NET *62 0.000964526
*CONN
*I *3717:A I *D sky130_fd_sc_hd__nor2_1
*I *3715:X O *D sky130_fd_sc_hd__and2_1
*CAP
1 *3717:A 0.000291114
2 *3715:X 0.000291114
3 *3717:A *3718:B 4.1834e-05
4 *3717:A *63:12 2.62973e-05
5 *3717:A *209:16 5.52238e-05
6 *3717:A *266:45 0
7 *3715:A *3717:A 0.000115935
8 *3715:B *3717:A 9.67087e-05
9 *3718:A *3717:A 0
10 *61:16 *3717:A 4.62984e-05
*RES
1 *3715:X *3717:A 32.5107 
*END

*D_NET *63 0.000758213
*CONN
*I *3717:B I *D sky130_fd_sc_hd__nor2_1
*I *3822:A2 I *D sky130_fd_sc_hd__o21ai_1
*I *3716:Y O *D sky130_fd_sc_hd__nor2_1
*CAP
1 *3717:B 3.05218e-05
2 *3822:A2 1.13923e-05
3 *3716:Y 0.000124918
4 *63:12 0.000166832
5 *3717:B *3823:A0 0
6 *3717:B *257:16 1.98839e-05
7 *3822:A2 *257:16 2.89016e-05
8 *63:12 *3718:B 8.77729e-05
9 *63:12 *168:16 7.42974e-05
10 *3715:B *63:12 4.6025e-06
11 *3716:A *63:12 7.74578e-05
12 *3717:A *63:12 2.62973e-05
13 *3718:A *3717:B 1.33343e-05
14 *3718:A *3822:A2 5.71472e-05
15 *55:26 *3717:B 3.4855e-05
*RES
1 *3716:Y *63:12 21.2821 
2 *63:12 *3822:A2 9.83571 
3 *63:12 *3717:B 10.2643 
*END

*D_NET *64 0.00100498
*CONN
*I *3718:B I *D sky130_fd_sc_hd__xnor2_1
*I *3717:Y O *D sky130_fd_sc_hd__nor2_1
*CAP
1 *3718:B 0.000271938
2 *3717:Y 0.000271938
3 *3718:B *3721:B 6.2589e-06
4 *3718:B *3889:A 0
5 *3718:B *65:8 1.85443e-05
6 *3718:B *277:22 0.000297099
7 *3717:A *3718:B 4.1834e-05
8 *3718:A *3718:B 9.59532e-06
9 *63:12 *3718:B 8.77729e-05
*RES
1 *3717:Y *3718:B 37.0958 
*END

*D_NET *65 0.0016426
*CONN
*I *3719:B1 I *D sky130_fd_sc_hd__o21ai_1
*I *3720:A I *D sky130_fd_sc_hd__or3_1
*I *3718:Y O *D sky130_fd_sc_hd__xnor2_1
*CAP
1 *3719:B1 0.00015384
2 *3720:A 0.000150055
3 *3718:Y 5.73343e-05
4 *65:8 0.000361229
5 *3719:B1 *3720:B 3.27421e-05
6 *3719:B1 *3721:B 0.000312383
7 *3719:B1 *3817:A 0
8 *3719:B1 *170:14 0.000246801
9 *3720:A *3720:B 0.000188586
10 *3720:A *3721:B 6.58597e-05
11 *65:8 *3721:B 5.52302e-05
12 *3718:A *3719:B1 0
13 *3718:B *65:8 1.85443e-05
*RES
1 *3718:Y *65:8 10.675 
2 *65:8 *3720:A 13.1393 
3 *65:8 *3719:B1 22.9786 
*END

*D_NET *66 0.00066775
*CONN
*I *3721:A I *D sky130_fd_sc_hd__nand2_1
*I *3823:S I *D sky130_fd_sc_hd__mux2_1
*I *3719:Y O *D sky130_fd_sc_hd__o21ai_1
*CAP
1 *3721:A 0
2 *3823:S 0.00014386
3 *3719:Y 0.000109266
4 *66:10 0.000253126
5 *3823:S *3721:B 9.4555e-05
6 *66:10 *217:43 5.50115e-05
7 *3718:A *3823:S 1.19309e-05
*RES
1 *3719:Y *66:10 11.2107 
2 *66:10 *3823:S 20.8536 
3 *66:10 *3721:A 9.3 
*END

*D_NET *67 0.00134141
*CONN
*I *3721:B I *D sky130_fd_sc_hd__nand2_1
*I *3720:X O *D sky130_fd_sc_hd__or3_1
*CAP
1 *3721:B 0.000354044
2 *3720:X 0.000354044
3 *3721:B *3720:B 9.90367e-05
4 *3718:A *3721:B 0
5 *3718:B *3721:B 6.2589e-06
6 *3719:B1 *3721:B 0.000312383
7 *3720:A *3721:B 6.58597e-05
8 *3823:S *3721:B 9.4555e-05
9 *65:8 *3721:B 5.52302e-05
*RES
1 *3720:X *3721:B 34.2607 
*END

*D_NET *68 0.00303541
*CONN
*I *3816:A0 I *D sky130_fd_sc_hd__mux2_1
*I *3826:A1 I *D sky130_fd_sc_hd__o211ai_1
*I *3734:A I *D sky130_fd_sc_hd__xor2_1
*I *3825:A1 I *D sky130_fd_sc_hd__o22a_1
*I *3721:Y O *D sky130_fd_sc_hd__nand2_1
*CAP
1 *3816:A0 4.95517e-05
2 *3826:A1 0
3 *3734:A 3.95795e-05
4 *3825:A1 0
5 *3721:Y 0.000213573
6 *68:42 0.000212294
7 *68:23 0.000405211
8 *68:14 0.000416462
9 *3734:A *3824:A 1.95846e-05
10 *3734:A *3825:A2 7.05286e-05
11 *3816:A0 *3816:S 9.90431e-05
12 *3816:A0 *3826:C1 6.42095e-05
13 *3816:A0 *162:16 0.000227539
14 *68:14 *3733:A 4.16207e-05
15 *68:14 *3747:A 6.42242e-05
16 *68:14 *3817:A 0
17 *68:14 *3825:A2 5.52302e-05
18 *68:14 *3825:B2 5.59013e-05
19 *68:14 *167:8 9.71197e-05
20 *68:14 *170:14 0.000209165
21 *68:14 *217:43 5.71472e-05
22 *68:23 *3816:A1 5.71472e-05
23 *68:23 *3825:A2 0.000369915
24 *68:23 *3825:B1 0
25 *68:42 *3824:A 1.32552e-05
26 *68:42 *179:39 4.71964e-05
27 *68:42 *245:37 0.000149911
*RES
1 *3721:Y *68:14 23.8536 
2 *68:14 *3825:A1 9.3 
3 *68:14 *68:23 4.75893 
4 *68:23 *3734:A 10.7732 
5 *68:23 *68:42 12.5268 
6 *68:42 *3826:A1 9.3 
7 *68:42 *3816:A0 11.4786 
*END

*D_NET *69 0.00208457
*CONN
*I *3736:A I *D sky130_fd_sc_hd__nand3_1
*I *3737:B1 I *D sky130_fd_sc_hd__a21o_1
*I *3725:A1 I *D sky130_fd_sc_hd__a21bo_1
*I *3722:X O *D sky130_fd_sc_hd__and2_1
*CAP
1 *3736:A 9.76141e-05
2 *3737:B1 0.000224701
3 *3725:A1 8.0211e-06
4 *3722:X 0.000128488
5 *69:21 0.000391671
6 *69:6 0.000205865
7 *3725:A1 *72:20 5.52238e-05
8 *3736:A *3724:A 7.19827e-05
9 *3736:A *3724:B 1.56e-05
10 *3736:A *3724:C 5.91094e-05
11 *3736:A *3725:A2 0.000317217
12 *3736:A *3736:C 9.7049e-06
13 *3737:B1 *3724:D 3.48139e-05
14 *3737:B1 *3725:B1_N 4.29471e-05
15 *3737:B1 *3743:B 1.02504e-05
16 *3737:B1 *71:33 0.00013651
17 *3737:B1 *83:10 0.00014576
18 *3737:B1 *246:85 0
19 *69:6 *72:20 1.24368e-05
20 *69:21 *3724:A 5.694e-05
21 *69:21 *3725:A2 4.49733e-05
22 *69:21 *72:20 1.4739e-05
*RES
1 *3722:X *69:6 11.0679 
2 *69:6 *3725:A1 9.83571 
3 *69:6 *69:21 2.08929 
4 *69:21 *3737:B1 22.5143 
5 *69:21 *3736:A 13.4071 
*END

*D_NET *70 0.00290534
*CONN
*I *3737:A2 I *D sky130_fd_sc_hd__a21o_1
*I *3725:A2 I *D sky130_fd_sc_hd__a21bo_1
*I *3736:C I *D sky130_fd_sc_hd__nand3_1
*I *3723:X O *D sky130_fd_sc_hd__a22o_1
*CAP
1 *3737:A2 0.000158998
2 *3725:A2 0.000177581
3 *3736:C 3.92029e-05
4 *3723:X 0.000354158
5 *70:12 0.000216784
6 *70:10 0.000513156
7 *3725:A2 *3724:C 2.58821e-05
8 *3725:A2 *71:8 5.33005e-05
9 *3725:A2 *72:20 9.50714e-05
10 *3725:A2 *83:10 0.000139913
11 *3736:C *3724:C 2.89016e-05
12 *3736:C *3779:B1 0
13 *3737:A2 *3736:B 0.000266755
14 *3737:A2 *3742:A1 0
15 *3737:A2 *3749:A 1.04232e-05
16 *3737:A2 *82:10 5.75803e-05
17 *3737:A2 *89:8 6.86792e-05
18 *70:10 *3724:C 5.01117e-05
19 *70:10 *3736:B 3.34295e-05
20 *70:10 *82:10 2.00751e-05
21 *70:10 *246:62 2.24763e-05
22 *70:10 *247:99 9.24825e-05
23 *70:10 *264:51 0.000108484
24 *3736:A *3725:A2 0.000317217
25 *3736:A *3736:C 9.7049e-06
26 *69:21 *3725:A2 4.49733e-05
*RES
1 *3723:X *70:10 19.5679 
2 *70:10 *70:12 4.5 
3 *70:12 *3736:C 10.2643 
4 *70:12 *3725:A2 14.5143 
5 *70:10 *3737:A2 17.8357 
*END

*D_NET *71 0.00284855
*CONN
*I *3737:A1 I *D sky130_fd_sc_hd__a21o_1
*I *3736:B I *D sky130_fd_sc_hd__nand3_1
*I *3725:B1_N I *D sky130_fd_sc_hd__a21bo_1
*I *3724:Y O *D sky130_fd_sc_hd__nand4_1
*CAP
1 *3737:A1 0
2 *3736:B 0.000171426
3 *3725:B1_N 0.00044225
4 *3724:Y 4.36033e-05
5 *71:33 0.000301605
6 *71:8 0.000616032
7 *3725:B1_N *214:88 6.81196e-05
8 *3725:B1_N *214:100 0
9 *3725:B1_N *246:85 1.04114e-05
10 *3725:B1_N *247:112 6.81196e-05
11 *3736:B *3743:C 5.52238e-05
12 *3736:B *82:10 0
13 *3736:B *82:19 0
14 *3736:B *89:8 1.39726e-05
15 *3736:B *264:51 0.000242913
16 *71:33 *3742:A1 5.15855e-05
17 *71:33 *3742:A2 3.57366e-05
18 *71:33 *3743:C 0.000139907
19 *71:33 *89:8 8.43535e-06
20 *71:33 *246:85 4.62632e-05
21 *3725:A2 *71:8 5.33005e-05
22 *3737:A2 *3736:B 0.000266755
23 *3737:B1 *3725:B1_N 4.29471e-05
24 *3737:B1 *71:33 0.00013651
25 *70:10 *3736:B 3.34295e-05
*RES
1 *3724:Y *71:8 14.3357 
2 *71:8 *3725:B1_N 22.7078 
3 *71:8 *71:33 8.23214 
4 *71:33 *3736:B 22.8179 
5 *71:33 *3737:A1 9.3 
*END

*D_NET *72 0.0022746
*CONN
*I *3727:B I *D sky130_fd_sc_hd__nand3_1
*I *3728:B1 I *D sky130_fd_sc_hd__a21o_1
*I *3725:X O *D sky130_fd_sc_hd__a21bo_1
*CAP
1 *3727:B 1.03745e-05
2 *3728:B1 7.88886e-05
3 *3725:X 0.000507573
4 *72:20 0.000596836
5 *3727:B *3727:C 5.7661e-06
6 *3727:B *3728:A2 5.7661e-06
7 *3728:B1 *3728:A1 1.55885e-05
8 *3728:B1 *3728:A2 5.57575e-05
9 *3728:B1 *74:12 0.000224322
10 *72:20 *3661:A 0
11 *72:20 *3727:A 0
12 *72:20 *3727:C 5.7661e-06
13 *72:20 *3728:A2 4.88637e-05
14 *72:20 *213:89 0.000403154
15 *72:20 *214:88 0
16 *72:20 *246:66 9.24395e-05
17 *72:20 *246:85 4.60387e-05
18 *3725:A1 *72:20 5.52238e-05
19 *3725:A2 *72:20 9.50714e-05
20 *69:6 *72:20 1.24368e-05
21 *69:21 *72:20 1.4739e-05
*RES
1 *3725:X *72:20 28.4071 
2 *72:20 *3728:B1 11.9071 
3 *72:20 *3727:B 9.72857 
*END

*D_NET *73 0.000897523
*CONN
*I *3727:C I *D sky130_fd_sc_hd__nand3_1
*I *3728:A2 I *D sky130_fd_sc_hd__a21o_1
*I *3726:X O *D sky130_fd_sc_hd__a22o_1
*CAP
1 *3727:C 1.03745e-05
2 *3728:A2 0.00010733
3 *3726:X 0.000240527
4 *73:12 0.000358231
5 *3728:A2 *3728:A1 1.24368e-05
6 *73:12 *3664:C_N 4.1331e-06
7 *73:12 *3727:A 4.1331e-06
8 *73:12 *214:77 0
9 *73:12 *217:21 3.84385e-05
10 *73:12 *251:21 0
11 *3727:B *3727:C 5.7661e-06
12 *3727:B *3728:A2 5.7661e-06
13 *3728:B1 *3728:A2 5.57575e-05
14 *72:20 *3727:C 5.7661e-06
15 *72:20 *3728:A2 4.88637e-05
*RES
1 *3726:X *73:12 22.4964 
2 *73:12 *3728:A2 11.4964 
3 *73:12 *3727:C 9.72857 
*END

*D_NET *74 0.00301495
*CONN
*I *3745:A1 I *D sky130_fd_sc_hd__a21bo_1
*I *3730:A I *D sky130_fd_sc_hd__and2_1
*I *3729:B I *D sky130_fd_sc_hd__nand3b_1
*I *3727:Y O *D sky130_fd_sc_hd__nand3_1
*CAP
1 *3745:A1 0
2 *3730:A 9.05e-05
3 *3729:B 6.61689e-05
4 *3727:Y 0.000398929
5 *74:25 0.00017296
6 *74:12 0.000547558
7 *3729:B *3729:C 0.000129868
8 *3729:B *260:10 1.78447e-05
9 *3729:B *266:35 0.000177941
10 *3730:A *3730:B 0.000181266
11 *3730:A *3735:B 0
12 *3730:A *272:20 0.000161885
13 *74:12 *75:8 0.000519489
14 *74:25 *3729:C 2.31791e-05
15 *74:25 *3745:A2 5.41794e-05
16 *74:25 *247:14 5.74562e-05
17 *74:25 *266:35 0.000191403
18 *3728:B1 *74:12 0.000224322
*RES
1 *3727:Y *74:12 22.175 
2 *74:12 *3729:B 16.05 
3 *74:12 *74:25 7.05357 
4 *74:25 *3730:A 12.4607 
5 *74:25 *3745:A1 9.3 
*END

*D_NET *75 0.00285541
*CONN
*I *3745:A2 I *D sky130_fd_sc_hd__a21bo_1
*I *3729:C I *D sky130_fd_sc_hd__nand3b_1
*I *3728:X O *D sky130_fd_sc_hd__a21o_1
*CAP
1 *3745:A2 0.000270624
2 *3729:C 8.85248e-05
3 *3728:X 0.000157092
4 *75:8 0.000516241
5 *3729:C *260:10 4.15914e-05
6 *3745:A2 *3695:B 0.000177821
7 *3745:A2 *3724:C 0
8 *3745:A2 *3730:B 5.33005e-05
9 *3745:A2 *3735:B 0.000100831
10 *3745:A2 *76:8 0.00012401
11 *3745:A2 *247:14 9.25014e-06
12 *3745:A2 *264:62 1.98839e-05
13 *3745:A2 *272:20 4.58194e-05
14 *75:8 *3695:B 0.000473747
15 *3729:B *3729:C 0.000129868
16 *3745:B1_N *3729:C 2.91887e-05
17 *3745:B1_N *3745:A2 1.50087e-05
18 *3818:A2 *3729:C 5.7661e-06
19 *74:12 *75:8 0.000519489
20 *74:25 *3729:C 2.31791e-05
21 *74:25 *3745:A2 5.41794e-05
*RES
1 *3728:X *75:8 19.2643 
2 *75:8 *3729:C 16.4786 
3 *75:8 *3745:A2 27.8893 
*END

*D_NET *76 0.00305558
*CONN
*I *3746:B I *D sky130_fd_sc_hd__and3_1
*I *3779:A1 I *D sky130_fd_sc_hd__a21oi_1
*I *3730:B I *D sky130_fd_sc_hd__and2_1
*I *3729:Y O *D sky130_fd_sc_hd__nand3b_1
*CAP
1 *3746:B 0.000207473
2 *3779:A1 7.26505e-05
3 *3730:B 0.000105719
4 *3729:Y 0.000136738
5 *76:19 0.000336322
6 *76:8 0.000298655
7 *3730:B *264:62 0.000393943
8 *3730:B *272:20 3.61496e-05
9 *3746:B *3746:A 0.000181803
10 *3746:B *3746:C 2.47724e-05
11 *3746:B *3780:B 5.52238e-05
12 *3746:B *91:12 9.25014e-06
13 *3746:B *92:10 5.41794e-05
14 *3746:B *266:22 2.16719e-05
15 *3746:B *266:35 4.49293e-05
16 *3779:A1 *247:89 9.60939e-05
17 *76:8 *3735:B 9.55371e-05
18 *76:8 *266:35 0.000332771
19 *76:19 *3724:C 0
20 *76:19 *92:10 7.83587e-05
21 *76:19 *266:35 0.000114759
22 *3730:A *3730:B 0.000181266
23 *3745:A2 *3730:B 5.33005e-05
24 *3745:A2 *76:8 0.00012401
*RES
1 *3729:Y *76:8 18.175 
2 *76:8 *3730:B 17.6214 
3 *76:8 *76:19 1.64286 
4 *76:19 *3779:A1 14.7464 
5 *76:19 *3746:B 18.1571 
*END

*D_NET *77 0.00312387
*CONN
*I *3747:B I *D sky130_fd_sc_hd__xnor2_1
*I *3733:A I *D sky130_fd_sc_hd__or2b_1
*I *3730:X O *D sky130_fd_sc_hd__and2_1
*CAP
1 *3747:B 0
2 *3733:A 0.000490834
3 *3730:X 0.000397056
4 *77:6 0.00088789
5 *3733:A *3747:A 0.000316894
6 *3733:A *3817:A 0
7 *3733:A *179:10 0.000356028
8 *77:6 *3820:A0 0.000269422
9 *77:6 *94:16 5.76121e-05
10 *77:6 *245:23 5.33005e-05
11 *77:6 *247:33 9.60875e-05
12 *77:6 *249:48 8.98372e-05
13 *77:6 *264:62 2.59355e-05
14 *77:6 *272:20 4.13496e-05
15 *68:14 *3733:A 4.16207e-05
*RES
1 *3730:X *77:6 18.05 
2 *77:6 *3733:A 27.3 
3 *77:6 *3747:B 9.3 
*END

*D_NET *78 0.000175797
*CONN
*I *3732:B I *D sky130_fd_sc_hd__nor2_1
*I *3731:Y O *D sky130_fd_sc_hd__a21oi_1
*CAP
1 *3732:B 3.63005e-05
2 *3731:Y 3.63005e-05
3 *3732:B *3731:A1 1.74352e-05
4 *3732:B *3731:B1 4.34697e-05
5 *3732:B *3856:C 4.22908e-05
*RES
1 *3731:Y *3732:B 19.9929 
*END

*D_NET *79 0.00191684
*CONN
*I *3747:A I *D sky130_fd_sc_hd__xnor2_1
*I *3733:B_N I *D sky130_fd_sc_hd__or2b_1
*I *3732:Y O *D sky130_fd_sc_hd__nor2_1
*CAP
1 *3747:A 0.000358973
2 *3733:B_N 0
3 *3732:Y 0.000131229
4 *79:8 0.000490202
5 *3747:A *3816:A1 0
6 *3747:A *3826:C1 0
7 *3747:A *179:10 0.000137515
8 *3747:A *179:39 0
9 *79:8 *3707:A 6.42095e-05
10 *79:8 *3731:A1 1.39841e-05
11 *79:8 *3856:C 0.000119135
12 *79:8 *179:10 0.000121435
13 *3732:A *79:8 9.90367e-05
14 *3733:A *3747:A 0.000316894
15 *68:14 *3747:A 6.42242e-05
*RES
1 *3732:Y *79:8 13.1393 
2 *79:8 *3733:B_N 9.3 
3 *79:8 *3747:A 25.9964 
*END

*D_NET *80 0.00155858
*CONN
*I *3825:A2 I *D sky130_fd_sc_hd__o22a_1
*I *3734:B I *D sky130_fd_sc_hd__xor2_1
*I *3733:X O *D sky130_fd_sc_hd__or2b_1
*CAP
1 *3825:A2 9.96e-05
2 *3734:B 0.000103797
3 *3733:X 9.43168e-05
4 *80:10 0.000297713
5 *3734:B *179:39 1.00375e-05
6 *3734:B *245:37 4.70981e-05
7 *3825:A2 *3824:A 0.000146523
8 *3825:A2 *3825:B1 0
9 *3825:A2 *167:8 4.27338e-05
10 *3825:A2 *179:39 2.22043e-05
11 *80:10 *3707:A 5.71472e-05
12 *80:10 *179:39 0.000110848
13 *80:10 *245:37 3.08907e-05
14 *3734:A *3825:A2 7.05286e-05
15 *68:14 *3825:A2 5.52302e-05
16 *68:23 *3825:A2 0.000369915
*RES
1 *3733:X *80:10 15.8268 
2 *80:10 *3734:B 15.3268 
3 *80:10 *3825:A2 18.3268 
*END

*D_NET *81 0.000415862
*CONN
*I *3816:A1 I *D sky130_fd_sc_hd__mux2_1
*I *3734:X O *D sky130_fd_sc_hd__xor2_1
*CAP
1 *3816:A1 9.09504e-05
2 *3734:X 9.09504e-05
3 *3816:A1 *3826:C1 5.10822e-05
4 *3816:A1 *179:39 0.000125731
5 *3747:A *3816:A1 0
6 *68:23 *3816:A1 5.71472e-05
*RES
1 *3734:X *3816:A1 29.7786 
*END

*D_NET *82 0.00197224
*CONN
*I *3760:B1 I *D sky130_fd_sc_hd__a21o_1
*I *3744:A1 I *D sky130_fd_sc_hd__a21bo_1
*I *3749:B I *D sky130_fd_sc_hd__nand3_1
*I *3735:X O *D sky130_fd_sc_hd__and2_1
*CAP
1 *3760:B1 6.57461e-05
2 *3744:A1 5.05897e-05
3 *3749:B 0
4 *3735:X 0.000308891
5 *82:19 0.000181712
6 *82:10 0.000374267
7 *3744:A1 *3744:A2 1.24368e-05
8 *3744:A1 *213:70 9.41642e-05
9 *3760:B1 *3749:A 1.08359e-05
10 *3760:B1 *3760:A1 3.90513e-05
11 *3760:B1 *96:8 0.000213635
12 *3760:B1 *213:70 0.000128161
13 *82:10 *3724:C 0.000100831
14 *82:10 *89:12 1.99099e-05
15 *82:10 *91:12 0
16 *82:10 *92:10 0
17 *82:10 *264:62 9.90367e-05
18 *82:19 *3749:A 6.21562e-05
19 *82:19 *89:12 8.2958e-06
20 *82:19 *96:8 0.000124868
21 *82:19 *264:51 0
22 *3736:B *82:10 0
23 *3736:B *82:19 0
24 *3737:A2 *82:10 5.75803e-05
25 *70:10 *82:10 2.00751e-05
*RES
1 *3735:X *82:10 19.425 
2 *82:10 *3749:B 13.8 
3 *82:10 *82:19 1.94643 
4 *82:19 *3744:A1 14.7464 
5 *82:19 *3760:B1 16.6571 
*END

*D_NET *83 0.00166523
*CONN
*I *3743:B I *D sky130_fd_sc_hd__nand3_1
*I *3742:A1 I *D sky130_fd_sc_hd__a21o_1
*I *3736:Y O *D sky130_fd_sc_hd__nand3_1
*CAP
1 *3743:B 0.000102904
2 *3742:A1 9.5725e-05
3 *3736:Y 0.000165621
4 *83:10 0.000364249
5 *3742:A1 *3742:A2 6.29133e-05
6 *3742:A1 *3743:C 1.02936e-05
7 *3742:A1 *89:8 0.00022266
8 *3742:A1 *214:100 2.14658e-05
9 *3742:A1 *279:35 0
10 *3743:B *3724:D 0.000110446
11 *3743:B *3743:C 1.32511e-05
12 *3743:B *214:100 0
13 *3743:B *246:85 0
14 *83:10 *3724:D 0.000148189
15 *3725:A2 *83:10 0.000139913
16 *3737:A2 *3742:A1 0
17 *3737:B1 *3743:B 1.02504e-05
18 *3737:B1 *83:10 0.00014576
19 *71:33 *3742:A1 5.15855e-05
*RES
1 *3736:Y *83:10 17.1036 
2 *83:10 *3742:A1 16.8357 
3 *83:10 *3743:B 15.7464 
*END

*D_NET *84 0.00101259
*CONN
*I *3742:A2 I *D sky130_fd_sc_hd__a21o_1
*I *3743:C I *D sky130_fd_sc_hd__nand3_1
*I *3737:X O *D sky130_fd_sc_hd__a21o_1
*CAP
1 *3742:A2 3.3688e-05
2 *3743:C 0.000200775
3 *3737:X 0
4 *84:4 0.000234463
5 *3742:A2 *214:100 4.9071e-05
6 *3743:C *3724:D 7.55769e-05
7 *3743:C *264:51 0.000101689
8 *3736:B *3743:C 5.52238e-05
9 *3742:A1 *3742:A2 6.29133e-05
10 *3742:A1 *3743:C 1.02936e-05
11 *3743:B *3743:C 1.32511e-05
12 *71:33 *3742:A2 3.57366e-05
13 *71:33 *3743:C 0.000139907
*RES
1 *3737:X *84:4 9.3 
2 *84:4 *3743:C 21.8179 
3 *84:4 *3742:A2 10.5679 
*END

*D_NET *85 0.00161069
*CONN
*I *3752:B1 I *D sky130_fd_sc_hd__a21o_1
*I *3751:B I *D sky130_fd_sc_hd__nand3_1
*I *3741:A1 I *D sky130_fd_sc_hd__a21bo_1
*I *3738:X O *D sky130_fd_sc_hd__and2_1
*CAP
1 *3752:B1 0.000150002
2 *3751:B 2.23854e-05
3 *3741:A1 4.58664e-05
4 *3738:X 0.000182572
5 *85:21 0.000255528
6 *85:6 0.000311578
7 *3741:A1 *3741:A2 9.80173e-05
8 *3751:B *3757:A2 0
9 *3752:B1 *3751:C 5.33005e-05
10 *3752:B1 *3757:A2 8.70693e-05
11 *3752:B1 *99:6 2.44318e-05
12 *85:6 *3741:A2 0.000123617
13 *85:21 *3751:A 0.000128161
14 *85:21 *296:34 0.000128161
*RES
1 *3738:X *85:6 12.3 
2 *85:6 *3741:A1 10.2464 
3 *85:6 *85:21 11.375 
4 *85:21 *3751:B 9.72857 
5 *85:21 *3752:B1 12.3179 
*END

*D_NET *86 0.00155516
*CONN
*I *3752:A2 I *D sky130_fd_sc_hd__a21o_1
*I *3751:C I *D sky130_fd_sc_hd__nand3_1
*I *3741:A2 I *D sky130_fd_sc_hd__a21bo_1
*I *3739:X O *D sky130_fd_sc_hd__a22o_1
*CAP
1 *3752:A2 0
2 *3751:C 1.69531e-05
3 *3741:A2 0.000106511
4 *3739:X 4.13578e-05
5 *86:21 8.23635e-05
6 *86:8 0.00021328
7 *3741:A2 *3751:A 7.02611e-05
8 *3751:C *3757:A2 5.33005e-05
9 *86:8 *3750:B 0.000128154
10 *86:8 *3752:A1 5.66157e-05
11 *86:8 *87:10 7.83587e-05
12 *86:21 *3750:B 0.000221163
13 *86:21 *3752:A1 0.000211913
14 *3741:A1 *3741:A2 9.80173e-05
15 *3752:B1 *3751:C 5.33005e-05
16 *85:6 *3741:A2 0.000123617
*RES
1 *3739:X *86:8 15.4429 
2 *86:8 *3741:A2 16.3893 
3 *86:8 *86:21 7.35714 
4 *86:21 *3751:C 9.83571 
5 *86:21 *3752:A2 9.3 
*END

*D_NET *87 0.00327183
*CONN
*I *3752:A1 I *D sky130_fd_sc_hd__a21o_1
*I *3741:B1_N I *D sky130_fd_sc_hd__a21bo_1
*I *3751:A I *D sky130_fd_sc_hd__nand3_1
*I *3740:Y O *D sky130_fd_sc_hd__nand4_1
*CAP
1 *3752:A1 0.000173068
2 *3741:B1_N 0
3 *3751:A 0.000240379
4 *3740:Y 0.000402544
5 *87:12 0.000240379
6 *87:10 0.000575612
7 *3751:A *88:8 0
8 *3751:A *102:8 0
9 *3751:A *296:34 9.87227e-05
10 *3752:A1 *3750:B 2.16719e-05
11 *3752:A1 *3757:A2 9.71197e-05
12 *3752:A1 *3758:A 9.25014e-06
13 *3752:A1 *296:34 0.000262322
14 *87:10 *3743:A 5.33334e-05
15 *87:10 *3750:B 0.000100735
16 *87:10 *246:85 1.21258e-05
17 *87:10 *279:37 0.000139913
18 *87:10 *296:34 0.00012401
19 *87:10 *296:36 0.000151333
20 *87:10 *296:98 2.39999e-05
21 *3741:A2 *3751:A 7.02611e-05
22 *85:21 *3751:A 0.000128161
23 *86:8 *3752:A1 5.66157e-05
24 *86:8 *87:10 7.83587e-05
25 *86:21 *3752:A1 0.000211913
*RES
1 *3740:Y *87:10 21.0857 
2 *87:10 *87:12 4.5 
3 *87:12 *3751:A 23.1214 
4 *87:12 *3741:B1_N 9.3 
5 *87:10 *3752:A1 18.8179 
*END

*D_NET *88 0.00172372
*CONN
*I *3743:A I *D sky130_fd_sc_hd__nand3_1
*I *3742:B1 I *D sky130_fd_sc_hd__a21o_1
*I *3741:X O *D sky130_fd_sc_hd__a21bo_1
*CAP
1 *3743:A 0.00012282
2 *3742:B1 0.000127591
3 *3741:X 0.000158011
4 *88:8 0.000408422
5 *3742:B1 *3740:D 0
6 *3742:B1 *89:8 3.18676e-05
7 *3742:B1 *213:83 7.46663e-05
8 *3742:B1 *213:89 4.46186e-06
9 *3742:B1 *214:100 5.52302e-05
10 *3742:B1 *246:85 0.000170654
11 *3742:B1 *246:91 5.59013e-05
12 *3743:A *3724:D 2.95641e-05
13 *3743:A *3740:D 5.52302e-05
14 *3743:A *3744:B1_N 0
15 *3743:A *246:85 5.33005e-05
16 *3743:A *296:98 2.28499e-05
17 *88:8 *3740:D 0
18 *88:8 *102:8 0.000127446
19 *88:8 *246:91 0.000172375
20 *88:8 *296:34 0
21 *3751:A *88:8 0
22 *87:10 *3743:A 5.33334e-05
*RES
1 *3741:X *88:8 17.5679 
2 *88:8 *3742:B1 17.1929 
3 *88:8 *3743:A 16.8357 
*END

*D_NET *89 0.00321273
*CONN
*I *3749:C I *D sky130_fd_sc_hd__nand3_1
*I *3760:A2 I *D sky130_fd_sc_hd__a21o_1
*I *3744:A2 I *D sky130_fd_sc_hd__a21bo_1
*I *3742:X O *D sky130_fd_sc_hd__a21o_1
*CAP
1 *3749:C 0
2 *3760:A2 0.000269214
3 *3744:A2 6.99299e-05
4 *3742:X 0.000275342
5 *89:12 0.00040097
6 *89:8 0.000337168
7 *3744:A2 *213:70 2.28499e-05
8 *3760:A2 *3755:D 1.3701e-05
9 *3760:A2 *96:8 0.00019607
10 *3760:A2 *212:86 0.000115971
11 *3760:A2 *213:70 0.000111718
12 *3760:A2 *266:22 0
13 *89:8 *3749:A 3.18676e-05
14 *89:8 *213:138 2.59355e-05
15 *89:8 *214:100 2.05757e-05
16 *89:8 *279:35 0.000814389
17 *89:12 *91:12 4.34794e-05
18 *89:12 *96:8 7.72916e-05
19 *3736:B *89:8 1.39726e-05
20 *3737:A2 *89:8 6.86792e-05
21 *3742:A1 *89:8 0.00022266
22 *3742:B1 *89:8 3.18676e-05
23 *3744:A1 *3744:A2 1.24368e-05
24 *71:33 *89:8 8.43535e-06
25 *82:10 *89:12 1.99099e-05
26 *82:19 *89:12 8.2958e-06
*RES
1 *3742:X *89:8 17.9607 
2 *89:8 *89:12 6.14286 
3 *89:12 *3744:A2 15.1929 
4 *89:12 *3760:A2 19.6929 
5 *89:8 *3749:C 9.3 
*END

*D_NET *90 0.00135545
*CONN
*I *3760:A1 I *D sky130_fd_sc_hd__a21o_1
*I *3749:A I *D sky130_fd_sc_hd__nand3_1
*I *3744:B1_N I *D sky130_fd_sc_hd__a21bo_1
*I *3743:Y O *D sky130_fd_sc_hd__nand3_1
*CAP
1 *3760:A1 8.08115e-05
2 *3749:A 0.000187734
3 *3744:B1_N 2.23854e-05
4 *3743:Y 0.000161307
5 *90:17 0.000290931
6 *90:6 0.000206078
7 *3749:A *213:70 5.83304e-05
8 *3749:A *264:51 6.95089e-05
9 *3760:A1 *213:70 6.98302e-05
10 *3760:A1 *264:51 5.16852e-05
11 *90:6 *3724:D 2.51343e-06
12 *3737:A2 *3749:A 1.04232e-05
13 *3743:A *3744:B1_N 0
14 *3760:B1 *3749:A 1.08359e-05
15 *3760:B1 *3760:A1 3.90513e-05
16 *82:19 *3749:A 6.21562e-05
17 *89:8 *3749:A 3.18676e-05
*RES
1 *3743:Y *90:6 11.4786 
2 *90:6 *3744:B1_N 9.72857 
3 *90:6 *90:17 4.92857 
4 *90:17 *3749:A 17.6214 
5 *90:17 *3760:A1 15.7464 
*END

*D_NET *91 0.0013644
*CONN
*I *3779:B1 I *D sky130_fd_sc_hd__a21oi_1
*I *3746:A I *D sky130_fd_sc_hd__and3_1
*I *3744:X O *D sky130_fd_sc_hd__a21bo_1
*CAP
1 *3779:B1 4.44419e-05
2 *3746:A 8.9521e-05
3 *3744:X 0.000184665
4 *91:12 0.000318627
5 *3746:A *3746:C 0.00019787
6 *3746:A *3780:B 2.28598e-05
7 *3779:B1 *3780:B 8.07313e-05
8 *3779:B1 *247:89 7.17235e-05
9 *91:12 *3780:B 7.6021e-05
10 *91:12 *266:22 4.34029e-05
11 *3736:C *3779:B1 0
12 *3746:B *3746:A 0.000181803
13 *3746:B *91:12 9.25014e-06
14 *82:10 *91:12 0
15 *89:12 *91:12 4.34794e-05
*RES
1 *3744:X *91:12 22.4964 
2 *91:12 *3746:A 12.2107 
3 *91:12 *3779:B1 11.0857 
*END

*D_NET *92 0.00106148
*CONN
*I *3779:A2 I *D sky130_fd_sc_hd__a21oi_1
*I *3746:C I *D sky130_fd_sc_hd__and3_1
*I *3745:X O *D sky130_fd_sc_hd__a21bo_1
*CAP
1 *3779:A2 0
2 *3746:C 0.000199296
3 *3745:X 8.16396e-05
4 *92:10 0.000280936
5 *3746:C *247:10 2.87485e-05
6 *3746:C *247:89 0.000115674
7 *3746:A *3746:C 0.00019787
8 *3746:B *3746:C 2.47724e-05
9 *3746:B *92:10 5.41794e-05
10 *76:19 *92:10 7.83587e-05
11 *82:10 *92:10 0
*RES
1 *3745:X *92:10 19.9429 
2 *92:10 *3746:C 13.4786 
3 *92:10 *3779:A2 9.3 
*END

*D_NET *93 0.00170891
*CONN
*I *3780:A I *D sky130_fd_sc_hd__nor2_1
*I *3748:A I *D sky130_fd_sc_hd__or2_1
*I *3814:A I *D sky130_fd_sc_hd__and2_1
*I *3746:X O *D sky130_fd_sc_hd__and3_1
*CAP
1 *3780:A 3.13547e-05
2 *3748:A 0
3 *3814:A 5.75865e-05
4 *3746:X 8.78857e-05
5 *93:14 0.000341254
6 *93:10 0.000402908
7 *3780:A *279:35 1.81774e-05
8 *3814:A *3748:B 5.71472e-05
9 *3814:A *94:16 0
10 *3814:A *95:16 2.95641e-05
11 *3814:A *279:35 0.000144773
12 *93:10 *263:23 0.000148189
13 *93:10 *267:44 7.50601e-05
14 *93:10 *267:59 4.46186e-06
15 *93:14 *3693:A 5.52238e-05
16 *93:14 *95:16 9.90367e-05
17 *93:14 *279:35 0.00015629
*RES
1 *3746:X *93:10 20.2464 
2 *93:10 *93:14 5.48214 
3 *93:14 *3814:A 11.3893 
4 *93:14 *3748:A 9.3 
5 *93:10 *3780:A 9.83571 
*END

*D_NET *94 0.00108752
*CONN
*I *3748:B I *D sky130_fd_sc_hd__or2_1
*I *3814:B I *D sky130_fd_sc_hd__and2_1
*I *3747:Y O *D sky130_fd_sc_hd__xnor2_1
*CAP
1 *3748:B 2.04879e-05
2 *3814:B 0
3 *3747:Y 0.000358376
4 *94:16 0.000378864
5 *3748:B *95:16 8.07313e-05
6 *3748:B *279:35 4.14279e-05
7 *94:16 *3827:A 2.10446e-05
8 *94:16 *95:16 4.29197e-05
9 *94:16 *162:16 0
10 *94:16 *249:54 0
11 *94:16 *279:35 2.89114e-05
12 *3814:A *3748:B 5.71472e-05
13 *3814:A *94:16 0
14 *77:6 *94:16 5.76121e-05
*RES
1 *3747:Y *94:16 24.6929 
2 *94:16 *3814:B 9.3 
3 *94:16 *3748:B 10.6571 
*END

*D_NET *95 0.00157684
*CONN
*I *3815:A1 I *D sky130_fd_sc_hd__a21oi_1
*I *3827:B_N I *D sky130_fd_sc_hd__or2b_1
*I *3748:X O *D sky130_fd_sc_hd__or2_1
*CAP
1 *3815:A1 0.0002229
2 *3827:B_N 0
3 *3748:X 0.000303134
4 *95:16 0.000526034
5 *3815:A1 *3815:A2 7.43578e-06
6 *3815:A1 *3815:B1 7.40526e-05
7 *3815:A1 *3827:A 5.83233e-05
8 *3815:A1 *249:54 0
9 *3815:A1 *249:66 4.35336e-05
10 *95:16 *161:8 5.31469e-05
11 *95:16 *279:35 3.60237e-05
12 *3748:B *95:16 8.07313e-05
13 *3814:A *95:16 2.95641e-05
14 *93:14 *95:16 9.90367e-05
15 *94:16 *95:16 4.29197e-05
*RES
1 *3748:X *95:16 14.7821 
2 *95:16 *3827:B_N 9.3 
3 *95:16 *3815:A1 21.3 
*END

*D_NET *96 0.00169155
*CONN
*I *3762:A1 I *D sky130_fd_sc_hd__a21oi_1
*I *3761:A I *D sky130_fd_sc_hd__and3_2
*I *3749:Y O *D sky130_fd_sc_hd__nand3_1
*CAP
1 *3762:A1 9.15201e-05
2 *3761:A 0
3 *3749:Y 0.00023198
4 *96:8 0.0003235
5 *3762:A1 *3761:B 8.06427e-05
6 *3762:A1 *3762:A2 0.000239243
7 *3762:A1 *264:51 0
8 *96:8 *3762:A2 1.02504e-05
9 *96:8 *107:8 0.000102545
10 *96:8 *264:51 0
11 *96:8 *266:22 0
12 *3760:A2 *96:8 0.00019607
13 *3760:B1 *96:8 0.000213635
14 *82:19 *96:8 0.000124868
15 *89:12 *96:8 7.72916e-05
*RES
1 *3749:Y *96:8 19.9964 
2 *96:8 *3761:A 13.8 
3 *96:8 *3762:A1 16.9607 
*END

*D_NET *97 0.00131706
*CONN
*I *3774:B1 I *D sky130_fd_sc_hd__a21o_1
*I *3759:A1 I *D sky130_fd_sc_hd__a21bo_1
*I *3763:B I *D sky130_fd_sc_hd__nand3_1
*I *3750:X O *D sky130_fd_sc_hd__and2_1
*CAP
1 *3774:B1 6.47144e-05
2 *3759:A1 0
3 *3763:B 0.000122661
4 *3750:X 9.56508e-05
5 *97:10 0.000283026
6 *3763:B *3763:A 0.000193214
7 *3763:B *3763:C 0
8 *3763:B *121:14 3.80079e-05
9 *3774:B1 *3757:B1 0.00018372
10 *3774:B1 *3763:A 6.42778e-05
11 *3774:B1 *3774:A2 3.48705e-05
12 *3774:B1 *121:14 0.000122101
13 *97:10 *3774:A2 8.07879e-05
14 *97:10 *102:8 0
15 *97:10 *104:25 1.02504e-05
16 *97:10 *264:51 2.37761e-05
*RES
1 *3750:X *97:10 20.2464 
2 *97:10 *3763:B 11.9071 
3 *97:10 *3759:A1 9.3 
4 *97:10 *3774:B1 12.3 
*END

*D_NET *98 0.00108212
*CONN
*I *3758:A I *D sky130_fd_sc_hd__nand3_1
*I *3757:A1 I *D sky130_fd_sc_hd__a21o_1
*I *3751:Y O *D sky130_fd_sc_hd__nand3_1
*CAP
1 *3758:A 7.2109e-05
2 *3757:A1 0.000249499
3 *3751:Y 0
4 *98:4 0.000321608
5 *3757:A1 *3757:A2 0.000315165
6 *3757:A1 *3757:B1 6.05161e-06
7 *3758:A *3750:B 3.24389e-05
8 *3758:A *103:10 1.02504e-05
9 *3758:A *296:34 6.57455e-05
10 *3752:A1 *3758:A 9.25014e-06
*RES
1 *3751:Y *98:4 9.3 
2 *98:4 *3757:A1 12.7107 
3 *98:4 *3758:A 19.9429 
*END

*D_NET *99 0.00151386
*CONN
*I *3758:C I *D sky130_fd_sc_hd__nand3_1
*I *3757:A2 I *D sky130_fd_sc_hd__a21o_1
*I *3752:X O *D sky130_fd_sc_hd__a21o_1
*CAP
1 *3758:C 0.000100297
2 *3757:A2 0.000199615
3 *3752:X 8.47137e-05
4 *99:6 0.000384625
5 *3758:C *3750:B 0.00012401
6 *3758:C *265:57 4.35141e-05
7 *3751:B *3757:A2 0
8 *3751:C *3757:A2 5.33005e-05
9 *3752:A1 *3757:A2 9.71197e-05
10 *3752:B1 *3757:A2 8.70693e-05
11 *3752:B1 *99:6 2.44318e-05
12 *3757:A1 *3757:A2 0.000315165
*RES
1 *3752:X *99:6 10.6571 
2 *99:6 *3757:A2 14.3714 
3 *99:6 *3758:C 20.4786 
*END

*D_NET *100 0.00162051
*CONN
*I *3765:B I *D sky130_fd_sc_hd__nand3_1
*I *3766:B1 I *D sky130_fd_sc_hd__a21o_1
*I *3756:A1 I *D sky130_fd_sc_hd__a21bo_1
*I *3753:X O *D sky130_fd_sc_hd__and2_1
*CAP
1 *3765:B 0.000109199
2 *3766:B1 0
3 *3756:A1 0.00010209
4 *3753:X 0.000135397
5 *100:23 0.000148045
6 *100:6 0.000276334
7 *3756:A1 *3756:A2 5.33005e-05
8 *3756:A1 *264:35 4.85029e-05
9 *3756:A1 *296:34 0.000144038
10 *3765:B *3766:A1 9.71197e-05
11 *3765:B *3766:A2 5.27915e-05
12 *3765:B *113:10 3.07455e-05
13 *3765:B *296:141 2.73377e-05
14 *100:6 *3767:A 5.71472e-05
15 *100:6 *113:10 5.33005e-05
16 *100:6 *296:22 0.000203665
17 *100:6 *296:141 5.74499e-06
18 *100:23 *3766:A2 0
19 *100:23 *113:10 1.55885e-05
20 *100:23 *296:141 6.01685e-05
*RES
1 *3753:X *100:6 12.3 
2 *100:6 *3756:A1 20.7821 
3 *100:6 *100:23 1.26786 
4 *100:23 *3766:B1 9.3 
5 *100:23 *3765:B 11.9071 
*END

*D_NET *101 0.00267236
*CONN
*I *3756:A2 I *D sky130_fd_sc_hd__a21bo_1
*I *3765:C I *D sky130_fd_sc_hd__nand3_1
*I *3766:A2 I *D sky130_fd_sc_hd__a21o_1
*I *3754:X O *D sky130_fd_sc_hd__a22o_1
*CAP
1 *3756:A2 0.000189115
2 *3765:C 0
3 *3766:A2 9.99516e-05
4 *3754:X 0.000229954
5 *101:14 0.000242305
6 *101:6 0.000561423
7 *3756:A2 *3756:B1_N 1.07719e-05
8 *3756:A2 *114:16 0.000481581
9 *3766:A2 *3789:A1 5.52238e-05
10 *3766:A2 *3789:A2 3.99614e-06
11 *3766:A2 *112:10 1.39726e-05
12 *3766:A2 *113:10 4.87953e-05
13 *101:6 *3754:A2 6.05161e-06
14 *101:6 *114:16 0.000534222
15 *101:14 *3789:A1 5.08859e-05
16 *101:14 *102:23 0
17 *101:14 *112:10 2.89114e-05
18 *101:14 *113:10 9.10431e-06
19 *101:14 *120:10 0
20 *3756:A1 *3756:A2 5.33005e-05
21 *3765:B *3766:A2 5.27915e-05
22 *100:23 *3766:A2 0
*RES
1 *3754:X *101:6 15.175 
2 *101:6 *101:14 11.7857 
3 *101:14 *3766:A2 11.925 
4 *101:14 *3765:C 9.3 
5 *101:6 *3756:A2 14.3714 
*END

*D_NET *102 0.00270517
*CONN
*I *3766:A1 I *D sky130_fd_sc_hd__a21o_1
*I *3765:A I *D sky130_fd_sc_hd__nand3_1
*I *3756:B1_N I *D sky130_fd_sc_hd__a21bo_1
*I *3755:Y O *D sky130_fd_sc_hd__nand4_2
*CAP
1 *3766:A1 8.99537e-05
2 *3765:A 0
3 *3756:B1_N 5.05023e-05
4 *3755:Y 0.000631595
5 *102:23 0.000257721
6 *102:8 0.000849865
7 *3766:A1 *113:10 4.73656e-05
8 *3766:A1 *264:35 2.84398e-05
9 *102:8 *3740:D 2.8266e-06
10 *102:8 *3757:B1 0.000146474
11 *102:8 *104:25 0
12 *102:8 *120:10 0
13 *102:8 *121:14 0
14 *102:8 *264:35 0.00012401
15 *102:8 *264:51 0
16 *102:8 *296:34 0
17 *102:23 *113:10 8.08022e-05
18 *102:23 *120:10 0
19 *102:23 *264:35 0.000160278
20 *3751:A *102:8 0
21 *3756:A2 *3756:B1_N 1.07719e-05
22 *3765:B *3766:A1 9.71197e-05
23 *88:8 *102:8 0.000127446
24 *97:10 *102:8 0
25 *101:14 *102:23 0
*RES
1 *3755:Y *102:8 25.1571 
2 *102:8 *3756:B1_N 14.3357 
3 *102:8 *102:23 4.125 
4 *102:23 *3765:A 13.8 
5 *102:23 *3766:A1 15.4786 
*END

*D_NET *103 0.00198351
*CONN
*I *3758:B I *D sky130_fd_sc_hd__nand3_1
*I *3757:B1 I *D sky130_fd_sc_hd__a21o_1
*I *3756:X O *D sky130_fd_sc_hd__a21bo_1
*CAP
1 *3758:B 0
2 *3757:B1 0.000276301
3 *3756:X 0.000187979
4 *103:10 0.00046428
5 *3757:B1 *3763:A 5.33005e-05
6 *3757:B1 *3774:A2 8.8273e-05
7 *3757:B1 *105:6 9.71197e-05
8 *3757:B1 *105:8 0.000228558
9 *3757:B1 *264:51 0
10 *103:10 *3750:B 0.000119684
11 *103:10 *265:57 0
12 *103:10 *296:34 0.000121516
13 *3757:A1 *3757:B1 6.05161e-06
14 *3758:A *103:10 1.02504e-05
15 *3774:B1 *3757:B1 0.00018372
16 *102:8 *3757:B1 0.000146474
*RES
1 *3756:X *103:10 22.675 
2 *103:10 *3757:B1 25.4429 
3 *103:10 *3758:B 9.3 
*END

*D_NET *104 0.0025613
*CONN
*I *3774:A2 I *D sky130_fd_sc_hd__a21o_1
*I *3759:A2 I *D sky130_fd_sc_hd__a21bo_1
*I *3763:C I *D sky130_fd_sc_hd__nand3_1
*I *3757:X O *D sky130_fd_sc_hd__a21o_1
*CAP
1 *3774:A2 0.000492124
2 *3759:A2 0
3 *3763:C 0.000300247
4 *3757:X 0
5 *104:25 0.000580741
6 *104:4 0.000388864
7 *3763:C *3754:A2 0
8 *3763:C *106:12 0.0001399
9 *3763:C *264:51 5.10822e-05
10 *3774:A2 *121:14 0.000268403
11 *3774:A2 *264:51 3.81e-05
12 *104:25 *3763:A 5.41794e-05
13 *104:25 *106:12 3.34783e-05
14 *3757:B1 *3774:A2 8.8273e-05
15 *3763:B *3763:C 0
16 *3774:B1 *3774:A2 3.48705e-05
17 *97:10 *3774:A2 8.07879e-05
18 *97:10 *104:25 1.02504e-05
19 *102:8 *104:25 0
*RES
1 *3757:X *104:4 9.3 
2 *104:4 *3763:C 22.7821 
3 *104:4 *104:25 6.14286 
4 *104:25 *3759:A2 13.8 
5 *104:25 *3774:A2 22.4071 
*END

*D_NET *105 0.00168343
*CONN
*I *3774:A1 I *D sky130_fd_sc_hd__a21o_1
*I *3759:B1_N I *D sky130_fd_sc_hd__a21bo_1
*I *3763:A I *D sky130_fd_sc_hd__nand3_1
*I *3758:Y O *D sky130_fd_sc_hd__nand3_1
*CAP
1 *3774:A1 0
2 *3759:B1_N 0
3 *3763:A 0.00024729
4 *3758:Y 6.2125e-05
5 *105:8 0.000389612
6 *105:6 0.000204447
7 *3763:A *106:12 1.02504e-05
8 *3763:A *121:14 4.58194e-05
9 *3763:A *264:51 3.32354e-05
10 *3757:B1 *3763:A 5.33005e-05
11 *3757:B1 *105:6 9.71197e-05
12 *3757:B1 *105:8 0.000228558
13 *3763:B *3763:A 0.000193214
14 *3774:B1 *3763:A 6.42778e-05
15 *104:25 *3763:A 5.41794e-05
*RES
1 *3758:Y *105:6 10.2464 
2 *105:6 *105:8 2.17857 
3 *105:8 *3763:A 22.5679 
4 *105:8 *3759:B1_N 9.3 
5 *105:6 *3774:A1 9.3 
*END

*D_NET *106 0.000936155
*CONN
*I *3762:B1 I *D sky130_fd_sc_hd__a21oi_1
*I *3761:B I *D sky130_fd_sc_hd__and3_2
*I *3759:X O *D sky130_fd_sc_hd__a21bo_1
*CAP
1 *3762:B1 0
2 *3761:B 0.000121152
3 *3759:X 0.000161349
4 *106:12 0.000282501
5 *3761:B *3754:A2 0
6 *3761:B *264:51 0
7 *106:12 *109:12 6.05161e-06
8 *106:12 *264:51 0.000100831
9 *3762:A1 *3761:B 8.06427e-05
10 *3763:A *106:12 1.02504e-05
11 *3763:C *106:12 0.0001399
12 *104:25 *106:12 3.34783e-05
*RES
1 *3759:X *106:12 21.8179 
2 *106:12 *3761:B 20.55 
3 *106:12 *3762:B1 9.3 
*END

*D_NET *107 0.00106696
*CONN
*I *3762:A2 I *D sky130_fd_sc_hd__a21oi_1
*I *3761:C I *D sky130_fd_sc_hd__and3_2
*I *3760:X O *D sky130_fd_sc_hd__a21o_1
*CAP
1 *3762:A2 0.000118331
2 *3761:C 0.000127928
3 *3760:X 7.45901e-05
4 *107:8 0.000320849
5 *3761:C *108:6 7.32272e-05
6 *3761:C *108:14 0
7 *3762:A2 *3754:A2 0
8 *107:8 *3754:A2 0
9 *3762:A1 *3762:A2 0.000239243
10 *96:8 *3762:A2 1.02504e-05
11 *96:8 *107:8 0.000102545
*RES
1 *3760:X *107:8 15.1393 
2 *107:8 *3761:C 15.5857 
3 *107:8 *3762:A2 16.9607 
*END

*D_NET *108 0.00264073
*CONN
*I *3781:A I *D sky130_fd_sc_hd__xor2_2
*I *3777:A1 I *D sky130_fd_sc_hd__o21ba_1
*I *3776:A I *D sky130_fd_sc_hd__nor3b_1
*I *3811:A1 I *D sky130_fd_sc_hd__o21a_1
*I *3761:X O *D sky130_fd_sc_hd__and3_2
*CAP
1 *3781:A 0.000284177
2 *3777:A1 0
3 *3776:A 0
4 *3811:A1 6.4841e-05
5 *3761:X 0.000271782
6 *108:32 0.000346021
7 *108:14 0.000193297
8 *108:6 0.000462082
9 *3781:A *3777:B1_N 9.90367e-05
10 *3781:A *109:12 8.36075e-05
11 *3781:A *124:8 3.32631e-05
12 *3811:A1 *3776:B 5.71472e-05
13 *3811:A1 *123:6 1.92789e-05
14 *3811:A1 *127:14 0.000138881
15 *108:14 *3776:B 5.47622e-05
16 *108:14 *3811:B1 0
17 *108:14 *127:14 1.04232e-05
18 *108:32 *3754:A2 0.000225314
19 *108:32 *266:22 0.000223592
20 *3761:C *108:6 7.32272e-05
21 *3761:C *108:14 0
*RES
1 *3761:X *108:6 13.9429 
2 *108:6 *108:14 2.75 
3 *108:14 *3811:A1 11.0679 
4 *108:14 *3776:A 9.3 
5 *108:6 *108:32 11.8571 
6 *108:32 *3777:A1 9.3 
7 *108:32 *3781:A 13.9786 
*END

*D_NET *109 0.00146901
*CONN
*I *3777:A2 I *D sky130_fd_sc_hd__o21ba_1
*I *3776:B I *D sky130_fd_sc_hd__nor3b_1
*I *3762:Y O *D sky130_fd_sc_hd__a21oi_1
*CAP
1 *3777:A2 0
2 *3776:B 0.000149583
3 *3762:Y 0.000326467
4 *109:12 0.00047605
5 *3776:B *3776:C_N 0.000153047
6 *3776:B *122:16 9.25014e-06
7 *3776:B *266:22 0.000153047
8 *3781:A *109:12 8.36075e-05
9 *3811:A1 *3776:B 5.71472e-05
10 *106:12 *109:12 6.05161e-06
11 *108:14 *3776:B 5.47622e-05
*RES
1 *3762:Y *109:12 14.5143 
2 *109:12 *3776:B 22.3357 
3 *109:12 *3777:A2 9.3 
*END

*D_NET *110 0.000940773
*CONN
*I *3775:A I *D sky130_fd_sc_hd__and3_1
*I *3801:A1 I *D sky130_fd_sc_hd__a21oi_1
*I *3763:Y O *D sky130_fd_sc_hd__nand3_1
*CAP
1 *3775:A 5.74689e-05
2 *3801:A1 8.04616e-05
3 *3763:Y 5.75317e-05
4 *110:12 0.000195462
5 *3775:A *3750:B 0
6 *3775:A *3801:A2 1.97695e-05
7 *3775:A *264:51 6.05161e-06
8 *3801:A1 *3775:B 1.98839e-05
9 *3801:A1 *3801:A2 0.000118378
10 *3801:A1 *3801:B1 0.000178586
11 *3801:A1 *121:14 4.53871e-06
12 *3801:A1 *122:10 2.44318e-05
13 *110:12 *3801:B1 1.97695e-05
14 *110:12 *121:14 7.83587e-05
15 *110:12 *264:51 8.00806e-05
*RES
1 *3763:Y *110:12 20.0679 
2 *110:12 *3801:A1 11.9071 
3 *110:12 *3775:A 10.5679 
*END

*D_NET *111 0.00262993
*CONN
*I *3782:B I *D sky130_fd_sc_hd__nand3_1
*I *3773:A1 I *D sky130_fd_sc_hd__a21bo_1
*I *3789:B1 I *D sky130_fd_sc_hd__a21o_1
*I *3764:X O *D sky130_fd_sc_hd__and2_1
*CAP
1 *3782:B 0.00042022
2 *3773:A1 5.64276e-05
3 *3789:B1 0.00015672
4 *3764:X 0
5 *111:10 0.000456419
6 *111:4 0.000663491
7 *3773:A1 *3771:B1 0
8 *3773:A1 *3773:A2 2.93523e-05
9 *3773:A1 *118:6 3.69047e-06
10 *3773:A1 *296:141 9.90431e-05
11 *3782:B *3764:B 0.000104016
12 *3782:B *3771:B1 3.51393e-05
13 *3782:B *3782:A 7.67846e-05
14 *3782:B *3782:C 9.90431e-05
15 *3782:B *118:6 5.52238e-05
16 *3782:B *264:35 0.000121573
17 *3782:B *296:141 5.27084e-05
18 *3789:B1 *3789:A1 0
19 *3789:B1 *3789:A2 4.15914e-05
20 *3789:B1 *112:10 0
21 *3789:B1 *114:16 0
22 *3789:B1 *120:10 0.000128161
23 *111:10 *3764:A 3.81416e-06
24 *111:10 *3764:B 2.65105e-05
25 *111:10 *3772:A 0
26 *111:10 *3783:B 0
*RES
1 *3764:X *111:4 9.3 
2 *111:4 *111:10 7.80357 
3 *111:10 *3789:B1 16.5857 
4 *111:10 *3773:A1 15.175 
5 *111:4 *3782:B 26.425 
*END

*D_NET *112 0.00136353
*CONN
*I *3772:A I *D sky130_fd_sc_hd__nand3_1
*I *3771:A1 I *D sky130_fd_sc_hd__a21o_1
*I *3765:Y O *D sky130_fd_sc_hd__nand3_1
*CAP
1 *3772:A 0.000122884
2 *3771:A1 6.93784e-05
3 *3765:Y 0.000163703
4 *112:10 0.000355966
5 *3771:A1 *3771:B1 8.17186e-05
6 *3771:A1 *3773:A2 1.05731e-05
7 *3771:A1 *118:6 0.000180777
8 *3771:A1 *296:141 1.39841e-05
9 *3772:A *3771:B1 7.95888e-05
10 *3772:A *3772:B 0.000141375
11 *112:10 *3771:B1 9.54798e-06
12 *112:10 *3789:A1 5.18717e-05
13 *112:10 *3789:A2 3.92757e-05
14 *3766:A2 *112:10 1.39726e-05
15 *3789:B1 *112:10 0
16 *101:14 *112:10 2.89114e-05
17 *111:10 *3772:A 0
*RES
1 *3765:Y *112:10 16.3893 
2 *112:10 *3771:A1 15.9964 
3 *112:10 *3772:A 16.6571 
*END

*D_NET *113 0.00170727
*CONN
*I *3772:C I *D sky130_fd_sc_hd__nand3_1
*I *3771:A2 I *D sky130_fd_sc_hd__a21o_1
*I *3766:X O *D sky130_fd_sc_hd__a21o_1
*CAP
1 *3772:C 0.000111711
2 *3771:A2 0
3 *3766:X 0.000342645
4 *113:10 0.000454356
5 *3772:C *3772:B 3.90513e-05
6 *3772:C *119:8 7.83659e-05
7 *3772:C *119:10 6.76116e-05
8 *3772:C *264:35 7.00499e-05
9 *113:10 *3789:A1 0.00021523
10 *113:10 *119:10 9.54798e-06
11 *113:10 *264:35 3.30004e-05
12 *3765:B *113:10 3.07455e-05
13 *3766:A1 *113:10 4.73656e-05
14 *3766:A2 *113:10 4.87953e-05
15 *100:6 *113:10 5.33005e-05
16 *100:23 *113:10 1.55885e-05
17 *101:14 *113:10 9.10431e-06
18 *102:23 *113:10 8.08022e-05
*RES
1 *3766:X *113:10 19.9607 
2 *113:10 *3771:A2 13.8 
3 *113:10 *3772:C 16.6571 
*END

*D_NET *114 0.00449157
*CONN
*I *3783:B I *D sky130_fd_sc_hd__nand3_1
*I *3770:A1 I *D sky130_fd_sc_hd__a21bo_1
*I *3784:B1 I *D sky130_fd_sc_hd__a21o_1
*I *3767:X O *D sky130_fd_sc_hd__and2_1
*CAP
1 *3783:B 0.000278908
2 *3770:A1 0
3 *3784:B1 0.000209408
4 *3767:X 0.000984891
5 *114:18 0.000209408
6 *114:16 0.0012638
7 *3783:B *3783:A 0
8 *3783:B *3783:C 0.000106542
9 *3783:B *266:20 0
10 *3784:B1 *3770:A2 4.58976e-05
11 *3784:B1 *3770:B1_N 9.41642e-05
12 *3784:B1 *3788:A2 1.05731e-05
13 *3784:B1 *115:14 9.41642e-05
14 *3784:B1 *115:23 7.02594e-05
15 *3784:B1 *136:14 1.24368e-05
16 *3784:B1 *296:141 1.86723e-05
17 *114:16 *120:10 0
18 *114:16 *265:57 0
19 *114:16 *266:20 0
20 *114:16 *296:34 7.6644e-05
21 *3756:A2 *114:16 0.000481581
22 *3789:B1 *114:16 0
23 *101:6 *114:16 0.000534222
24 *111:10 *3783:B 0
*RES
1 *3767:X *114:16 37.4786 
2 *114:16 *114:18 4.5 
3 *114:18 *3784:B1 13.5679 
4 *114:18 *3770:A1 9.3 
5 *114:16 *3783:B 18.8536 
*END

*D_NET *115 0.00213704
*CONN
*I *3770:A2 I *D sky130_fd_sc_hd__a21bo_1
*I *3783:C I *D sky130_fd_sc_hd__nand3_1
*I *3784:A2 I *D sky130_fd_sc_hd__a21o_1
*I *3768:X O *D sky130_fd_sc_hd__a22o_1
*CAP
1 *3770:A2 3.83869e-05
2 *3783:C 7.20097e-05
3 *3784:A2 0
4 *3768:X 0.000260304
5 *115:23 0.000169836
6 *115:14 0.000319744
7 *3770:A2 *296:141 0.000139913
8 *3783:C *266:20 0.000106542
9 *115:14 *3754:B1 1.32552e-05
10 *115:14 *3754:B2 2.27416e-05
11 *115:14 *3783:A 4.30452e-05
12 *115:14 *116:10 0.000262956
13 *115:14 *132:29 0
14 *115:14 *134:8 4.72125e-05
15 *115:14 *136:14 0.000146474
16 *115:14 *296:141 3.97677e-05
17 *115:23 *296:141 0.000137983
18 *3783:B *3783:C 0.000106542
19 *3784:B1 *3770:A2 4.58976e-05
20 *3784:B1 *115:14 9.41642e-05
21 *3784:B1 *115:23 7.02594e-05
*RES
1 *3768:X *115:14 24.2643 
2 *115:14 *3784:A2 9.3 
3 *115:14 *115:23 1.78571 
4 *115:23 *3783:C 20.8536 
5 *115:23 *3770:A2 10.6571 
*END

*D_NET *116 0.00223484
*CONN
*I *3783:A I *D sky130_fd_sc_hd__nand3_1
*I *3770:B1_N I *D sky130_fd_sc_hd__a21bo_1
*I *3784:A1 I *D sky130_fd_sc_hd__a21o_1
*I *3769:Y O *D sky130_fd_sc_hd__nand4_1
*CAP
1 *3783:A 0.000181621
2 *3770:B1_N 7.70325e-05
3 *3784:A1 0
4 *3769:Y 0.000353336
5 *116:12 7.70325e-05
6 *116:10 0.000534957
7 *3783:A *3796:A_N 1.61609e-05
8 *3783:A *130:10 0.000192527
9 *3783:A *134:8 4.75565e-05
10 *116:10 *3768:B2 0
11 *116:10 *122:16 6.05161e-06
12 *116:10 *130:10 0.000100823
13 *116:10 *132:29 0
14 *116:10 *149:14 3.22663e-05
15 *116:10 *263:42 2.89114e-05
16 *116:10 *266:20 9.72343e-05
17 *116:10 *266:22 8.9163e-05
18 *116:10 *267:68 0
19 *3783:B *3783:A 0
20 *3784:B1 *3770:B1_N 9.41642e-05
21 *115:14 *3783:A 4.30452e-05
22 *115:14 *116:10 0.000262956
*RES
1 *3769:Y *116:10 21.4607 
2 *116:10 *116:12 4.5 
3 *116:12 *3784:A1 9.3 
4 *116:12 *3770:B1_N 10.2464 
5 *116:10 *3783:A 18.05 
*END

*D_NET *117 0.00217176
*CONN
*I *3772:B I *D sky130_fd_sc_hd__nand3_1
*I *3771:B1 I *D sky130_fd_sc_hd__a21o_1
*I *3770:X O *D sky130_fd_sc_hd__a21bo_1
*CAP
1 *3772:B 4.70384e-05
2 *3771:B1 0.000125802
3 *3770:X 0.000293207
4 *117:8 0.000466048
5 *3771:B1 *3789:A1 9.54798e-06
6 *3771:B1 *118:6 3.14078e-05
7 *3771:B1 *119:10 6.76116e-05
8 *3771:B1 *296:141 0.00022266
9 *3772:B *119:8 6.91157e-05
10 *3772:B *119:10 9.25014e-06
11 *117:8 *296:141 0.000443648
12 *3771:A1 *3771:B1 8.17186e-05
13 *3772:A *3771:B1 7.95888e-05
14 *3772:A *3772:B 0.000141375
15 *3772:C *3772:B 3.90513e-05
16 *3773:A1 *3771:B1 0
17 *3782:B *3771:B1 3.51393e-05
18 *112:10 *3771:B1 9.54798e-06
*RES
1 *3770:X *117:8 18.0321 
2 *117:8 *3771:B1 17.8714 
3 *117:8 *3772:B 15.7464 
*END

*D_NET *118 0.00177682
*CONN
*I *3782:C I *D sky130_fd_sc_hd__nand3_1
*I *3789:A2 I *D sky130_fd_sc_hd__a21o_1
*I *3773:A2 I *D sky130_fd_sc_hd__a21bo_1
*I *3771:X O *D sky130_fd_sc_hd__a21o_1
*CAP
1 *3782:C 0.000150439
2 *3789:A2 7.77951e-05
3 *3773:A2 7.61874e-05
4 *3771:X 0
5 *118:6 0.000472043
6 *118:4 0.000468499
7 *3789:A2 *3789:A1 1.04232e-05
8 *118:6 *296:141 2.6505e-05
9 *3766:A2 *3789:A2 3.99614e-06
10 *3771:A1 *3773:A2 1.05731e-05
11 *3771:A1 *118:6 0.000180777
12 *3771:B1 *118:6 3.14078e-05
13 *3773:A1 *3773:A2 2.93523e-05
14 *3773:A1 *118:6 3.69047e-06
15 *3782:B *3782:C 9.90431e-05
16 *3782:B *118:6 5.52238e-05
17 *3789:B1 *3789:A2 4.15914e-05
18 *112:10 *3789:A2 3.92757e-05
*RES
1 *3771:X *118:4 9.3 
2 *118:4 *118:6 4.23214 
3 *118:6 *3773:A2 10.5679 
4 *118:6 *3789:A2 20.0679 
5 *118:4 *3782:C 11.4964 
*END

*D_NET *119 0.00233633
*CONN
*I *3782:A I *D sky130_fd_sc_hd__nand3_1
*I *3773:B1_N I *D sky130_fd_sc_hd__a21bo_1
*I *3789:A1 I *D sky130_fd_sc_hd__a21o_1
*I *3772:Y O *D sky130_fd_sc_hd__nand3_1
*CAP
1 *3782:A 0.000312029
2 *3773:B1_N 0
3 *3789:A1 0.000279405
4 *3772:Y 2.69798e-05
5 *119:10 0.00031166
6 *119:8 0.000371263
7 *3782:A *296:141 0.000263524
8 *3766:A2 *3789:A1 5.52238e-05
9 *3771:B1 *3789:A1 9.54798e-06
10 *3771:B1 *119:10 6.76116e-05
11 *3772:B *119:8 6.91157e-05
12 *3772:B *119:10 9.25014e-06
13 *3772:C *119:8 7.83659e-05
14 *3772:C *119:10 6.76116e-05
15 *3782:B *3782:A 7.67846e-05
16 *3789:A2 *3789:A1 1.04232e-05
17 *3789:B1 *3789:A1 0
18 *101:14 *3789:A1 5.08859e-05
19 *112:10 *3789:A1 5.18717e-05
20 *113:10 *3789:A1 0.00021523
21 *113:10 *119:10 9.54798e-06
*RES
1 *3772:Y *119:8 14.8357 
2 *119:8 *119:10 1.03571 
3 *119:10 *3789:A1 19.5679 
4 *119:10 *3773:B1_N 13.8 
5 *119:8 *3782:A 18.7821 
*END

*D_NET *120 0.00177939
*CONN
*I *3775:B I *D sky130_fd_sc_hd__and3_1
*I *3801:B1 I *D sky130_fd_sc_hd__a21oi_1
*I *3773:X O *D sky130_fd_sc_hd__a21bo_1
*CAP
1 *3775:B 4.35868e-05
2 *3801:B1 0.000119838
3 *3773:X 0.000439489
4 *120:10 0.000602914
5 *3801:B1 *3802:B 5.87759e-05
6 *3801:B1 *122:10 6.9276e-05
7 *120:10 *3754:A2 0
8 *120:10 *121:14 9.91086e-05
9 *3789:B1 *120:10 0.000128161
10 *3801:A1 *3775:B 1.98839e-05
11 *3801:A1 *3801:B1 0.000178586
12 *101:14 *120:10 0
13 *102:8 *120:10 0
14 *102:23 *120:10 0
15 *110:12 *3801:B1 1.97695e-05
16 *114:16 *120:10 0
*RES
1 *3773:X *120:10 25.7107 
2 *120:10 *3801:B1 12.7643 
3 *120:10 *3775:B 9.83571 
*END

*D_NET *121 0.00161764
*CONN
*I *3775:C I *D sky130_fd_sc_hd__and3_1
*I *3801:A2 I *D sky130_fd_sc_hd__a21oi_1
*I *3774:X O *D sky130_fd_sc_hd__a21o_1
*CAP
1 *3775:C 0
2 *3801:A2 6.25656e-05
3 *3774:X 0.000296849
4 *121:14 0.000359415
5 *3801:A2 *122:10 6.75704e-05
6 *121:14 *3754:A2 0
7 *121:14 *264:51 3.67548e-05
8 *3763:A *121:14 4.58194e-05
9 *3763:B *121:14 3.80079e-05
10 *3774:A2 *121:14 0.000268403
11 *3774:B1 *121:14 0.000122101
12 *3775:A *3801:A2 1.97695e-05
13 *3801:A1 *3801:A2 0.000118378
14 *3801:A1 *121:14 4.53871e-06
15 *102:8 *121:14 0
16 *110:12 *121:14 7.83587e-05
17 *120:10 *121:14 9.91086e-05
*RES
1 *3774:X *121:14 25.3045 
2 *121:14 *3801:A2 11.117 
3 *121:14 *3775:C 9.3 
*END

*D_NET *122 0.00217052
*CONN
*I *3802:A I *D sky130_fd_sc_hd__nor2_1
*I *3777:B1_N I *D sky130_fd_sc_hd__o21ba_1
*I *3776:C_N I *D sky130_fd_sc_hd__nor3b_1
*I *3775:X O *D sky130_fd_sc_hd__and3_1
*CAP
1 *3802:A 0
2 *3777:B1_N 3.75977e-05
3 *3776:C_N 7.41042e-05
4 *3775:X 0.00020286
5 *122:16 0.000349871
6 *122:10 0.000441029
7 *3776:C_N *263:42 8.59039e-05
8 *3776:C_N *266:22 3.90513e-05
9 *122:10 *3802:B 5.46298e-05
10 *122:10 *149:14 2.77289e-05
11 *122:10 *263:42 0
12 *122:16 *149:14 9.47028e-05
13 *122:16 *263:42 0.000131563
14 *122:16 *266:22 0.000202816
15 *122:16 *267:68 0
16 *3776:B *3776:C_N 0.000153047
17 *3776:B *122:16 9.25014e-06
18 *3781:A *3777:B1_N 9.90367e-05
19 *3801:A1 *122:10 2.44318e-05
20 *3801:A2 *122:10 6.75704e-05
21 *3801:B1 *122:10 6.9276e-05
22 *116:10 *122:16 6.05161e-06
*RES
1 *3775:X *122:10 13.5679 
2 *122:10 *122:16 11.25 
3 *122:16 *3776:C_N 16.6571 
4 *122:16 *3777:B1_N 14.7464 
5 *122:10 *3802:A 9.3 
*END

*D_NET *123 0.00140697
*CONN
*I *3811:A2 I *D sky130_fd_sc_hd__o21a_1
*I *3839:A_N I *D sky130_fd_sc_hd__and2b_1
*I *3778:A I *D sky130_fd_sc_hd__nor2_1
*I *3776:Y O *D sky130_fd_sc_hd__nor3b_1
*CAP
1 *3811:A2 0
2 *3839:A_N 8.67279e-05
3 *3778:A 0.000131851
4 *3776:Y 7.49901e-05
5 *123:8 0.000305393
6 *123:6 0.000161804
7 *3778:A *3811:B1 1.7859e-05
8 *3778:A *3812:A1 0
9 *3778:A *3812:B1 5.52302e-05
10 *3839:A_N *3781:B 0.000150625
11 *3839:A_N *132:29 7.80929e-05
12 *3839:A_N *245:98 0.000296852
13 *123:6 *127:14 7.49387e-06
14 *123:8 *3811:B1 9.99644e-06
15 *123:8 *127:14 1.07719e-05
16 *3811:A1 *123:6 1.92789e-05
*RES
1 *3776:Y *123:6 10.2464 
2 *123:6 *123:8 0.946429 
3 *123:8 *3778:A 11.9429 
4 *123:8 *3839:A_N 22.0679 
5 *123:6 *3811:A2 9.3 
*END

*D_NET *124 0.00213549
*CONN
*I *3778:B I *D sky130_fd_sc_hd__nor2_1
*I *3842:A1 I *D sky130_fd_sc_hd__o21ba_1
*I *3777:X O *D sky130_fd_sc_hd__o21ba_1
*CAP
1 *3778:B 0.000150532
2 *3842:A1 0.000205281
3 *3777:X 0.000342166
4 *124:8 0.000697978
5 *3778:B *3812:B1 5.52302e-05
6 *3778:B *3840:A2 3.90513e-05
7 *3778:B *125:23 0.000151333
8 *3778:B *272:14 7.41547e-05
9 *3842:A1 *3813:A2 6.05161e-06
10 *3842:A1 *3842:A2 0.000309266
11 *3842:A1 *128:34 5.96516e-05
12 *124:8 *128:34 1.15281e-05
13 *3781:A *124:8 3.32631e-05
*RES
1 *3777:X *124:8 14.2643 
2 *124:8 *3842:A1 13.5321 
3 *124:8 *3778:B 21.6929 
*END

*D_NET *125 0.00177842
*CONN
*I *3804:A I *D sky130_fd_sc_hd__and4_1
*I *3835:A I *D sky130_fd_sc_hd__inv_2
*I *3812:A1 I *D sky130_fd_sc_hd__a31o_1
*I *3778:Y O *D sky130_fd_sc_hd__nor2_1
*CAP
1 *3804:A 9.62835e-06
2 *3835:A 0.000155867
3 *3812:A1 7.25038e-05
4 *3778:Y 7.29784e-05
5 *125:23 0.00028751
6 *125:6 0.000267497
7 *3804:A *3804:B 4.27935e-05
8 *3804:A *3840:A2 5.52302e-05
9 *3812:A1 *3812:B1 1.33343e-05
10 *3835:A *3804:B 5.33005e-05
11 *3835:A *3804:D 5.33005e-05
12 *3835:A *3837:A2 5.33334e-05
13 *3835:A *3840:A2 5.33005e-05
14 *3835:A *151:10 2.59355e-05
15 *125:6 *3812:B1 4.43256e-05
16 *125:23 *3840:A2 0.000315172
17 *125:23 *128:34 5.10822e-05
18 *125:23 *272:14 0
19 *3778:A *3812:A1 0
20 *3778:B *125:23 0.000151333
*RES
1 *3778:Y *125:6 10.2464 
2 *125:6 *3812:A1 10.6929 
3 *125:6 *125:23 13.0714 
4 *125:23 *3835:A 12.3 
5 *125:23 *3804:A 9.83571 
*END

*D_NET *126 0.00107522
*CONN
*I *3780:B I *D sky130_fd_sc_hd__nor2_1
*I *3779:Y O *D sky130_fd_sc_hd__a21oi_1
*CAP
1 *3780:B 0.000314393
2 *3779:Y 0.000314393
3 *3780:B *266:22 0.000150618
4 *3780:B *279:35 6.09773e-05
5 *3746:A *3780:B 2.28598e-05
6 *3746:B *3780:B 5.52238e-05
7 *3779:B1 *3780:B 8.07313e-05
8 *91:12 *3780:B 7.6021e-05
*RES
1 *3779:Y *3780:B 33.4929 
*END

*D_NET *127 0.00228341
*CONN
*I *3781:B I *D sky130_fd_sc_hd__xor2_2
*I *3811:B1 I *D sky130_fd_sc_hd__o21a_1
*I *3780:Y O *D sky130_fd_sc_hd__nor2_1
*CAP
1 *3781:B 0.000101266
2 *3811:B1 5.08795e-05
3 *3780:Y 0.000414422
4 *127:14 0.000566567
5 *3781:B *132:29 0.000247778
6 *3781:B *245:98 4.98872e-05
7 *127:14 *3785:A 4.76575e-05
8 *127:14 *263:23 9.95103e-05
9 *127:14 *263:42 0.000359394
10 *127:14 *266:22 0
11 *3778:A *3811:B1 1.7859e-05
12 *3811:A1 *127:14 0.000138881
13 *3839:A_N *3781:B 0.000150625
14 *108:14 *3811:B1 0
15 *108:14 *127:14 1.04232e-05
16 *123:6 *127:14 7.49387e-06
17 *123:8 *3811:B1 9.99644e-06
18 *123:8 *127:14 1.07719e-05
*RES
1 *3780:Y *127:14 26.8 
2 *127:14 *3811:B1 10.2643 
3 *127:14 *3781:B 12.1607 
*END

*D_NET *128 0.0024364
*CONN
*I *3839:B I *D sky130_fd_sc_hd__and2b_1
*I *3804:B I *D sky130_fd_sc_hd__and4_1
*I *3812:A2 I *D sky130_fd_sc_hd__a31o_1
*I *3842:A2 I *D sky130_fd_sc_hd__o21ba_1
*I *3781:X O *D sky130_fd_sc_hd__xor2_2
*CAP
1 *3839:B 8.6329e-05
2 *3804:B 7.92173e-05
3 *3812:A2 6.31749e-05
4 *3842:A2 0.000213177
5 *3781:X 0
6 *128:34 0.000384951
7 *128:4 0.000495756
8 *3804:B *3840:A2 2.14658e-05
9 *3812:A2 *3840:A1 1.02504e-05
10 *3812:A2 *3840:A2 0.0002253
11 *3812:A2 *157:39 0.0002253
12 *3839:B *3840:A2 6.05161e-06
13 *3842:A2 *3813:A2 3.30237e-05
14 *3842:A2 *177:16 1.3701e-05
15 *128:34 *272:14 5.10822e-05
16 *3804:A *3804:B 4.27935e-05
17 *3835:A *3804:B 5.33005e-05
18 *3842:A1 *3842:A2 0.000309266
19 *3842:A1 *128:34 5.96516e-05
20 *124:8 *128:34 1.15281e-05
21 *125:23 *128:34 5.10822e-05
*RES
1 *3781:X *128:4 9.3 
2 *128:4 *3842:A2 13.55 
3 *128:4 *3812:A2 21.1571 
4 *128:4 *128:34 12.5357 
5 *128:34 *3804:B 10.6571 
6 *128:34 *3839:B 10.8714 
*END

*D_NET *129 0.0042234
*CONN
*I *3790:A I *D sky130_fd_sc_hd__and3_1
*I *3791:A1 I *D sky130_fd_sc_hd__a21oi_1
*I *3782:Y O *D sky130_fd_sc_hd__nand3_1
*CAP
1 *3790:A 0
2 *3791:A1 0.000120422
3 *3782:Y 0.00155699
4 *129:18 0.00167741
5 *3791:A1 *3790:C 0.00010615
6 *3791:A1 *3791:A2 0.000271345
7 *3791:A1 *3791:B1 2.14757e-05
8 *129:18 *3796:B 0.000391522
9 *129:18 *144:8 9.87983e-06
10 *129:18 *296:16 0
11 *129:18 *296:141 6.8194e-05
*RES
1 *3782:Y *129:18 29.4266 
2 *129:18 *3791:A1 12.3 
3 *129:18 *3790:A 9.3 
*END

*D_NET *130 0.00151654
*CONN
*I *3786:A1 I *D sky130_fd_sc_hd__a21o_1
*I *3787:A I *D sky130_fd_sc_hd__and3_1
*I *3783:Y O *D sky130_fd_sc_hd__nand3_1
*CAP
1 *3786:A1 0.000232146
2 *3787:A 0
3 *3783:Y 0.000140327
4 *130:10 0.000372473
5 *3786:A1 *3787:C 0.000164634
6 *3786:A1 *136:14 3.19435e-05
7 *130:10 *266:20 0.000281671
8 *3783:A *130:10 0.000192527
9 *116:10 *130:10 0.000100823
*RES
1 *3783:Y *130:10 22.0679 
2 *130:10 *3787:A 9.3 
3 *130:10 *3786:A1 12.3179 
*END

*D_NET *131 0.00122623
*CONN
*I *3786:A2 I *D sky130_fd_sc_hd__a21o_1
*I *3787:B I *D sky130_fd_sc_hd__and3_1
*I *3784:X O *D sky130_fd_sc_hd__a21o_1
*CAP
1 *3786:A2 0
2 *3787:B 0.00012816
3 *3784:X 0.000311679
4 *131:22 0.00043984
5 *3787:B *3787:C 3.00323e-05
6 *3787:B *136:14 5.52238e-05
7 *131:22 *3787:C 5.52302e-05
8 *131:22 *3796:B 4.15161e-05
9 *131:22 *3797:A 4.46186e-06
10 *131:22 *132:29 9.25014e-06
11 *131:22 *134:8 6.76734e-05
12 *131:22 *245:98 2.98674e-05
13 *131:22 *272:14 0
14 *131:22 *296:141 5.33005e-05
*RES
1 *3784:X *131:22 23.8536 
2 *131:22 *3787:B 11.8179 
3 *131:22 *3786:A2 9.3 
*END

*D_NET *132 0.00439652
*CONN
*I *3787:C I *D sky130_fd_sc_hd__and3_1
*I *3786:B1 I *D sky130_fd_sc_hd__a21o_1
*I *3792:A I *D sky130_fd_sc_hd__inv_2
*I *3785:X O *D sky130_fd_sc_hd__and4_1
*CAP
1 *3787:C 9.73314e-05
2 *3786:B1 3.31587e-05
3 *3792:A 0.000238159
4 *3785:X 6.45412e-05
5 *132:29 0.000684145
6 *132:8 0.000856355
7 *3787:C *136:14 1.90194e-05
8 *3792:A *139:6 9.60875e-05
9 *3792:A *213:42 0.000153354
10 *3792:A *213:51 1.0634e-05
11 *3792:A *245:92 0.000146474
12 *3792:A *272:14 0.000144038
13 *132:8 *213:42 1.04232e-05
14 *132:8 *213:51 9.90431e-05
15 *132:29 *3768:B1 0.000150625
16 *132:29 *3768:B2 2.49484e-05
17 *132:29 *3769:B 7.6644e-05
18 *132:29 *3794:A 2.84494e-05
19 *132:29 *134:8 2.91794e-05
20 *132:29 *140:10 0.00014576
21 *132:29 *245:92 2.84009e-05
22 *132:29 *245:98 0.000214172
23 *132:29 *267:59 0.000391529
24 *132:29 *267:68 5.72318e-05
25 *132:29 *274:29 1.17968e-05
26 *3781:B *132:29 0.000247778
27 *3786:A1 *3787:C 0.000164634
28 *3787:B *3787:C 3.00323e-05
29 *3839:A_N *132:29 7.80929e-05
30 *115:14 *132:29 0
31 *116:10 *132:29 0
32 *131:22 *3787:C 5.52302e-05
33 *131:22 *132:29 9.25014e-06
*RES
1 *3785:X *132:8 10.675 
2 *132:8 *3792:A 22.9607 
3 *132:8 *132:29 25.5179 
4 *132:29 *3786:B1 9.83571 
5 *132:29 *3787:C 11.7643 
*END

*D_NET *133 0.00177676
*CONN
*I *3796:B I *D sky130_fd_sc_hd__and2b_1
*I *3788:A3 I *D sky130_fd_sc_hd__a31o_1
*I *3786:X O *D sky130_fd_sc_hd__a21o_1
*CAP
1 *3796:B 0.000274246
2 *3788:A3 0
3 *3786:X 0.000232639
4 *133:10 0.000506885
5 *3796:B *3796:A_N 2.41865e-05
6 *3796:B *3797:A 2.97074e-05
7 *3796:B *134:8 0.00010891
8 *3796:B *144:8 0
9 *3796:B *272:14 2.11419e-05
10 *133:10 *272:14 0.000146002
11 *129:18 *3796:B 0.000391522
12 *131:22 *3796:B 4.15161e-05
*RES
1 *3786:X *133:10 17.1036 
2 *133:10 *3788:A3 13.8 
3 *133:10 *3796:B 23.315 
*END

*D_NET *134 0.00193685
*CONN
*I *3796:A_N I *D sky130_fd_sc_hd__and2b_1
*I *3788:B1 I *D sky130_fd_sc_hd__a31o_1
*I *3787:X O *D sky130_fd_sc_hd__and3_1
*CAP
1 *3796:A_N 0.000114138
2 *3788:B1 0.00030802
3 *3787:X 0.000203092
4 *134:8 0.00062525
5 *3788:B1 *3795:A 1.95127e-05
6 *3788:B1 *3797:A 7.6644e-05
7 *3788:B1 *3797:B 7.32272e-05
8 *3788:B1 *272:14 2.79092e-05
9 *3796:A_N *3797:A 0
10 *3796:A_N *266:20 0
11 *134:8 *136:14 0.000148182
12 *3783:A *3796:A_N 1.61609e-05
13 *3783:A *134:8 4.75565e-05
14 *3796:B *3796:A_N 2.41865e-05
15 *3796:B *134:8 0.00010891
16 *115:14 *134:8 4.72125e-05
17 *131:22 *134:8 6.76734e-05
18 *132:29 *134:8 2.91794e-05
*RES
1 *3787:X *134:8 18.7821 
2 *134:8 *3788:B1 27.2821 
3 *134:8 *3796:A_N 15.8893 
*END

*D_NET *135 0.000944347
*CONN
*I *3790:B I *D sky130_fd_sc_hd__and3_1
*I *3791:B1 I *D sky130_fd_sc_hd__a21oi_1
*I *3788:X O *D sky130_fd_sc_hd__a31o_1
*CAP
1 *3790:B 0
2 *3791:B1 0.000178699
3 *3788:X 0.000137553
4 *135:6 0.000316252
5 *3791:B1 *3791:A2 0.000186662
6 *3791:B1 *138:10 5.33334e-05
7 *135:6 *3791:A2 4.51726e-05
8 *135:6 *136:14 5.19842e-06
9 *3791:A1 *3791:B1 2.14757e-05
*RES
1 *3788:X *135:6 11.0679 
2 *135:6 *3791:B1 13.4607 
3 *135:6 *3790:B 9.3 
*END

*D_NET *136 0.0033387
*CONN
*I *3791:A2 I *D sky130_fd_sc_hd__a21oi_1
*I *3790:C I *D sky130_fd_sc_hd__and3_1
*I *3789:X O *D sky130_fd_sc_hd__a21o_1
*CAP
1 *3791:A2 9.6391e-05
2 *3790:C 9.95552e-05
3 *3789:X 0.000810798
4 *136:14 0.00100674
5 *136:14 *3788:A2 0.000268409
6 *136:14 *296:141 2.89967e-05
7 *3784:B1 *136:14 1.24368e-05
8 *3786:A1 *136:14 3.19435e-05
9 *3787:B *136:14 5.52238e-05
10 *3787:C *136:14 1.90194e-05
11 *3791:A1 *3790:C 0.00010615
12 *3791:A1 *3791:A2 0.000271345
13 *3791:B1 *3791:A2 0.000186662
14 *115:14 *136:14 0.000146474
15 *134:8 *136:14 0.000148182
16 *135:6 *3791:A2 4.51726e-05
17 *135:6 *136:14 5.19842e-06
*RES
1 *3789:X *136:14 31.175 
2 *136:14 *3790:C 10.7286 
3 *136:14 *3791:A2 13.0321 
*END

*D_NET *137 0.00273651
*CONN
*I *3798:A_N I *D sky130_fd_sc_hd__and4bb_1
*I *3810:A1 I *D sky130_fd_sc_hd__o21a_1
*I *3799:B1 I *D sky130_fd_sc_hd__o2bb2a_1
*I *3803:A I *D sky130_fd_sc_hd__xor2_1
*I *3790:X O *D sky130_fd_sc_hd__and3_1
*CAP
1 *3798:A_N 5.97072e-05
2 *3810:A1 0
3 *3799:B1 0
4 *3803:A 0.00018144
5 *3790:X 7.6876e-05
6 *137:16 0.000220505
7 *137:12 0.000121564
8 *137:8 0.000219081
9 *3798:A_N *3798:C 0.000229456
10 *3798:A_N *3798:D 1.40306e-05
11 *3798:A_N *145:14 0.000315158
12 *3803:A *3799:A1_N 0.000155597
13 *3803:A *3803:B 0.00012156
14 *3803:A *144:16 0.000230482
15 *3803:A *144:26 0.000353086
16 *3803:A *146:14 7.77634e-06
17 *137:8 *3799:B2 1.37292e-05
18 *137:8 *138:10 4.57538e-05
19 *137:8 *144:8 3.48235e-05
20 *137:8 *144:16 5.7616e-05
21 *137:12 *3799:B2 3.25247e-05
22 *137:12 *3810:A2 7.83587e-05
23 *137:12 *144:16 3.34783e-05
24 *137:12 *146:14 0
25 *137:16 *3803:B 9.90367e-05
26 *137:16 *144:16 3.48705e-05
*RES
1 *3790:X *137:8 16.05 
2 *137:8 *137:12 6.44643 
3 *137:12 *137:16 1.375 
4 *137:16 *3803:A 16.1571 
5 *137:16 *3799:B1 9.3 
6 *137:12 *3810:A1 9.3 
7 *137:8 *3798:A_N 16.8 
*END

*D_NET *138 0.00121602
*CONN
*I *3798:B_N I *D sky130_fd_sc_hd__and4bb_1
*I *3799:B2 I *D sky130_fd_sc_hd__o2bb2a_1
*I *3791:Y O *D sky130_fd_sc_hd__a21oi_1
*CAP
1 *3798:B_N 9.36825e-05
2 *3799:B2 0.000109932
3 *3791:Y 0.000238395
4 *138:10 0.00044201
5 *3798:B_N *3798:C 0.000186662
6 *3799:B2 *3798:C 0
7 *138:10 *144:8 0
8 *3791:B1 *138:10 5.33334e-05
9 *137:8 *3799:B2 1.37292e-05
10 *137:8 *138:10 4.57538e-05
11 *137:12 *3799:B2 3.25247e-05
*RES
1 *3791:Y *138:10 17.9071 
2 *138:10 *3799:B2 15.7464 
3 *138:10 *3798:B_N 15.9964 
*END

*D_NET *139 0.00109886
*CONN
*I *3794:C I *D sky130_fd_sc_hd__and4_2
*I *3806:B1 I *D sky130_fd_sc_hd__a22o_1
*I *3792:Y O *D sky130_fd_sc_hd__inv_2
*CAP
1 *3794:C 0.000109328
2 *3806:B1 2.02334e-05
3 *3792:Y 9.00892e-05
4 *139:6 0.000219651
5 *3794:C *3794:A 0.000123617
6 *3794:C *3794:D 8.85631e-05
7 *3794:C *3806:A2 2.77143e-05
8 *3794:C *141:14 6.26276e-05
9 *3806:B1 *3794:D 5.7661e-06
10 *3806:B1 *3806:A2 4.1896e-06
11 *139:6 *3794:A 5.52302e-05
12 *139:6 *3806:A2 4.15355e-05
13 *139:6 *141:14 5.51918e-05
14 *139:6 *153:20 9.90367e-05
15 *3792:A *139:6 9.60875e-05
*RES
1 *3792:Y *139:6 11.8893 
2 *139:6 *3806:B1 9.72857 
3 *139:6 *3794:C 12.3179 
*END

*D_NET *140 0.000915383
*CONN
*I *3794:D I *D sky130_fd_sc_hd__and4_2
*I *3806:B2 I *D sky130_fd_sc_hd__a22o_1
*I *3793:X O *D sky130_fd_sc_hd__a22o_1
*CAP
1 *3794:D 8.46528e-05
2 *3806:B2 0
3 *3793:X 5.88526e-05
4 *140:10 0.000143505
5 *3794:D *3806:A2 0.000140947
6 *3794:D *141:14 1.32552e-05
7 *3794:D *212:88 8.66063e-05
8 *140:10 *267:59 0.000147474
9 *3794:C *3794:D 8.85631e-05
10 *3806:B1 *3794:D 5.7661e-06
11 *132:29 *140:10 0.00014576
*RES
1 *3793:X *140:10 20.2464 
2 *140:10 *3806:B2 9.3 
3 *140:10 *3794:D 11.9071 
*END

*D_NET *141 0.0091532
*CONN
*I *3798:C I *D sky130_fd_sc_hd__and4bb_1
*I *3799:A1_N I *D sky130_fd_sc_hd__o2bb2a_1
*I *3805:A I *D sky130_fd_sc_hd__inv_2
*I *3829:A I *D sky130_fd_sc_hd__nor2_1
*I *3794:X O *D sky130_fd_sc_hd__and4_2
*CAP
1 *3798:C 0.000269578
2 *3799:A1_N 3.88274e-05
3 *3805:A 3.62004e-05
4 *3829:A 0.000370537
5 *3794:X 0.00112152
6 *141:44 0.000660782
7 *141:16 0.000612799
8 *141:14 0.00167995
9 *3798:C *145:14 0.000152839
10 *3798:C *146:14 0
11 *3798:C *150:10 1.52978e-05
12 *3799:A1_N *3803:B 3.83189e-05
13 *3799:A1_N *146:14 3.76256e-05
14 *3805:A *3853:B1 5.7661e-06
15 *3829:A *3808:B 0.000232399
16 *3829:A *3829:B 3.46677e-05
17 *3829:A *3830:B 6.09899e-05
18 *3829:A *3852:A 0.000183726
19 *3829:A *3853:B1 0.000118634
20 *3829:A *3854:A1 5.71472e-05
21 *3829:A *3854:B1 5.03772e-05
22 *3829:A *154:25 2.24195e-05
23 *3829:A *280:12 0.000193165
24 *141:14 *3794:A 0.000180764
25 *141:14 *3813:B1 0.000136951
26 *141:14 *3831:A 0.000146474
27 *141:14 *3840:B1 0.000216297
28 *141:14 *3844:C 7.47166e-05
29 *141:14 *3844:D_N 2.59355e-05
30 *141:14 *151:10 4.49293e-05
31 *141:14 *153:20 0.000491435
32 *141:14 *212:88 9.00795e-06
33 *141:16 *3808:B 0.000230475
34 *141:16 *3844:C 5.30637e-06
35 *141:16 *3853:A1 2.15245e-05
36 *141:16 *3853:B1 3.14078e-05
37 *141:44 *3813:A2 0
38 *141:44 *3831:C 7.80714e-06
39 *141:44 *3843:B1 0.000150625
40 *141:44 *3843:C1 0.000335208
41 *141:44 *3844:B 0.000192045
42 *141:44 *145:14 7.91281e-05
43 *141:44 *150:10 7.68124e-05
44 *141:44 *177:16 0
45 *3794:C *141:14 6.26276e-05
46 *3794:D *141:14 1.32552e-05
47 *3798:A_N *3798:C 0.000229456
48 *3798:B_N *3798:C 0.000186662
49 *3799:B2 *3798:C 0
50 *3803:A *3799:A1_N 0.000155597
51 *139:6 *141:14 5.51918e-05
*RES
1 *3794:X *141:14 35.8714 
2 *141:14 *141:16 4.23214 
3 *141:16 *3829:A 28.5857 
4 *141:16 *3805:A 10.0321 
5 *141:14 *141:44 13.7321 
6 *141:44 *3799:A1_N 15.3045 
7 *141:44 *3798:C 20.175 
*END

*D_NET *142 0.000549265
*CONN
*I *3797:A I *D sky130_fd_sc_hd__xnor2_2
*I *3795:Y O *D sky130_fd_sc_hd__nand2_1
*CAP
1 *3797:A 0.000184125
2 *3795:Y 0.000184125
3 *3797:A *3788:A2 1.11491e-05
4 *3797:A *3795:A 3.82891e-06
5 *3797:A *3797:B 5.52238e-05
6 *3797:A *272:14 0
7 *3788:B1 *3797:A 7.6644e-05
8 *3796:A_N *3797:A 0
9 *3796:B *3797:A 2.97074e-05
10 *131:22 *3797:A 4.46186e-06
*RES
1 *3795:Y *3797:A 31.0286 
*END

*D_NET *143 0.000230861
*CONN
*I *3797:B I *D sky130_fd_sc_hd__xnor2_2
*I *3796:X O *D sky130_fd_sc_hd__and2b_1
*CAP
1 *3797:B 5.12051e-05
2 *3796:X 5.12051e-05
3 *3788:B1 *3797:B 7.32272e-05
4 *3797:A *3797:B 5.52238e-05
*RES
1 *3796:X *3797:B 19.9571 
*END

*D_NET *144 0.00476323
*CONN
*I *3798:D I *D sky130_fd_sc_hd__and4bb_1
*I *3799:A2_N I *D sky130_fd_sc_hd__o2bb2a_1
*I *3809:A I *D sky130_fd_sc_hd__and2_1
*I *3830:A I *D sky130_fd_sc_hd__xnor2_1
*I *3797:Y O *D sky130_fd_sc_hd__xnor2_2
*CAP
1 *3798:D 0.000125276
2 *3799:A2_N 0
3 *3809:A 0
4 *3830:A 0.000103409
5 *3797:Y 0.00026332
6 *144:26 0.000848978
7 *144:16 0.00118874
8 *144:8 0.000831768
9 *3798:D *145:14 3.06878e-06
10 *3830:A *3809:B 0.000145673
11 *3830:A *3829:B 9.71197e-05
12 *3830:A *3830:B 0
13 *3830:A *177:16 2.44318e-05
14 *144:8 *272:14 0
15 *144:16 *3803:B 2.65105e-05
16 *144:16 *3810:A2 7.83587e-05
17 *144:16 *146:14 0
18 *144:16 *149:14 1.41706e-05
19 *144:16 *272:14 0
20 *144:26 *3809:B 4.88637e-05
21 *144:26 *3841:B1 0
22 *144:26 *145:14 0
23 *144:26 *177:16 0.00014285
24 *144:26 *213:8 0
25 *144:26 *274:12 5.24274e-05
26 *144:26 *280:12 0
27 *3796:B *144:8 0
28 *3798:A_N *3798:D 1.40306e-05
29 *3803:A *144:16 0.000230482
30 *3803:A *144:26 0.000353086
31 *129:18 *144:8 9.87983e-06
32 *137:8 *144:8 3.48235e-05
33 *137:8 *144:16 5.7616e-05
34 *137:12 *144:16 3.34783e-05
35 *137:16 *144:16 3.48705e-05
36 *138:10 *144:8 0
*RES
1 *3797:Y *144:8 17.8714 
2 *144:8 *144:16 12.5179 
3 *144:16 *144:26 20.7143 
4 *144:26 *3830:A 11.9071 
5 *144:26 *3809:A 9.3 
6 *144:16 *3799:A2_N 9.3 
7 *144:8 *3798:D 15.1571 
*END

*D_NET *145 0.0037532
*CONN
*I *3810:A2 I *D sky130_fd_sc_hd__o21a_1
*I *3800:A I *D sky130_fd_sc_hd__nor2_1
*I *3837:A1 I *D sky130_fd_sc_hd__o221a_1
*I *3798:X O *D sky130_fd_sc_hd__and4bb_1
*CAP
1 *3810:A2 2.90092e-05
2 *3800:A 9.3763e-05
3 *3837:A1 0.00018693
4 *3798:X 0
5 *145:14 0.00104038
6 *145:4 0.0007887
7 *3800:A *3800:B 5.7661e-06
8 *3800:A *147:19 5.33005e-05
9 *3800:A *274:21 1.15172e-05
10 *3837:A1 *3837:A2 1.98839e-05
11 *3837:A1 *3837:B1 7.50342e-05
12 *3837:A1 *3837:B2 9.60875e-05
13 *3837:A1 *3837:C1 9.37763e-06
14 *3837:A1 *3841:A1 0.000188059
15 *3837:A1 *3841:B1 0.000133756
16 *3837:A1 *3843:B1 5.90455e-05
17 *3837:A1 *3843:C1 0.00012401
18 *3837:A1 *182:6 5.33005e-05
19 *145:14 *3841:B1 2.24646e-05
20 *145:14 *3843:C1 5.59013e-05
21 *145:14 *274:12 0
22 *3798:A_N *145:14 0.000315158
23 *3798:C *145:14 0.000152839
24 *3798:D *145:14 3.06878e-06
25 *137:12 *3810:A2 7.83587e-05
26 *141:44 *145:14 7.91281e-05
27 *144:16 *3810:A2 7.83587e-05
28 *144:26 *145:14 0
*RES
1 *3798:X *145:4 9.3 
2 *145:4 *145:14 16.125 
3 *145:14 *3837:A1 19.6214 
4 *145:14 *3800:A 15.4786 
5 *145:4 *3810:A2 19.3357 
*END

*D_NET *146 0.0012329
*CONN
*I *3800:B I *D sky130_fd_sc_hd__nor2_1
*I *3843:A1 I *D sky130_fd_sc_hd__o211a_1
*I *3799:X O *D sky130_fd_sc_hd__o2bb2a_1
*CAP
1 *3800:B 9.40124e-05
2 *3843:A1 0
3 *3799:X 0.000196353
4 *146:14 0.000290366
5 *3800:B *147:19 0.000105559
6 *3800:B *274:21 0.000224596
7 *146:14 *3803:B 9.90367e-05
8 *146:14 *3838:B 1.89507e-06
9 *146:14 *147:19 5.71472e-05
10 *146:14 *150:10 9.12967e-05
11 *146:14 *157:14 0
12 *146:14 *274:21 2.14658e-05
13 *3798:C *146:14 0
14 *3799:A1_N *146:14 3.76256e-05
15 *3800:A *3800:B 5.7661e-06
16 *3803:A *146:14 7.77634e-06
17 *137:12 *146:14 0
18 *144:16 *146:14 0
*RES
1 *3799:X *146:14 22.6393 
2 *146:14 *3843:A1 9.3 
3 *146:14 *3800:B 12.3357 
*END

*D_NET *147 0.00214399
*CONN
*I *3804:C I *D sky130_fd_sc_hd__and4_1
*I *3838:A I *D sky130_fd_sc_hd__nor2_1
*I *3841:B1 I *D sky130_fd_sc_hd__o21ai_1
*I *3800:Y O *D sky130_fd_sc_hd__nor2_1
*CAP
1 *3804:C 0.000234249
2 *3838:A 2.30855e-05
3 *3841:B1 9.72248e-05
4 *3800:Y 0
5 *147:19 0.000453035
6 *147:4 0.000292925
7 *3804:C *3840:A2 5.7616e-05
8 *3804:C *157:14 0.000175519
9 *3804:C *272:14 0
10 *3804:C *274:21 8.3722e-05
11 *3841:B1 *3837:C1 8.03135e-06
12 *3841:B1 *3843:C1 1.41029e-05
13 *3841:B1 *177:16 9.69119e-06
14 *147:19 *3844:B 0.000228558
15 *147:19 *274:21 9.40041e-05
16 *3800:A *147:19 5.33005e-05
17 *3800:B *147:19 0.000105559
18 *3837:A1 *3841:B1 0.000133756
19 *144:26 *3841:B1 0
20 *145:14 *3841:B1 2.24646e-05
21 *146:14 *147:19 5.71472e-05
*RES
1 *3800:Y *147:4 9.3 
2 *147:4 *3841:B1 20.7241 
3 *147:4 *147:19 5.05357 
4 *147:19 *3838:A 9.72857 
5 *147:19 *3804:C 23.4607 
*END

*D_NET *148 0.000245105
*CONN
*I *3802:B I *D sky130_fd_sc_hd__nor2_1
*I *3801:Y O *D sky130_fd_sc_hd__a21oi_1
*CAP
1 *3802:B 5.91823e-05
2 *3801:Y 5.91823e-05
3 *3802:B *149:14 1.33343e-05
4 *3801:B1 *3802:B 5.87759e-05
5 *122:10 *3802:B 5.46298e-05
*RES
1 *3801:Y *3802:B 20.4036 
*END

*D_NET *149 0.00324376
*CONN
*I *3803:B I *D sky130_fd_sc_hd__xor2_1
*I *3810:B1 I *D sky130_fd_sc_hd__o21a_1
*I *3802:Y O *D sky130_fd_sc_hd__nor2_1
*CAP
1 *3803:B 0.000487352
2 *3810:B1 0
3 *3802:Y 0.000683888
4 *149:14 0.00117124
5 *149:14 *3769:D 3.18676e-05
6 *149:14 *157:14 0.000137508
7 *149:14 *263:42 8.56752e-05
8 *149:14 *272:14 0
9 *149:14 *274:21 7.95668e-05
10 *3799:A1_N *3803:B 3.83189e-05
11 *3802:B *149:14 1.33343e-05
12 *3803:A *3803:B 0.00012156
13 *116:10 *149:14 3.22663e-05
14 *122:10 *149:14 2.77289e-05
15 *122:16 *149:14 9.47028e-05
16 *137:16 *3803:B 9.90367e-05
17 *144:16 *3803:B 2.65105e-05
18 *144:16 *149:14 1.41706e-05
19 *146:14 *3803:B 9.90367e-05
*RES
1 *3802:Y *149:14 30.8536 
2 *149:14 *3810:B1 9.3 
3 *149:14 *3803:B 18.1393 
*END

*D_NET *150 0.00221934
*CONN
*I *3834:A I *D sky130_fd_sc_hd__inv_2
*I *3804:D I *D sky130_fd_sc_hd__and4_1
*I *3843:A2 I *D sky130_fd_sc_hd__o211a_1
*I *3803:X O *D sky130_fd_sc_hd__xor2_1
*CAP
1 *3834:A 0
2 *3804:D 0.00013868
3 *3843:A2 0
4 *3803:X 0.000150933
5 *150:27 0.000640908
6 *150:10 0.000653161
7 *3804:D *3837:A2 8.00806e-05
8 *3804:D *3837:B1 6.95627e-05
9 *3804:D *3838:B 0
10 *3804:D *157:14 0.000228864
11 *150:10 *3843:B1 1.02504e-05
12 *150:27 *157:14 1.01912e-05
13 *3798:C *150:10 1.52978e-05
14 *3835:A *3804:D 5.33005e-05
15 *141:44 *150:10 7.68124e-05
16 *146:14 *150:10 9.12967e-05
*RES
1 *3803:X *150:10 16.8893 
2 *150:10 *3843:A2 13.8 
3 *150:10 *150:27 7.86445 
4 *150:27 *3804:D 17.4964 
5 *150:27 *3834:A 13.8 
*END

*D_NET *151 0.00151977
*CONN
*I *3813:A1 I *D sky130_fd_sc_hd__a21o_1
*I *3831:A I *D sky130_fd_sc_hd__and3_1
*I *3804:X O *D sky130_fd_sc_hd__and4_1
*CAP
1 *3813:A1 5.32369e-05
2 *3831:A 0.000108171
3 *3804:X 0.000188926
4 *151:10 0.000350334
5 *3813:A1 *3813:A2 5.33005e-05
6 *3813:A1 *3813:B1 1.98839e-05
7 *3813:A1 *3844:C 9.81603e-05
8 *3831:A *3840:A1 1.59782e-05
9 *3831:A *3840:A2 0
10 *3831:A *3840:B1 5.52302e-05
11 *3831:A *3844:C 7.83587e-05
12 *151:10 *3837:B1 2.04825e-05
13 *151:10 *3840:A1 1.19309e-05
14 *151:10 *3840:B1 0.000146395
15 *151:10 *157:39 0.000102046
16 *3835:A *151:10 2.59355e-05
17 *141:14 *3831:A 0.000146474
18 *141:14 *151:10 4.49293e-05
*RES
1 *3804:X *151:10 18.7107 
2 *151:10 *3831:A 16.2821 
3 *151:10 *3813:A1 15.175 
*END

*D_NET *152 0.000915315
*CONN
*I *3853:A1 I *D sky130_fd_sc_hd__a21o_1
*I *3808:A I *D sky130_fd_sc_hd__and3_1
*I *3805:Y O *D sky130_fd_sc_hd__inv_2
*CAP
1 *3853:A1 0.000187169
2 *3808:A 8.06004e-05
3 *3805:Y 0
4 *152:4 0.000267769
5 *3808:A *3853:B1 9.77683e-05
6 *3853:A1 *3808:B 7.83587e-05
7 *3853:A1 *3853:B1 0.000182125
8 *141:16 *3853:A1 2.15245e-05
*RES
1 *3805:Y *152:4 9.3 
2 *152:4 *3808:A 10.675 
3 *152:4 *3853:A1 21.5143 
*END

*D_NET *153 0.00351836
*CONN
*I *3853:A2 I *D sky130_fd_sc_hd__a21o_1
*I *3808:B I *D sky130_fd_sc_hd__and3_1
*I *3806:X O *D sky130_fd_sc_hd__a22o_1
*CAP
1 *3853:A2 0
2 *3808:B 0.000398966
3 *3806:X 0.0003988
4 *153:20 0.000797766
5 *3808:B *3831:C 0
6 *3808:B *3844:A 2.00751e-05
7 *3808:B *3845:A3 0.000129868
8 *3808:B *3853:B1 2.69397e-05
9 *153:20 *3828:A 1.86552e-05
10 *153:20 *3828:B 5.52238e-05
11 *153:20 *3831:B 4.88637e-05
12 *153:20 *3831:C 8.17045e-05
13 *153:20 *3833:A3 0.000226531
14 *153:20 *3840:A1 5.23057e-05
15 *153:20 *3840:B1 0.000130955
16 *3829:A *3808:B 0.000232399
17 *3853:A1 *3808:B 7.83587e-05
18 *139:6 *153:20 9.90367e-05
19 *141:14 *153:20 0.000491435
20 *141:16 *3808:B 0.000230475
*RES
1 *3806:X *153:20 21.7821 
2 *153:20 *3808:B 25.6929 
3 *153:20 *3853:A2 9.3 
*END

*D_NET *154 0.00205256
*CONN
*I *3853:B1 I *D sky130_fd_sc_hd__a21o_1
*I *3808:C I *D sky130_fd_sc_hd__and3_1
*I *3848:A I *D sky130_fd_sc_hd__inv_2
*I *3807:X O *D sky130_fd_sc_hd__and4_1
*CAP
1 *3853:B1 0.00019761
2 *3808:C 0
3 *3848:A 5.66597e-05
4 *3807:X 0
5 *154:25 0.000444824
6 *154:4 0.000303873
7 *3848:A *213:42 1.94098e-05
8 *3853:B1 *213:8 0
9 *154:25 *3850:A2 4.07257e-05
10 *154:25 *3850:B1 0.00015234
11 *154:25 *3854:A2 6.8646e-06
12 *154:25 *3854:B1 0.000191239
13 *154:25 *213:42 5.7661e-06
14 *154:25 *280:12 0.000148189
15 *3805:A *3853:B1 5.7661e-06
16 *3808:A *3853:B1 9.77683e-05
17 *3808:B *3853:B1 2.69397e-05
18 *3829:A *3853:B1 0.000118634
19 *3829:A *154:25 2.24195e-05
20 *3853:A1 *3853:B1 0.000182125
21 *141:16 *3853:B1 3.14078e-05
*RES
1 *3807:X *154:4 9.3 
2 *154:4 *3848:A 10.5679 
3 *154:4 *154:25 15.0179 
4 *154:25 *3808:C 9.3 
5 *154:25 *3853:B1 24.425 
*END

*D_NET *155 0.00282702
*CONN
*I *3809:B I *D sky130_fd_sc_hd__and2_1
*I *3829:B I *D sky130_fd_sc_hd__nor2_1
*I *3852:A I *D sky130_fd_sc_hd__inv_2
*I *3808:X O *D sky130_fd_sc_hd__and3_1
*CAP
1 *3809:B 0.000125033
2 *3829:B 0.00018731
3 *3852:A 0.000357008
4 *3808:X 0
5 *155:21 0.000404434
6 *155:4 0.000449099
7 *3809:B *3841:A1 0
8 *3829:B *3830:B 5.04705e-05
9 *3852:A *3847:B2 0.000111085
10 *3852:A *3854:A1 0.000179306
11 *155:21 *213:8 0.000295844
12 *155:21 *280:12 0.000157381
13 *3829:A *3829:B 3.46677e-05
14 *3829:A *3852:A 0.000183726
15 *3830:A *3809:B 0.000145673
16 *3830:A *3829:B 9.71197e-05
17 *144:26 *3809:B 4.88637e-05
*RES
1 *3808:X *155:4 9.3 
2 *155:4 *3852:A 15.5143 
3 *155:4 *155:21 12.7679 
4 *155:21 *3829:B 12.7286 
5 *155:21 *3809:B 11.9071 
*END

*D_NET *156 0.00218413
*CONN
*I *3813:A2 I *D sky130_fd_sc_hd__a21o_1
*I *3836:A I *D sky130_fd_sc_hd__inv_2
*I *3809:X O *D sky130_fd_sc_hd__and2_1
*CAP
1 *3813:A2 0.000635688
2 *3836:A 0
3 *3809:X 2.14084e-05
4 *156:6 0.000657097
5 *3813:A2 *3813:B1 9.41642e-05
6 *3813:A2 *3831:C 2.59355e-05
7 *3813:A2 *3840:B1 0.000171375
8 *3813:A2 *3844:C 2.87485e-05
9 *3813:A2 *3844:D_N 6.04256e-05
10 *3813:A2 *177:16 0.000309816
11 *3813:A2 *183:6 5.52238e-05
12 *3813:A2 *213:8 0
13 *156:6 *177:16 3.18676e-05
14 *3813:A1 *3813:A2 5.33005e-05
15 *3842:A1 *3813:A2 6.05161e-06
16 *3842:A2 *3813:A2 3.30237e-05
17 *141:44 *3813:A2 0
*RES
1 *3809:X *156:6 9.83571 
2 *156:6 *3836:A 9.3 
3 *156:6 *3813:A2 40.175 
*END

*D_NET *157 0.00379532
*CONN
*I *3812:A3 I *D sky130_fd_sc_hd__a31o_1
*I *3840:A1 I *D sky130_fd_sc_hd__o21a_1
*I *3837:B1 I *D sky130_fd_sc_hd__o221a_1
*I *3810:X O *D sky130_fd_sc_hd__o21a_1
*CAP
1 *3812:A3 0
2 *3840:A1 0.000176358
3 *3837:B1 0.000543535
4 *3810:X 0.000294481
5 *157:39 0.000287828
6 *157:14 0.000949485
7 *3837:B1 *3837:A2 8.86193e-05
8 *3837:B1 *3837:B2 2.28499e-05
9 *3837:B1 *3838:B 4.46186e-06
10 *3837:B1 *3843:B1 5.52302e-05
11 *3837:B1 *3844:D_N 4.53834e-05
12 *3840:A1 *3806:A2 0
13 *3840:A1 *3840:A2 7.80929e-05
14 *3840:A1 *3840:B1 1.33343e-05
15 *3840:A1 *3844:C 3.92757e-05
16 *157:14 *3840:A2 1.95304e-05
17 *157:14 *272:14 0
18 *157:39 *3840:A2 4.18845e-05
19 *3804:C *157:14 0.000175519
20 *3804:D *3837:B1 6.95627e-05
21 *3804:D *157:14 0.000228864
22 *3812:A2 *3840:A1 1.02504e-05
23 *3812:A2 *157:39 0.0002253
24 *3831:A *3840:A1 1.59782e-05
25 *3837:A1 *3837:B1 7.50342e-05
26 *146:14 *157:14 0
27 *149:14 *157:14 0.000137508
28 *150:27 *157:14 1.01912e-05
29 *151:10 *3837:B1 2.04825e-05
30 *151:10 *3840:A1 1.19309e-05
31 *151:10 *157:39 0.000102046
32 *153:20 *3840:A1 5.23057e-05
*RES
1 *3810:X *157:14 20.5411 
2 *157:14 *3837:B1 22.7196 
3 *157:14 *157:39 3.91964 
4 *157:39 *3840:A1 17.9607 
5 *157:39 *3812:A3 13.8 
*END

*D_NET *158 0.000368511
*CONN
*I *3812:B1 I *D sky130_fd_sc_hd__a31o_1
*I *3811:X O *D sky130_fd_sc_hd__o21a_1
*CAP
1 *3812:B1 0.000100195
2 *3811:X 0.000100195
3 *3778:A *3812:B1 5.52302e-05
4 *3778:B *3812:B1 5.52302e-05
5 *3812:A1 *3812:B1 1.33343e-05
6 *125:6 *3812:B1 4.43256e-05
*RES
1 *3811:X *3812:B1 20.7786 
*END

*D_NET *159 0.000508896
*CONN
*I *3813:B1 I *D sky130_fd_sc_hd__a21o_1
*I *3812:X O *D sky130_fd_sc_hd__a31o_1
*CAP
1 *3813:B1 0.00011067
2 *3812:X 0.00011067
3 *3813:B1 *3844:C 3.65577e-05
4 *3813:A1 *3813:B1 1.98839e-05
5 *3813:A2 *3813:B1 9.41642e-05
6 *141:14 *3813:B1 0.000136951
*RES
1 *3812:X *3813:B1 21.2071 
*END

*D_NET *160 0.000905708
*CONN
*I *3828:B I *D sky130_fd_sc_hd__xnor2_1
*I *3815:A2 I *D sky130_fd_sc_hd__a21oi_1
*I *3813:X O *D sky130_fd_sc_hd__a21o_1
*CAP
1 *3828:B 1.1624e-05
2 *3815:A2 0.000174746
3 *3813:X 0.000101908
4 *160:8 0.000288278
5 *3815:A2 *3828:A 7.08146e-05
6 *3815:A2 *249:66 5.52238e-05
7 *3828:B *3833:A3 5.52238e-05
8 *160:8 *3828:A 6.8646e-06
9 *160:8 *3831:B 0
10 *160:8 *3831:C 7.83659e-05
11 *160:8 *3840:B1 0
12 *3815:A1 *3815:A2 7.43578e-06
13 *153:20 *3828:B 5.52238e-05
*RES
1 *3813:X *160:8 15.7464 
2 *160:8 *3815:A2 16.8893 
3 *160:8 *3828:B 14.3357 
*END

*D_NET *161 0.000650935
*CONN
*I *3815:B1 I *D sky130_fd_sc_hd__a21oi_1
*I *3827:A I *D sky130_fd_sc_hd__or2b_1
*I *3814:X O *D sky130_fd_sc_hd__and2_1
*CAP
1 *3815:B1 7.18248e-05
2 *3827:A 6.95712e-05
3 *3814:X 7.57841e-05
4 *161:8 0.00021718
5 *3815:B1 *3828:A 0
6 *3827:A *3828:A 0
7 *3827:A *162:16 0
8 *161:8 *279:35 1.00073e-05
9 *3815:A1 *3815:B1 7.40526e-05
10 *3815:A1 *3827:A 5.83233e-05
11 *94:16 *3827:A 2.10446e-05
12 *95:16 *161:8 5.31469e-05
*RES
1 *3814:X *161:8 14.7464 
2 *161:8 *3827:A 15.4429 
3 *161:8 *3815:B1 15.1393 
*END

*D_NET *162 0.00287171
*CONN
*I *3816:S I *D sky130_fd_sc_hd__mux2_1
*I *3826:A2 I *D sky130_fd_sc_hd__o211ai_1
*I *3815:Y O *D sky130_fd_sc_hd__a21oi_1
*CAP
1 *3816:S 2.75179e-05
2 *3826:A2 0
3 *3815:Y 0.000639923
4 *162:16 0.000667441
5 *3816:S *3826:C1 0.000139907
6 *162:16 *3826:C1 1.79687e-05
7 *162:16 *3828:A 0.000167206
8 *162:16 *3833:A1 2.94055e-05
9 *162:16 *3833:A3 1.23973e-05
10 *162:16 *3833:B1 3.69047e-06
11 *162:16 *3849:B1 8.84829e-05
12 *162:16 *163:8 0.000194276
13 *162:16 *173:12 0.000142856
14 *162:16 *179:39 0
15 *162:16 *213:42 0.00022459
16 *162:16 *249:66 0.000189471
17 *3816:A0 *3816:S 9.90431e-05
18 *3816:A0 *162:16 0.000227539
19 *3827:A *162:16 0
20 *94:16 *162:16 0
*RES
1 *3815:Y *162:16 33.675 
2 *162:16 *3826:A2 9.3 
3 *162:16 *3816:S 10.6571 
*END

*D_NET *163 0.0021631
*CONN
*I *3833:A1 I *D sky130_fd_sc_hd__a31o_1
*I *3845:A1 I *D sky130_fd_sc_hd__o31a_1
*I *3816:X O *D sky130_fd_sc_hd__mux2_1
*CAP
1 *3833:A1 0.000110987
2 *3845:A1 0.000306228
3 *3816:X 0.000195079
4 *163:8 0.000612294
5 *3833:A1 *3831:B 0
6 *3833:A1 *3833:A3 1.02504e-05
7 *3833:A1 *3849:B1 6.54117e-05
8 *3833:A1 *179:39 0
9 *3833:A1 *249:66 3.25078e-05
10 *3845:A1 *3849:A1 0.000138881
11 *3845:A1 *3849:B1 0.00018372
12 *3845:A1 *173:12 0.000125724
13 *3845:A1 *245:33 6.74911e-05
14 *3845:A1 *279:35 9.22103e-06
15 *163:8 *3807:B 2.37761e-05
16 *163:8 *3849:B1 3.17148e-05
17 *163:8 *179:39 0
18 *163:8 *249:66 2.61337e-05
19 *162:16 *3833:A1 2.94055e-05
20 *162:16 *163:8 0.000194276
*RES
1 *3816:X *163:8 18.7821 
2 *163:8 *3845:A1 27.8536 
3 *163:8 *3833:A1 15.9786 
*END

*D_NET *164 0.00138325
*CONN
*I *3819:A3 I *D sky130_fd_sc_hd__a31o_1
*I *3817:Y O *D sky130_fd_sc_hd__nand2_1
*CAP
1 *3819:A3 0.000427176
2 *3817:Y 0.000427176
3 *3819:A3 *3817:A 8.00806e-05
4 *3819:A3 *3832:B 0.000174396
5 *3819:A3 *179:10 3.05446e-05
6 *3832:A *3819:A3 1.92905e-05
7 *55:18 *3819:A3 0
8 *59:14 *3819:A3 2.66502e-05
9 *59:23 *3819:A3 0.000197939
*RES
1 *3817:Y *3819:A3 35.3679 
*END

*D_NET *165 0.00257719
*CONN
*I *3819:B1 I *D sky130_fd_sc_hd__a31o_1
*I *3832:B I *D sky130_fd_sc_hd__and2_1
*I *3818:Y O *D sky130_fd_sc_hd__o21ai_1
*CAP
1 *3819:B1 1.99857e-05
2 *3832:B 0.000316254
3 *3818:Y 0.000149721
4 *165:6 0.00048596
5 *3832:B *246:25 5.33005e-05
6 *165:6 *217:27 4.38128e-05
7 *165:6 *217:43 5.52302e-05
8 *165:6 *246:25 0.000589806
9 *165:6 *246:42 5.52302e-05
10 *3713:B *3832:B 5.33005e-05
11 *3818:A2 *3819:B1 1.04232e-05
12 *3818:A2 *3832:B 4.87854e-05
13 *3818:A2 *165:6 0.000453629
14 *3819:A3 *3832:B 0.000174396
15 *3832:A *3832:B 5.52302e-05
16 *59:23 *3832:B 1.21289e-05
*RES
1 *3818:Y *165:6 15.5857 
2 *165:6 *3832:B 15.4964 
3 *165:6 *3819:B1 9.72857 
*END

*D_NET *166 0.000573356
*CONN
*I *3820:S I *D sky130_fd_sc_hd__mux2_1
*I *3819:X O *D sky130_fd_sc_hd__a31o_1
*CAP
1 *3820:S 9.95254e-05
2 *3819:X 9.95254e-05
3 *3820:S *3712:A 0.000150618
4 *3820:S *3713:A 9.71197e-05
5 *3713:B *3820:S 5.24274e-05
6 *3817:B *3820:S 1.24368e-05
7 *55:10 *3820:S 2.95726e-05
8 *55:66 *3820:S 3.69047e-06
9 *58:8 *3820:S 2.84398e-05
*RES
1 *3819:X *3820:S 30.4929 
*END

*D_NET *167 0.00192324
*CONN
*I *3825:B1 I *D sky130_fd_sc_hd__o22a_1
*I *3824:A I *D sky130_fd_sc_hd__nand2_1
*I *3820:X O *D sky130_fd_sc_hd__mux2_1
*CAP
1 *3825:B1 2.23854e-05
2 *3824:A 0.000125714
3 *3820:X 0.000342364
4 *167:8 0.000490463
5 *3824:A *3824:B 0.000460474
6 *167:8 *3824:B 4.18895e-05
7 *3734:A *3824:A 1.95846e-05
8 *3817:B *167:8 0.00010096
9 *3825:A2 *3824:A 0.000146523
10 *3825:A2 *3825:B1 0
11 *3825:A2 *167:8 4.27338e-05
12 *55:18 *167:8 1.97695e-05
13 *68:14 *167:8 9.71197e-05
14 *68:23 *3825:B1 0
15 *68:42 *3824:A 1.32552e-05
*RES
1 *3820:X *167:8 15.1929 
2 *167:8 *3824:A 13.9607 
3 *167:8 *3825:B1 9.72857 
*END

*D_NET *168 0.00156828
*CONN
*I *3823:A0 I *D sky130_fd_sc_hd__mux2_1
*I *3822:B1 I *D sky130_fd_sc_hd__o21ai_1
*I *3821:Y O *D sky130_fd_sc_hd__nand2_1
*CAP
1 *3823:A0 7.47857e-05
2 *3822:B1 0
3 *3821:Y 0.000320739
4 *168:16 0.000395525
5 *3823:A0 *3823:A1 0.00018372
6 *3823:A0 *252:20 2.78608e-05
7 *3823:A0 *257:16 8.18783e-05
8 *168:16 *252:20 1.02936e-05
9 *168:16 *257:16 2.59355e-05
10 *3716:A *168:16 8.91696e-05
11 *3716:B *168:16 5.80812e-05
12 *3717:B *3823:A0 0
13 *3718:A *168:16 0.000182659
14 *55:26 *3823:A0 2.47631e-06
15 *61:20 *168:16 4.08637e-05
16 *63:12 *168:16 7.42974e-05
*RES
1 *3821:Y *168:16 24.3 
2 *168:16 *3822:B1 9.3 
3 *168:16 *3823:A0 11.9071 
*END

*D_NET *169 0.000432545
*CONN
*I *3823:A1 I *D sky130_fd_sc_hd__mux2_1
*I *3822:Y O *D sky130_fd_sc_hd__o21ai_1
*CAP
1 *3823:A1 3.15912e-05
2 *3822:Y 3.15912e-05
3 *3823:A1 *252:20 0.000185643
4 *3823:A0 *3823:A1 0.00018372
*RES
1 *3822:Y *3823:A1 20.3679 
*END

*D_NET *170 0.00295855
*CONN
*I *3825:B2 I *D sky130_fd_sc_hd__o22a_1
*I *3824:B I *D sky130_fd_sc_hd__nand2_1
*I *3823:X O *D sky130_fd_sc_hd__mux2_1
*CAP
1 *3825:B2 4.15518e-05
2 *3824:B 0.000434929
3 *3823:X 0.000371102
4 *170:14 0.000847583
5 *3825:B2 *179:39 0
6 *170:14 *3707:A 0
7 *170:14 *3719:A1 6.25007e-05
8 *170:14 *3720:B 5.43491e-05
9 *170:14 *3817:A 0
10 *170:14 *179:39 0
11 *170:14 *252:20 3.32631e-05
12 *170:14 *257:16 9.90431e-05
13 *3719:B1 *170:14 0.000246801
14 *3824:A *3824:B 0.000460474
15 *68:14 *3825:B2 5.59013e-05
16 *68:14 *170:14 0.000209165
17 *167:8 *3824:B 4.18895e-05
*RES
1 *3823:X *170:14 22.5143 
2 *170:14 *3824:B 19.9964 
3 *170:14 *3825:B2 14.5321 
*END

*D_NET *171 0.00029546
*CONN
*I *3826:B1 I *D sky130_fd_sc_hd__o211ai_1
*I *3824:Y O *D sky130_fd_sc_hd__nand2_1
*CAP
1 *3826:B1 8.40071e-05
2 *3824:Y 8.40071e-05
3 *3826:B1 *214:25 0.000127446
*RES
1 *3824:Y *3826:B1 29.2429 
*END

*D_NET *172 0.000995585
*CONN
*I *3826:C1 I *D sky130_fd_sc_hd__o211ai_1
*I *3825:X O *D sky130_fd_sc_hd__o22a_1
*CAP
1 *3826:C1 0.000347192
2 *3825:X 0.000347192
3 *3826:C1 *173:12 2.80341e-05
4 *3747:A *3826:C1 0
5 *3816:A0 *3826:C1 6.42095e-05
6 *3816:A1 *3826:C1 5.10822e-05
7 *3816:S *3826:C1 0.000139907
8 *162:16 *3826:C1 1.79687e-05
*RES
1 *3825:X *3826:C1 33.6 
*END

*D_NET *173 0.00237409
*CONN
*I *3833:A2 I *D sky130_fd_sc_hd__a31o_1
*I *3845:A2 I *D sky130_fd_sc_hd__o31a_1
*I *3826:Y O *D sky130_fd_sc_hd__o211ai_1
*CAP
1 *3833:A2 8.37302e-05
2 *3845:A2 0
3 *3826:Y 0.000415818
4 *173:12 0.000499548
5 *3833:A2 *3833:B1 0.000119193
6 *3833:A2 *3845:A3 0.000144773
7 *3833:A2 *179:39 6.26074e-05
8 *3833:A2 *180:16 1.78919e-05
9 *3833:A2 *213:42 9.90878e-05
10 *173:12 *179:39 0.000502177
11 *173:12 *245:33 7.80714e-06
12 *173:12 *245:37 0.000124842
13 *3826:C1 *173:12 2.80341e-05
14 *3845:A1 *173:12 0.000125724
15 *162:16 *173:12 0.000142856
*RES
1 *3826:Y *173:12 27.3893 
2 *173:12 *3845:A2 9.3 
3 *173:12 *3833:A2 12.7286 
*END

*D_NET *174 0.000915015
*CONN
*I *3828:A I *D sky130_fd_sc_hd__xnor2_1
*I *3827:X O *D sky130_fd_sc_hd__or2b_1
*CAP
1 *3828:A 0.000297043
2 *3827:X 0.000297043
3 *3828:A *3831:B 3.92854e-05
4 *3828:A *3833:A3 1.8104e-05
5 *3815:A2 *3828:A 7.08146e-05
6 *3815:B1 *3828:A 0
7 *3827:A *3828:A 0
8 *153:20 *3828:A 1.86552e-05
9 *160:8 *3828:A 6.8646e-06
10 *162:16 *3828:A 0.000167206
*RES
1 *3827:X *3828:A 32.8232 
*END

*D_NET *175 0.00128675
*CONN
*I *3831:B I *D sky130_fd_sc_hd__and3_1
*I *3844:A I *D sky130_fd_sc_hd__or4b_1
*I *3828:Y O *D sky130_fd_sc_hd__xnor2_1
*CAP
1 *3831:B 0.000323261
2 *3844:A 7.78612e-05
3 *3828:Y 0
4 *175:6 0.000401123
5 *3831:B *3831:C 0
6 *3831:B *3833:A3 0.000301838
7 *3831:B *3845:A3 3.28534e-05
8 *3844:A *3831:C 0
9 *3844:A *3845:A3 4.15914e-05
10 *3808:B *3844:A 2.00751e-05
11 *3828:A *3831:B 3.92854e-05
12 *3833:A1 *3831:B 0
13 *153:20 *3831:B 4.88637e-05
14 *160:8 *3831:B 0
*RES
1 *3828:Y *175:6 13.8 
2 *175:6 *3844:A 15.4429 
3 *175:6 *3831:B 19.3893 
*END

*D_NET *176 0.000328669
*CONN
*I *3830:B I *D sky130_fd_sc_hd__xnor2_1
*I *3829:Y O *D sky130_fd_sc_hd__nor2_1
*CAP
1 *3830:B 0.000108604
2 *3829:Y 0.000108604
3 *3829:A *3830:B 6.09899e-05
4 *3829:B *3830:B 5.04705e-05
5 *3830:A *3830:B 0
*RES
1 *3829:Y *3830:B 20.7964 
*END

*D_NET *177 0.0028407
*CONN
*I *3831:C I *D sky130_fd_sc_hd__and3_1
*I *3842:B1_N I *D sky130_fd_sc_hd__o21ba_1
*I *3830:Y O *D sky130_fd_sc_hd__xnor2_1
*CAP
1 *3831:C 0.000305535
2 *3842:B1_N 0
3 *3830:Y 0.000488697
4 *177:16 0.000794232
5 *3831:C *3840:B1 0
6 *3831:C *3844:B 0.000150625
7 *3831:C *3844:D_N 0.000221177
8 *177:16 *3843:C1 5.52238e-05
9 *177:16 *183:6 9.90367e-05
10 *177:16 *213:8 0
11 *3808:B *3831:C 0
12 *3813:A2 *3831:C 2.59355e-05
13 *3813:A2 *177:16 0.000309816
14 *3830:A *177:16 2.44318e-05
15 *3831:B *3831:C 0
16 *3841:B1 *177:16 9.69119e-06
17 *3842:A2 *177:16 1.3701e-05
18 *3844:A *3831:C 0
19 *141:44 *3831:C 7.80714e-06
20 *141:44 *177:16 0
21 *144:26 *177:16 0.00014285
22 *153:20 *3831:C 8.17045e-05
23 *156:6 *177:16 3.18676e-05
24 *160:8 *3831:C 7.83659e-05
*RES
1 *3830:Y *177:16 28.5143 
2 *177:16 *3842:B1_N 9.3 
3 *177:16 *3831:C 24.8625 
*END

*D_NET *178 0.00107199
*CONN
*I *3833:A3 I *D sky130_fd_sc_hd__a31o_1
*I *3831:X O *D sky130_fd_sc_hd__and3_1
*CAP
1 *3833:A3 0.000192545
2 *3831:X 0.000192545
3 *3833:A3 *3845:A3 6.25515e-05
4 *3833:A3 *245:33 0
5 *3828:A *3833:A3 1.8104e-05
6 *3828:B *3833:A3 5.52238e-05
7 *3831:B *3833:A3 0.000301838
8 *3833:A1 *3833:A3 1.02504e-05
9 *153:20 *3833:A3 0.000226531
10 *162:16 *3833:A3 1.23973e-05
*RES
1 *3831:X *3833:A3 32.85 
*END

*D_NET *179 0.0064113
*CONN
*I *3845:B1 I *D sky130_fd_sc_hd__o31a_1
*I *3833:B1 I *D sky130_fd_sc_hd__a31o_1
*I *3856:C I *D sky130_fd_sc_hd__or3_1
*I *3832:X O *D sky130_fd_sc_hd__and2_1
*CAP
1 *3845:B1 3.96409e-06
2 *3833:B1 9.62214e-05
3 *3856:C 0.000864114
4 *3832:X 0.000337813
5 *179:39 0.00072096
6 *179:10 0.0018227
7 *3833:B1 *180:16 0.00010096
8 *3833:B1 *213:42 1.90111e-05
9 *3833:B1 *249:66 0.000217539
10 *3856:C *3690:A 0
11 *3856:C *3691:B1_N 0.000104587
12 *3856:C *3731:A1 2.87555e-06
13 *3856:C *3731:B1 3.11378e-05
14 *3856:C *3856:B 2.1195e-05
15 *3856:C *3857:A1 0
16 *3856:C *211:73 0
17 *3856:C *214:25 6.63476e-05
18 *179:39 *3707:A 0.000103981
19 *179:39 *3807:B 2.34204e-05
20 *179:39 *180:16 2.3587e-05
21 *179:39 *214:25 0
22 *179:39 *245:37 0
23 *3732:A *179:39 4.02462e-05
24 *3732:B *3856:C 4.22908e-05
25 *3733:A *179:10 0.000356028
26 *3734:B *179:39 1.00375e-05
27 *3747:A *179:10 0.000137515
28 *3747:A *179:39 0
29 *3816:A1 *179:39 0.000125731
30 *3819:A3 *179:10 3.05446e-05
31 *3825:A2 *179:39 2.22043e-05
32 *3825:B2 *179:39 0
33 *3833:A1 *179:39 0
34 *3833:A2 *3833:B1 0.000119193
35 *3833:A2 *179:39 6.26074e-05
36 *68:42 *179:39 4.71964e-05
37 *79:8 *3856:C 0.000119135
38 *79:8 *179:10 0.000121435
39 *80:10 *179:39 0.000110848
40 *162:16 *3833:B1 3.69047e-06
41 *162:16 *179:39 0
42 *163:8 *179:39 0
43 *170:14 *179:39 0
44 *173:12 *179:39 0.000502177
*RES
1 *3832:X *179:10 16.9607 
2 *179:10 *3856:C 31.4071 
3 *179:10 *179:39 22.5625 
4 *179:39 *3833:B1 13.1304 
5 *179:39 *3845:B1 9.45179 
*END

*D_NET *180 0.00323982
*CONN
*I *3846:A3 I *D sky130_fd_sc_hd__a31o_1
*I *3854:A2 I *D sky130_fd_sc_hd__a31o_1
*I *3850:A2 I *D sky130_fd_sc_hd__a31o_1
*I *3833:X O *D sky130_fd_sc_hd__a31o_1
*CAP
1 *3846:A3 0
2 *3854:A2 8.83608e-05
3 *3850:A2 0.000273379
4 *3833:X 0.000359378
5 *180:20 0.000496775
6 *180:16 0.000494414
7 *3850:A2 *3847:A1 0
8 *3850:A2 *3850:A1 8.00806e-05
9 *3850:A2 *3850:B1 0
10 *3850:A2 *3855:A2 0
11 *3850:A2 *211:117 0
12 *3854:A2 *3847:A1 0
13 *3854:A2 *3847:B2 0.00010326
14 *3854:A2 *3854:A3 0.000127446
15 *3854:A2 *280:12 3.5794e-05
16 *180:16 *3807:A 9.90367e-05
17 *180:16 *3807:D 5.52238e-05
18 *180:16 *3846:A2 0.000198705
19 *180:16 *3849:A2 1.02504e-05
20 *180:16 *213:8 0.000200413
21 *180:16 *213:42 7.99608e-05
22 *180:16 *214:25 0.000118813
23 *180:20 *3854:A3 3.5298e-05
24 *180:20 *192:16 9.41642e-05
25 *180:20 *280:8 9.90431e-05
26 *3833:A2 *180:16 1.78919e-05
27 *3833:B1 *180:16 0.00010096
28 *154:25 *3850:A2 4.07257e-05
29 *154:25 *3854:A2 6.8646e-06
30 *179:39 *180:16 2.3587e-05
*RES
1 *3833:X *180:16 26.3536 
2 *180:16 *180:20 7.08929 
3 *180:20 *3850:A2 19.1393 
4 *180:20 *3854:A2 16.3536 
5 *180:16 *3846:A3 9.3 
*END

*D_NET *181 0.000927407
*CONN
*I *3837:A2 I *D sky130_fd_sc_hd__o221a_1
*I *3834:Y O *D sky130_fd_sc_hd__inv_2
*CAP
1 *3837:A2 0.000261468
2 *3834:Y 0.000261468
3 *3837:A2 *3837:B2 5.33005e-05
4 *3837:A2 *3838:B 5.71472e-05
5 *3837:A2 *182:6 5.21069e-05
6 *3804:D *3837:A2 8.00806e-05
7 *3835:A *3837:A2 5.33334e-05
8 *3837:A1 *3837:A2 1.98839e-05
9 *3837:B1 *3837:A2 8.86193e-05
*RES
1 *3834:Y *3837:A2 33.4393 
*END

*D_NET *182 0.00318209
*CONN
*I *3840:B1 I *D sky130_fd_sc_hd__o21a_1
*I *3837:B2 I *D sky130_fd_sc_hd__o221a_1
*I *3841:A1 I *D sky130_fd_sc_hd__o21ai_1
*I *3835:Y O *D sky130_fd_sc_hd__inv_2
*CAP
1 *3840:B1 0.000352869
2 *3837:B2 4.98014e-05
3 *3841:A1 0.000320382
4 *3835:Y 0
5 *182:6 0.000530165
6 *182:4 0.000512851
7 *3837:B2 *3844:B 5.41794e-05
8 *3837:B2 *3844:D_N 5.41794e-05
9 *3840:B1 *3844:D_N 0
10 *3841:A1 *3837:C1 9.43869e-05
11 *3841:A1 *183:6 1.39841e-05
12 *3809:B *3841:A1 0
13 *3813:A2 *3840:B1 0.000171375
14 *3831:A *3840:B1 5.52302e-05
15 *3831:C *3840:B1 0
16 *3837:A1 *3837:B2 9.60875e-05
17 *3837:A1 *3841:A1 0.000188059
18 *3837:A1 *182:6 5.33005e-05
19 *3837:A2 *3837:B2 5.33005e-05
20 *3837:A2 *182:6 5.21069e-05
21 *3837:B1 *3837:B2 2.28499e-05
22 *3840:A1 *3840:B1 1.33343e-05
23 *141:14 *3840:B1 0.000216297
24 *151:10 *3840:B1 0.000146395
25 *153:20 *3840:B1 0.000130955
26 *160:8 *3840:B1 0
*RES
1 *3835:Y *182:4 9.3 
2 *182:4 *182:6 2.17857 
3 *182:6 *3841:A1 13.8536 
4 *182:6 *3837:B2 19.9786 
5 *182:4 *3840:B1 26.9786 
*END

*D_NET *183 0.000501188
*CONN
*I *3841:A2 I *D sky130_fd_sc_hd__o21ai_1
*I *3837:C1 I *D sky130_fd_sc_hd__o221a_1
*I *3836:Y O *D sky130_fd_sc_hd__inv_2
*CAP
1 *3841:A2 0
2 *3837:C1 4.58771e-05
3 *3836:Y 4.78642e-05
4 *183:6 9.37413e-05
5 *3837:C1 *3843:B1 3.3665e-05
6 *3813:A2 *183:6 5.52238e-05
7 *3837:A1 *3837:C1 9.37763e-06
8 *3841:A1 *3837:C1 9.43869e-05
9 *3841:A1 *183:6 1.39841e-05
10 *3841:B1 *3837:C1 8.03135e-06
11 *177:16 *183:6 9.90367e-05
*RES
1 *3836:Y *183:6 10.6571 
2 *183:6 *3837:C1 11.3268 
3 *183:6 *3841:A2 9.3 
*END

*D_NET *184 0.00040164
*CONN
*I *3838:B I *D sky130_fd_sc_hd__nor2_1
*I *3837:X O *D sky130_fd_sc_hd__o221a_1
*CAP
1 *3838:B 0.000158771
2 *3837:X 0.000158771
3 *3838:B *3843:B1 0
4 *3838:B *3844:B 0
5 *3838:B *3844:D_N 2.05938e-05
6 *3804:D *3838:B 0
7 *3837:A2 *3838:B 5.71472e-05
8 *3837:B1 *3838:B 4.46186e-06
9 *146:14 *3838:B 1.89507e-06
*RES
1 *3837:X *3838:B 30.0821 
*END

*D_NET *185 0.00158483
*CONN
*I *3844:B I *D sky130_fd_sc_hd__or4b_1
*I *3838:Y O *D sky130_fd_sc_hd__nor2_1
*CAP
1 *3844:B 0.000318397
2 *3838:Y 0.000318397
3 *3844:B *3843:B1 0.00010326
4 *3844:B *3844:D_N 0.000219369
5 *3831:C *3844:B 0.000150625
6 *3837:B2 *3844:B 5.41794e-05
7 *3838:B *3844:B 0
8 *141:44 *3844:B 0.000192045
9 *147:19 *3844:B 0.000228558
*RES
1 *3838:Y *3844:B 35.975 
*END

*D_NET *186 0.00163248
*CONN
*I *3840:A2 I *D sky130_fd_sc_hd__o21a_1
*I *3839:X O *D sky130_fd_sc_hd__and2b_1
*CAP
1 *3840:A2 0.000359891
2 *3839:X 0.000359891
3 *3840:A2 *272:14 0
4 *3778:B *3840:A2 3.90513e-05
5 *3804:A *3840:A2 5.52302e-05
6 *3804:B *3840:A2 2.14658e-05
7 *3804:C *3840:A2 5.7616e-05
8 *3812:A2 *3840:A2 0.0002253
9 *3831:A *3840:A2 0
10 *3835:A *3840:A2 5.33005e-05
11 *3839:B *3840:A2 6.05161e-06
12 *3840:A1 *3840:A2 7.80929e-05
13 *125:23 *3840:A2 0.000315172
14 *157:14 *3840:A2 1.95304e-05
15 *157:39 *3840:A2 4.18845e-05
*RES
1 *3839:X *3840:A2 36.3679 
*END

*D_NET *187 0.00115149
*CONN
*I *3844:C I *D sky130_fd_sc_hd__or4b_1
*I *3840:X O *D sky130_fd_sc_hd__o21a_1
*CAP
1 *3844:C 0.000367566
2 *3840:X 0.000367566
3 *3844:C *3844:D_N 5.52302e-05
4 *3813:A1 *3844:C 9.81603e-05
5 *3813:A2 *3844:C 2.87485e-05
6 *3813:B1 *3844:C 3.65577e-05
7 *3831:A *3844:C 7.83587e-05
8 *3840:A1 *3844:C 3.92757e-05
9 *141:14 *3844:C 7.47166e-05
10 *141:16 *3844:C 5.30637e-06
*RES
1 *3840:X *3844:C 34.2607 
*END

*D_NET *188 0.000866765
*CONN
*I *3843:B1 I *D sky130_fd_sc_hd__o211a_1
*I *3841:Y O *D sky130_fd_sc_hd__o21ai_1
*CAP
1 *3843:B1 0.000227345
2 *3841:Y 0.000227345
3 *3837:A1 *3843:B1 5.90455e-05
4 *3837:B1 *3843:B1 5.52302e-05
5 *3837:C1 *3843:B1 3.3665e-05
6 *3838:B *3843:B1 0
7 *3844:B *3843:B1 0.00010326
8 *141:44 *3843:B1 0.000150625
9 *150:10 *3843:B1 1.02504e-05
*RES
1 *3841:Y *3843:B1 31.725 
*END

*D_NET *189 0.00101226
*CONN
*I *3843:C1 I *D sky130_fd_sc_hd__o211a_1
*I *3842:X O *D sky130_fd_sc_hd__o21ba_1
*CAP
1 *3843:C1 0.000213909
2 *3842:X 0.000213909
3 *3837:A1 *3843:C1 0.00012401
4 *3841:B1 *3843:C1 1.41029e-05
5 *141:44 *3843:C1 0.000335208
6 *145:14 *3843:C1 5.59013e-05
7 *177:16 *3843:C1 5.52238e-05
*RES
1 *3842:X *3843:C1 32.5107 
*END

*D_NET *190 0.00144778
*CONN
*I *3844:D_N I *D sky130_fd_sc_hd__or4b_1
*I *3843:X O *D sky130_fd_sc_hd__o211a_1
*CAP
1 *3844:D_N 0.000372743
2 *3843:X 0.000372743
3 *3813:A2 *3844:D_N 6.04256e-05
4 *3831:C *3844:D_N 0.000221177
5 *3837:B1 *3844:D_N 4.53834e-05
6 *3837:B2 *3844:D_N 5.41794e-05
7 *3838:B *3844:D_N 2.05938e-05
8 *3840:B1 *3844:D_N 0
9 *3844:B *3844:D_N 0.000219369
10 *3844:C *3844:D_N 5.52302e-05
11 *141:14 *3844:D_N 2.59355e-05
*RES
1 *3843:X *3844:D_N 35.8857 
*END

*D_NET *191 0.000908284
*CONN
*I *3845:A3 I *D sky130_fd_sc_hd__o31a_1
*I *3844:X O *D sky130_fd_sc_hd__or4b_1
*CAP
1 *3845:A3 0.000176898
2 *3844:X 0.000176898
3 *3845:A3 *3846:A1 0
4 *3845:A3 *213:42 0.00014285
5 *3808:B *3845:A3 0.000129868
6 *3831:B *3845:A3 3.28534e-05
7 *3833:A2 *3845:A3 0.000144773
8 *3833:A3 *3845:A3 6.25515e-05
9 *3844:A *3845:A3 4.15914e-05
*RES
1 *3844:X *3845:A3 32.725 
*END

*D_NET *192 0.00270287
*CONN
*I *3846:B1 I *D sky130_fd_sc_hd__a31o_1
*I *3854:B1 I *D sky130_fd_sc_hd__a31o_1
*I *3850:B1 I *D sky130_fd_sc_hd__a31o_1
*I *3845:X O *D sky130_fd_sc_hd__o31a_1
*CAP
1 *3846:B1 0
2 *3854:B1 0.000104545
3 *3850:B1 0.000238074
4 *3845:X 0.000104152
5 *192:16 0.000411054
6 *192:12 0.000172587
7 *3850:B1 *3849:A2 0.000175526
8 *3850:B1 *3850:A1 0
9 *3850:B1 *3850:A3 8.07313e-05
10 *3850:B1 *213:8 0.000215049
11 *3854:B1 *213:8 0.000168939
12 *3854:B1 *280:12 1.17968e-05
13 *192:12 *3846:A1 0.000126439
14 *192:12 *3846:A2 6.97972e-05
15 *192:12 *213:42 5.52238e-05
16 *192:16 *3846:A1 5.52238e-05
17 *192:16 *3854:A3 0.000225609
18 *3829:A *3854:B1 5.03772e-05
19 *3850:A2 *3850:B1 0
20 *154:25 *3850:B1 0.00015234
21 *154:25 *3854:B1 0.000191239
22 *180:20 *192:16 9.41642e-05
*RES
1 *3845:X *192:12 20.7821 
2 *192:12 *192:16 6.67857 
3 *192:16 *3850:B1 20.1393 
4 *192:16 *3854:B1 16.9964 
5 *192:12 *3846:B1 9.3 
*END

*D_NET *193 0.00136044
*CONN
*I *3847:B2 I *D sky130_fd_sc_hd__a22o_1
*I *3846:X O *D sky130_fd_sc_hd__a31o_1
*CAP
1 *3847:B2 0.000305419
2 *3846:X 0.000305419
3 *3847:B2 *3854:A1 0.000110097
4 *3847:B2 *3854:A3 0.000136951
5 *3847:B2 *3855:B2 0.000186669
6 *3847:B2 *280:12 0.000101545
7 *3852:A *3847:B2 0.000111085
8 *3854:A2 *3847:B2 0.00010326
*RES
1 *3846:X *3847:B2 34.1357 
*END

*D_NET *194 0.000252307
*CONN
*I *3850:A1 I *D sky130_fd_sc_hd__a31o_1
*I *3848:Y O *D sky130_fd_sc_hd__inv_2
*CAP
1 *3850:A1 8.61133e-05
2 *3848:Y 8.61133e-05
3 *3850:A1 *3851:B1 0
4 *3850:A1 *3851:B2 0
5 *3850:A2 *3850:A1 8.00806e-05
6 *3850:B1 *3850:A1 0
*RES
1 *3848:Y *3850:A1 29.3679 
*END

*D_NET *195 0.00124716
*CONN
*I *3850:A3 I *D sky130_fd_sc_hd__a31o_1
*I *3849:X O *D sky130_fd_sc_hd__a22o_1
*CAP
1 *3850:A3 0.000185528
2 *3849:X 0.000185528
3 *3850:A3 *3807:B 0.000265453
4 *3850:A3 *3849:A2 6.71755e-05
5 *3850:A3 *3851:A2 0.000276211
6 *3850:A3 *3851:B2 5.7661e-06
7 *3850:A3 *279:12 9.41642e-05
8 *3850:A3 *279:35 8.66063e-05
9 *3850:B1 *3850:A3 8.07313e-05
*RES
1 *3849:X *3850:A3 24.9036 
*END

*D_NET *196 0.000115669
*CONN
*I *3851:B2 I *D sky130_fd_sc_hd__a22o_1
*I *3850:X O *D sky130_fd_sc_hd__a31o_1
*CAP
1 *3851:B2 4.35807e-05
2 *3850:X 4.35807e-05
3 *3851:B2 *3851:A2 2.27416e-05
4 *3850:A1 *3851:B2 0
5 *3850:A3 *3851:B2 5.7661e-06
*RES
1 *3850:X *3851:B2 19.5643 
*END

*D_NET *197 0.000458768
*CONN
*I *3854:A1 I *D sky130_fd_sc_hd__a31o_1
*I *3852:Y O *D sky130_fd_sc_hd__inv_2
*CAP
1 *3854:A1 5.61088e-05
2 *3852:Y 5.61088e-05
3 *3829:A *3854:A1 5.71472e-05
4 *3847:B2 *3854:A1 0.000110097
5 *3852:A *3854:A1 0.000179306
*RES
1 *3852:Y *3854:A1 21.1893 
*END

*D_NET *198 0.00136864
*CONN
*I *3854:A3 I *D sky130_fd_sc_hd__a31o_1
*I *3853:X O *D sky130_fd_sc_hd__a21o_1
*CAP
1 *3854:A3 0.000341771
2 *3853:X 0.000341771
3 *3854:A3 *3846:A1 1.98839e-05
4 *3854:A3 *3847:A1 0
5 *3854:A3 *280:8 0.000139907
6 *3847:B2 *3854:A3 0.000136951
7 *3854:A2 *3854:A3 0.000127446
8 *180:20 *3854:A3 3.5298e-05
9 *192:16 *3854:A3 0.000225609
*RES
1 *3853:X *3854:A3 34.725 
*END

*D_NET *199 0.00178283
*CONN
*I *3855:B2 I *D sky130_fd_sc_hd__a22o_1
*I *3854:X O *D sky130_fd_sc_hd__a31o_1
*CAP
1 *3855:B2 0.000453429
2 *3854:X 0.000453429
3 *3855:B2 *3847:A1 0.000284436
4 *3855:B2 *3847:B1 2.59355e-05
5 *3855:B2 *3851:B1 1.98839e-05
6 *3855:B2 *3855:B1 5.33005e-05
7 *3855:B2 *211:117 3.33197e-05
8 *3855:B2 *244:39 1.39374e-05
9 *3855:B2 *244:54 3.9838e-05
10 *3855:B2 *261:92 2.87473e-05
11 *3847:B2 *3855:B2 0.000186669
12 *3876:D *3855:B2 0.000189908
*RES
1 *3854:X *3855:B2 38.4214 
*END

*D_NET *200 0.000682297
*CONN
*I *3857:B1_N I *D sky130_fd_sc_hd__a21bo_1
*I *3856:X O *D sky130_fd_sc_hd__or3_1
*CAP
1 *3857:B1_N 0.000285383
2 *3856:X 0.000285383
3 *3857:B1_N *3691:B1_N 5.52302e-05
4 *3857:B1_N *3857:A1 5.62995e-05
*RES
1 *3856:X *3857:B1_N 22.0107 
*END

*D_NET *201 0.000758985
*CONN
*I *3859:B1 I *D sky130_fd_sc_hd__a31o_1
*I *3858:X O *D sky130_fd_sc_hd__and2_1
*CAP
1 *3859:B1 0.000179498
2 *3858:X 0.000179498
3 *3859:B1 *3859:A1 6.05161e-06
4 *3859:B1 *209:16 0.000196968
5 *3859:B1 *214:6 0.000196968
6 *3859:B1 *214:25 0
*RES
1 *3858:X *3859:B1 32.6536 
*END

*D_NET *202 0.00118283
*CONN
*I *3861:B1 I *D sky130_fd_sc_hd__a31o_1
*I *3860:X O *D sky130_fd_sc_hd__and2_1
*CAP
1 *3861:B1 0.000409887
2 *3860:X 0.000409887
3 *3861:B1 *3679:A 0
4 *3861:B1 *3861:A1 2.06178e-05
5 *3861:B1 *3861:A2 3.67142e-05
6 *3861:B1 *3861:A3 1.3701e-05
7 *3861:B1 *236:16 0
8 *3861:B1 *243:104 9.90367e-05
9 *3861:B1 *275:10 0.000192983
*RES
1 *3860:X *3861:B1 34.9393 
*END

*D_NET *203 0.0013795
*CONN
*I *3863:B1 I *D sky130_fd_sc_hd__a31o_1
*I *3862:X O *D sky130_fd_sc_hd__and2_1
*CAP
1 *3863:B1 0.000360467
2 *3862:X 0.000360467
3 *3863:B1 *3865:A3 2.48938e-05
4 *3863:B1 *3883:CLK 0.000202842
5 *3863:B1 *243:130 0.000295137
6 *3863:B1 *262:40 9.25014e-06
7 *3863:B1 *262:62 0.000126439
*RES
1 *3862:X *3863:B1 34.6714 
*END

*D_NET *204 0.000112637
*CONN
*I *3865:B1 I *D sky130_fd_sc_hd__a31o_1
*I *3864:X O *D sky130_fd_sc_hd__and2_1
*CAP
1 *3865:B1 5.63185e-05
2 *3864:X 5.63185e-05
*RES
1 *3864:X *3865:B1 19.5464 
*END

*D_NET *205 0.000112637
*CONN
*I *3867:B1 I *D sky130_fd_sc_hd__a31o_1
*I *3866:X O *D sky130_fd_sc_hd__and2_1
*CAP
1 *3867:B1 5.63185e-05
2 *3866:X 5.63185e-05
*RES
1 *3866:X *3867:B1 19.5464 
*END

*D_NET *206 0.000165058
*CONN
*I *3869:B1 I *D sky130_fd_sc_hd__a31o_1
*I *3868:X O *D sky130_fd_sc_hd__and2_1
*CAP
1 *3869:B1 3.20492e-05
2 *3868:X 3.20492e-05
3 *3869:B1 *3868:A 0.00010096
*RES
1 *3868:X *3869:B1 19.5464 
*END

*D_NET *207 0.000742748
*CONN
*I *3871:B1 I *D sky130_fd_sc_hd__a31o_1
*I *3870:X O *D sky130_fd_sc_hd__and2_1
*CAP
1 *3871:B1 0.000181947
2 *3870:X 0.000181947
3 *3871:B1 *3870:A 0.000133487
4 *3871:B1 *3870:B 5.71472e-05
5 *3871:B1 *3885:CLK 0.000103285
6 *3871:B1 *210:25 2.39876e-05
7 *3871:B1 *261:16 6.09476e-05
*RES
1 *3870:X *3871:B1 32.2071 
*END

*D_NET *208 0.000773791
*CONN
*I *3873:B1 I *D sky130_fd_sc_hd__a31o_1
*I *3872:X O *D sky130_fd_sc_hd__and2_1
*CAP
1 *3873:B1 0.00029588
2 *3872:X 0.00029588
3 *3873:B1 *210:25 5.62995e-05
4 *3873:B1 *211:14 0.000125731
5 *3873:B1 *243:43 0
*RES
1 *3872:X *3873:B1 31.8321 
*END

*D_NET *209 0.0173937
*CONN
*I *3867:A2 I *D sky130_fd_sc_hd__a31o_1
*I *3865:A2 I *D sky130_fd_sc_hd__a31o_1
*I *3863:A2 I *D sky130_fd_sc_hd__a31o_1
*I *3861:A2 I *D sky130_fd_sc_hd__a31o_1
*I *3656:A I *D sky130_fd_sc_hd__inv_2
*I *3873:A2 I *D sky130_fd_sc_hd__a31o_1
*I *3871:A2 I *D sky130_fd_sc_hd__a31o_1
*I *3691:A2 I *D sky130_fd_sc_hd__o21ba_1
*I *3869:A2 I *D sky130_fd_sc_hd__a31o_1
*I *3859:A2 I *D sky130_fd_sc_hd__a31o_1
*I *3655:X O *D sky130_fd_sc_hd__clkbuf_4
*CAP
1 *3867:A2 0.000130052
2 *3865:A2 0.000229157
3 *3863:A2 0
4 *3861:A2 0.00017329
5 *3656:A 0.000367111
6 *3873:A2 0
7 *3871:A2 4.92112e-05
8 *3691:A2 9.64476e-05
9 *3869:A2 7.75887e-05
10 *3859:A2 3.34128e-05
11 *3655:X 0
12 *209:121 0.000623778
13 *209:115 0.000867157
14 *209:98 0.00160873
15 *209:74 0.000566406
16 *209:35 0.000394682
17 *209:33 0.000443003
18 *209:31 0.000770946
19 *209:16 0.00223386
20 *209:4 0.00289489
21 *3656:A *211:14 0.000154762
22 *3656:A *243:79 0
23 *3656:A *261:8 5.33005e-05
24 *3691:A2 *3691:A1 9.71197e-05
25 *3691:A2 *3691:B1_N 3.47641e-06
26 *3691:A2 *3869:A1 5.59202e-05
27 *3691:A2 *3872:B 9.71197e-05
28 *3691:A2 *243:55 3.45776e-05
29 *3691:A2 *301:10 5.01876e-06
30 *3859:A2 *3859:A3 2.11419e-05
31 *3859:A2 *3871:A1 0
32 *3859:A2 *214:25 2.70591e-05
33 *3859:A2 *243:43 2.11419e-05
34 *3861:A2 *3679:B 2.90311e-05
35 *3861:A2 *3891:A 0.000227532
36 *3861:A2 *236:16 0.000170952
37 *3861:A2 *243:104 3.1521e-05
38 *3861:A2 *303:18 6.8646e-06
39 *3865:A2 *3686:B1 0
40 *3865:A2 *3863:A3 3.93346e-05
41 *3865:A2 *3864:A 0
42 *3865:A2 *3865:A3 0
43 *3867:A2 *3866:B 0
44 *3867:A2 *3867:A1 1.32552e-05
45 *3867:A2 *3867:A3 3.67257e-05
46 *3869:A2 *3868:A 1.32552e-05
47 *3869:A2 *3869:A3 7.43578e-06
48 *3869:A2 *3871:A3 0
49 *3871:A2 *3868:A 1.31802e-07
50 *3871:A2 *3871:A1 5.25193e-05
51 *3871:A2 *3871:A3 1.03233e-05
52 *209:16 *3709:A1 3.48705e-05
53 *209:16 *3709:B1 0.000168334
54 *209:16 *3859:A1 1.15172e-05
55 *209:16 *3875:D 0.000131439
56 *209:16 *214:6 0.000166557
57 *209:16 *243:26 0.000197888
58 *209:16 *249:6 9.22103e-06
59 *209:16 *249:10 1.32552e-05
60 *209:16 *254:6 0.000402784
61 *209:16 *267:10 4.6025e-06
62 *209:16 *267:23 5.10647e-05
63 *209:16 *267:44 0.000238637
64 *209:16 *277:22 0.000486447
65 *209:31 *3871:A1 8.45419e-05
66 *209:33 *3871:A1 5.63497e-05
67 *209:35 *3868:A 2.87555e-06
68 *209:35 *3869:A3 7.03295e-05
69 *209:35 *3871:A3 4.39066e-05
70 *209:74 *210:25 6.25007e-05
71 *209:74 *211:14 0.000310783
72 *209:74 *243:79 0
73 *209:74 *261:16 0
74 *209:98 *3688:B1 1.32552e-05
75 *209:98 *3688:B2 0.000227532
76 *209:98 *3689:B1 6.78055e-06
77 *209:98 *3875:D 9.90367e-05
78 *209:98 *265:31 0.000112584
79 *209:115 *3688:B1 1.97865e-05
80 *209:115 *3688:B2 1.24368e-05
81 *209:115 *3867:A1 6.78106e-05
82 *209:115 *3867:A3 1.58163e-05
83 *209:121 *3864:A 0
84 *209:121 *3865:A3 3.34366e-05
85 *209:121 *211:42 0
86 *209:121 *211:51 0
87 *209:121 *243:117 5.83304e-05
88 *209:121 *243:130 0.000748714
89 *3715:A *209:16 0.000234673
90 *3717:A *209:16 5.52238e-05
91 *3859:B1 *209:16 0.000196968
92 *3861:B1 *3861:A2 3.67142e-05
93 *3882:D *209:121 5.57914e-05
94 *3884:D *209:121 4.35048e-05
95 *56:8 *209:16 2.87555e-06
96 *61:16 *209:16 2.28598e-05
97 *61:20 *209:16 1.24368e-05
*RES
1 *3655:X *209:4 9.3 
2 *209:4 *209:16 38.4286 
3 *209:16 *3859:A2 19.0321 
4 *209:16 *209:31 5.07143 
5 *209:31 *209:33 2.17857 
6 *209:33 *209:35 3 
7 *209:35 *3869:A2 10.5679 
8 *209:35 *3691:A2 20.8893 
9 *209:33 *3871:A2 10.8179 
10 *209:31 *209:74 8.57143 
11 *209:74 *3873:A2 13.8 
12 *209:74 *3656:A 20.0143 
13 *209:4 *209:98 13.6786 
14 *209:98 *3861:A2 23.1571 
15 *209:98 *209:115 4.23214 
16 *209:115 *209:121 19.4464 
17 *209:121 *3863:A2 9.3 
18 *209:121 *3865:A2 22.3357 
19 *209:115 *3867:A2 11.3893 
*END

*D_NET *210 0.00510353
*CONN
*I *3856:A I *D sky130_fd_sc_hd__or3_1
*I *3657:A I *D sky130_fd_sc_hd__buf_2
*I *3868:A I *D sky130_fd_sc_hd__and2_1
*I *3870:A I *D sky130_fd_sc_hd__and2_1
*I *3872:A I *D sky130_fd_sc_hd__and2_1
*I *3656:Y O *D sky130_fd_sc_hd__inv_2
*CAP
1 *3856:A 7.76905e-05
2 *3657:A 0.000266444
3 *3868:A 0.000540838
4 *3870:A 0.000169286
5 *3872:A 1.27684e-05
6 *3656:Y 0
7 *210:51 0.000418941
8 *210:25 0.000948619
9 *210:10 0.00037273
10 *210:6 0.000196272
11 *3657:A *211:83 1.76714e-05
12 *3856:A *3691:B1_N 4.60545e-05
13 *3856:A *211:83 0.000125731
14 *3856:A *261:64 9.97744e-05
15 *3868:A *3868:B 2.89114e-05
16 *3868:A *3869:A3 7.32955e-05
17 *3868:A *3871:A1 0.000187106
18 *3868:A *3871:A3 5.26948e-05
19 *3870:A *3885:CLK 0
20 *3870:A *211:14 0.000103325
21 *3872:A *3872:B 3.18676e-05
22 *210:10 *3691:B1_N 7.39637e-05
23 *210:10 *243:55 5.92328e-05
24 *210:10 *261:16 2.03079e-05
25 *210:25 *3872:B 2.44318e-05
26 *210:25 *211:14 4.38511e-05
27 *210:25 *261:16 5.98939e-05
28 *210:51 *3691:B1_N 7.39637e-05
29 *3869:A2 *3868:A 1.32552e-05
30 *3869:B1 *3868:A 0.00010096
31 *3871:A2 *3868:A 1.31802e-07
32 *3871:B1 *3870:A 0.000133487
33 *3871:B1 *210:25 2.39876e-05
34 *3873:B1 *210:25 5.62995e-05
35 *3874:D *3856:A 5.83304e-05
36 *3874:D *3872:A 2.89016e-05
37 *3874:D *210:10 0.000267814
38 *3874:D *210:25 2.89114e-05
39 *3874:D *210:51 0.000200406
40 *209:35 *3868:A 2.87555e-06
41 *209:74 *210:25 6.25007e-05
*RES
1 *3656:Y *210:6 13.8 
2 *210:6 *210:10 8.57143 
3 *210:10 *3872:A 9.83571 
4 *210:10 *210:25 10.2679 
5 *210:25 *3870:A 17.8714 
6 *210:25 *3868:A 22.7107 
7 *210:6 *210:51 2.55357 
8 *210:51 *3657:A 17.0143 
9 *210:51 *3856:A 16.9607 
*END

*D_NET *211 0.0173605
*CONN
*I *3690:A I *D sky130_fd_sc_hd__nor2_1
*I *3847:A1 I *D sky130_fd_sc_hd__a22o_1
*I *3851:A1 I *D sky130_fd_sc_hd__a22o_1
*I *3855:A1 I *D sky130_fd_sc_hd__a22o_1
*I *3857:A1 I *D sky130_fd_sc_hd__a21bo_1
*I *3864:A I *D sky130_fd_sc_hd__and2_1
*I *3862:A I *D sky130_fd_sc_hd__and2_1
*I *3866:A I *D sky130_fd_sc_hd__and2_1
*I *3860:A I *D sky130_fd_sc_hd__and2_1
*I *3858:A I *D sky130_fd_sc_hd__and2_1
*I *3657:X O *D sky130_fd_sc_hd__buf_2
*CAP
1 *3690:A 0.00019871
2 *3847:A1 0.000438419
3 *3851:A1 0
4 *3855:A1 2.76146e-05
5 *3857:A1 6.38315e-05
6 *3864:A 0.000417913
7 *3862:A 2.52229e-05
8 *3866:A 0
9 *3860:A 6.04819e-05
10 *3858:A 0.00011492
11 *3657:X 4.34665e-05
12 *211:117 0.000658799
13 *211:100 0.000469798
14 *211:83 0.000791546
15 *211:73 0.000789699
16 *211:51 0.000736495
17 *211:42 0.000571138
18 *211:31 0.000476724
19 *211:29 0.00291506
20 *211:14 0.00420294
21 *211:8 0.00143996
22 *3690:A *244:39 4.02694e-05
23 *3847:A1 *3847:B1 5.71472e-05
24 *3847:A1 *3855:A2 3.92854e-05
25 *3855:A1 *3851:A2 0
26 *3855:A1 *3855:A2 1.04232e-05
27 *3855:A1 *3855:B1 3.57366e-05
28 *3857:A1 *3856:B 0
29 *3857:A1 *3857:A2 1.53756e-05
30 *3858:A *283:10 0
31 *3860:A *3860:B 7.77652e-05
32 *3862:A *3862:B 5.52238e-05
33 *3864:A *3864:B 5.52302e-05
34 *3864:A *304:26 6.3753e-05
35 *3864:A *304:28 0
36 *211:14 *3731:A2 0
37 *211:14 *3871:A1 0
38 *211:14 *3873:A1 0
39 *211:14 *3874:CLK 0
40 *211:14 *243:43 0
41 *211:14 *243:79 0
42 *211:29 *3681:A1 0.000356028
43 *211:31 *284:10 0
44 *211:42 *284:10 0
45 *211:42 *304:32 0
46 *211:51 *304:28 0
47 *211:51 *304:32 0
48 *211:73 *3731:A2 0
49 *211:73 *3874:CLK 0
50 *211:73 *243:79 0
51 *211:83 *3691:B1_N 5.01117e-05
52 *211:83 *261:64 1.21041e-05
53 *211:83 *293:61 0
54 *211:100 *3857:A2 0.000308792
55 *211:100 *244:39 0
56 *211:100 *261:64 0
57 *211:100 *261:79 5.16759e-05
58 *211:100 *261:92 5.16489e-05
59 *211:100 *293:68 7.79781e-06
60 *211:100 *293:86 7.58664e-05
61 *211:117 *3847:B1 1.00073e-05
62 *211:117 *3851:A2 1.24368e-05
63 *211:117 *3851:B1 5.74499e-06
64 *211:117 *3855:B1 0.00014183
65 *211:117 *244:39 5.09427e-05
66 *211:117 *244:54 6.8646e-06
67 *3656:A *211:14 0.000154762
68 *3657:A *211:83 1.76714e-05
69 *3850:A2 *3847:A1 0
70 *3850:A2 *211:117 0
71 *3854:A2 *3847:A1 0
72 *3854:A3 *3847:A1 0
73 *3855:B2 *3847:A1 0.000284436
74 *3855:B2 *211:117 3.33197e-05
75 *3856:A *211:83 0.000125731
76 *3856:C *3690:A 0
77 *3856:C *3857:A1 0
78 *3856:C *211:73 0
79 *3857:B1_N *3857:A1 5.62995e-05
80 *3865:A2 *3864:A 0
81 *3870:A *211:14 0.000103325
82 *3873:B1 *211:14 0.000125731
83 *3879:D *211:100 6.97972e-05
84 *3880:D *211:14 0
85 *3882:D *3864:A 0
86 *3884:D *211:51 0
87 *209:74 *211:14 0.000310783
88 *209:121 *3864:A 0
89 *209:121 *211:42 0
90 *209:121 *211:51 0
91 *210:25 *211:14 4.38511e-05
*RES
1 *3657:X *211:8 14.3357 
2 *211:8 *211:14 27.9643 
3 *211:14 *3858:A 20.2464 
4 *211:14 *211:29 47.75 
5 *211:29 *211:31 2.25 
6 *211:31 *3860:A 15.1571 
7 *211:31 *211:42 4.67857 
8 *211:42 *3866:A 13.8 
9 *211:42 *211:51 4.98214 
10 *211:51 *3862:A 14.3357 
11 *211:51 *3864:A 21.7464 
12 *211:8 *211:73 1.64286 
13 *211:73 *211:83 16.1875 
14 *211:83 *3857:A1 15.3625 
15 *211:83 *211:100 11.2411 
16 *211:100 *3855:A1 10.0321 
17 *211:100 *211:117 8.48214 
18 *211:117 *3851:A1 13.8 
19 *211:117 *3847:A1 23.175 
20 *211:73 *3690:A 17.6571 
*END

*D_NET *212 0.0122008
*CONN
*I *3739:B1 I *D sky130_fd_sc_hd__a22o_1
*I *3740:D I *D sky130_fd_sc_hd__nand4_1
*I *3755:C I *D sky130_fd_sc_hd__nand4_2
*I *3754:A2 I *D sky130_fd_sc_hd__a22o_1
*I *3794:B I *D sky130_fd_sc_hd__and4_2
*I *3806:A2 I *D sky130_fd_sc_hd__a22o_1
*I *3677:A I *D sky130_fd_sc_hd__xnor2_1
*I *3673:A1 I *D sky130_fd_sc_hd__o31a_1
*I *3863:A1 I *D sky130_fd_sc_hd__a31o_1
*I *3661:B I *D sky130_fd_sc_hd__or4_1
*I *3658:X O *D sky130_fd_sc_hd__clkbuf_4
*CAP
1 *3739:B1 0
2 *3740:D 0.000210134
3 *3755:C 0
4 *3754:A2 0.00057054
5 *3794:B 0
6 *3806:A2 0.000273646
7 *3677:A 3.13685e-05
8 *3673:A1 1.1624e-05
9 *3863:A1 0.000468908
10 *3661:B 0.000391275
11 *3658:X 0.000685427
12 *212:121 0.000230478
13 *212:88 0.000479529
14 *212:86 0.00113447
15 *212:82 0.000597723
16 *212:80 0.000740172
17 *212:24 0.00128448
18 *212:16 0.00057301
19 *212:12 0.000291343
20 *212:10 0.00132915
21 *3661:B *3671:A 4.65338e-05
22 *3661:B *213:108 9.47028e-05
23 *3673:A1 *3673:A3 5.52238e-05
24 *3673:A1 *3673:B1 5.52238e-05
25 *3677:A *279:37 2.59355e-05
26 *3740:D *3724:D 3.18676e-05
27 *3740:D *213:83 5.33334e-05
28 *3740:D *246:85 2.8266e-06
29 *3740:D *264:51 0
30 *3754:A2 *266:22 0.000352477
31 *3754:A2 *266:84 1.24368e-05
32 *3863:A1 *3686:A1 5.56465e-05
33 *3863:A1 *3686:B1 0.000176778
34 *3863:A1 *3686:B2 5.52302e-05
35 *3863:A1 *3687:C1 1.92789e-05
36 *3863:A1 *3863:A3 6.05161e-06
37 *212:10 *3767:B 3.72932e-05
38 *212:10 *273:10 0.000413323
39 *212:10 *300:31 0
40 *212:10 *300:43 0
41 *212:12 *3677:B 1.41029e-05
42 *212:12 *273:10 8.05006e-05
43 *212:12 *300:43 0
44 *212:16 *3677:B 0.000128154
45 *212:16 *273:10 0
46 *212:16 *300:43 0
47 *212:24 *3674:B 4.79842e-05
48 *212:24 *217:97 0
49 *212:24 *217:116 0
50 *212:24 *225:12 8.15939e-05
51 *212:24 *273:10 0
52 *212:80 *3739:A1 2.44318e-05
53 *212:80 *3739:A2 2.30969e-05
54 *212:82 *3739:A1 2.89114e-05
55 *212:82 *3739:B2 5.52302e-05
56 *212:82 *3755:B 8.86314e-05
57 *212:82 *213:83 2.77289e-05
58 *212:86 *213:70 4.70078e-05
59 *212:86 *213:83 3.48705e-05
60 *212:121 *3755:B 0
61 *212:121 *3755:D 5.7661e-06
62 *3742:B1 *3740:D 0
63 *3743:A *3740:D 5.52302e-05
64 *3760:A2 *212:86 0.000115971
65 *3761:B *3754:A2 0
66 *3762:A2 *3754:A2 0
67 *3763:C *3754:A2 0
68 *3794:C *3806:A2 2.77143e-05
69 *3794:D *3806:A2 0.000140947
70 *3794:D *212:88 8.66063e-05
71 *3806:B1 *3806:A2 4.1896e-06
72 *3840:A1 *3806:A2 0
73 *88:8 *3740:D 0
74 *101:6 *3754:A2 6.05161e-06
75 *102:8 *3740:D 2.8266e-06
76 *107:8 *3754:A2 0
77 *108:32 *3754:A2 0.000225314
78 *120:10 *3754:A2 0
79 *121:14 *3754:A2 0
80 *139:6 *3806:A2 4.15355e-05
81 *141:14 *212:88 9.00795e-06
*RES
1 *3658:X *212:10 28.9429 
2 *212:10 *212:12 2.85714 
3 *212:12 *212:16 2.78571 
4 *212:16 *212:24 12.5714 
5 *212:24 *3661:B 15.4607 
6 *212:24 *3863:A1 18.3357 
7 *212:16 *3673:A1 14.3357 
8 *212:12 *3677:A 14.3357 
9 *212:10 *212:80 12.5714 
10 *212:80 *212:82 4.23214 
11 *212:82 *212:86 6.30357 
12 *212:86 *212:88 2.58929 
13 *212:88 *3806:A2 13.2821 
14 *212:88 *3794:B 9.3 
15 *212:86 *3754:A2 30.6036 
16 *212:82 *212:121 0.428571 
17 *212:121 *3755:C 9.3 
18 *212:121 *3740:D 22.6393 
19 *212:80 *3739:B1 9.3 
*END

*D_NET *213 0.0184552
*CONN
*I *3676:A1 I *D sky130_fd_sc_hd__o21a_1
*I *3673:A2 I *D sky130_fd_sc_hd__o31a_1
*I *3680:A I *D sky130_fd_sc_hd__xor2_1
*I *3861:A1 I *D sky130_fd_sc_hd__a31o_1
*I *3661:C I *D sky130_fd_sc_hd__or4_1
*I *3755:D I *D sky130_fd_sc_hd__nand4_2
*I *3785:C I *D sky130_fd_sc_hd__and4_1
*I *3793:A2 I *D sky130_fd_sc_hd__a22o_1
*I *3807:C I *D sky130_fd_sc_hd__and4_1
*I *3849:A2 I *D sky130_fd_sc_hd__a22o_1
*I *3659:X O *D sky130_fd_sc_hd__clkbuf_4
*CAP
1 *3676:A1 0
2 *3673:A2 0.00024678
3 *3680:A 0
4 *3861:A1 0.000524373
5 *3661:C 0
6 *3755:D 2.68528e-05
7 *3785:C 1.24159e-05
8 *3793:A2 1.3545e-05
9 *3807:C 0
10 *3849:A2 0.000207409
11 *3659:X 0.000459381
12 *213:138 0.000414898
13 *213:108 0.00147132
14 *213:89 0.00129711
15 *213:83 0.000859606
16 *213:70 0.000838773
17 *213:51 0.000577783
18 *213:42 0.00124863
19 *213:21 0.00114032
20 *213:8 0.00066679
21 *3673:A2 *3673:A3 2.24195e-05
22 *3673:A2 *3673:B1 0.000228558
23 *3673:A2 *3676:A2 1.04232e-05
24 *3673:A2 *3676:B1 2.28499e-05
25 *3673:A2 *214:130 1.39726e-05
26 *3755:D *3755:B 0
27 *3785:C *3785:D 5.7661e-06
28 *3793:A2 *3785:B 7.34187e-06
29 *3793:A2 *3785:D 2.79509e-06
30 *3793:A2 *249:96 1.78303e-05
31 *3849:A2 *3807:B 0.000128161
32 *3849:A2 *3846:A2 1.18064e-05
33 *3849:A2 *3849:A1 0.000181796
34 *3849:A2 *245:33 0
35 *3849:A2 *279:12 9.41642e-05
36 *3849:A2 *279:35 0.000171306
37 *3861:A1 *3679:A 0
38 *3861:A1 *236:16 5.7903e-06
39 *3861:A1 *292:18 0.000343232
40 *3861:A1 *302:18 0
41 *213:8 *280:12 8.07788e-05
42 *213:42 *3785:B 2.24371e-05
43 *213:42 *3807:A 9.90367e-05
44 *213:42 *3807:D 1.39841e-05
45 *213:42 *245:29 0.000152412
46 *213:42 *249:66 0.000265784
47 *213:42 *249:96 0.000219094
48 *213:51 *3785:B 6.49803e-05
49 *213:51 *3785:D 5.33005e-05
50 *213:70 *3785:A 2.89016e-05
51 *213:70 *3785:B 1.39726e-05
52 *213:83 *3755:B 0.000180764
53 *213:83 *246:91 0.000173804
54 *213:83 *247:112 0.00012401
55 *213:83 *247:127 0.000211913
56 *213:89 *3661:A 6.05161e-06
57 *213:89 *214:88 5.44074e-05
58 *213:89 *246:85 4.55187e-05
59 *213:89 *247:112 0.000404889
60 *213:108 *3661:A 3.97677e-05
61 *213:108 *3664:B 0
62 *213:108 *3670:B 6.98302e-05
63 *213:108 *3671:A 5.03772e-05
64 *213:108 *214:77 0
65 *213:108 *215:12 0.00012401
66 *213:108 *243:26 2.14757e-05
67 *213:108 *265:31 0
68 *213:108 *300:45 1.76039e-05
69 *213:108 *300:49 7.17932e-05
70 *213:108 *302:18 1.18064e-05
71 *213:108 *303:34 0.000764373
72 *213:138 *214:100 0.000135028
73 *213:138 *214:130 0.000299772
74 *213:138 *279:35 1.56e-05
75 *3661:B *213:108 9.47028e-05
76 *3740:D *213:83 5.33334e-05
77 *3742:B1 *213:83 7.46663e-05
78 *3742:B1 *213:89 4.46186e-06
79 *3744:A1 *213:70 9.41642e-05
80 *3744:A2 *213:70 2.28499e-05
81 *3749:A *213:70 5.83304e-05
82 *3760:A1 *213:70 6.98302e-05
83 *3760:A2 *3755:D 1.3701e-05
84 *3760:A2 *213:70 0.000111718
85 *3760:B1 *213:70 0.000128161
86 *3792:A *213:42 0.000153354
87 *3792:A *213:51 1.0634e-05
88 *3813:A2 *213:8 0
89 *3833:A2 *213:42 9.90878e-05
90 *3833:B1 *213:42 1.90111e-05
91 *3845:A3 *213:42 0.00014285
92 *3848:A *213:42 1.94098e-05
93 *3850:A3 *3849:A2 6.71755e-05
94 *3850:B1 *3849:A2 0.000175526
95 *3850:B1 *213:8 0.000215049
96 *3853:B1 *213:8 0
97 *3854:B1 *213:8 0.000168939
98 *3861:B1 *3861:A1 2.06178e-05
99 *72:20 *213:89 0.000403154
100 *89:8 *213:138 2.59355e-05
101 *132:8 *213:42 1.04232e-05
102 *132:8 *213:51 9.90431e-05
103 *144:26 *213:8 0
104 *154:25 *213:42 5.7661e-06
105 *155:21 *213:8 0.000295844
106 *162:16 *213:42 0.00022459
107 *177:16 *213:8 0
108 *180:16 *3849:A2 1.02504e-05
109 *180:16 *213:8 0.000200413
110 *180:16 *213:42 7.99608e-05
111 *192:12 *213:42 5.52238e-05
112 *212:82 *213:83 2.77289e-05
113 *212:86 *213:70 4.70078e-05
114 *212:86 *213:83 3.48705e-05
115 *212:121 *3755:D 5.7661e-06
*RES
1 *3659:X *213:8 25.4607 
2 *213:8 *3849:A2 19.8714 
3 *213:8 *213:21 4.5 
4 *213:21 *3807:C 9.3 
5 *213:21 *213:42 19.1518 
6 *213:42 *3793:A2 9.72857 
7 *213:42 *213:51 2.38393 
8 *213:51 *3785:C 9.72857 
9 *213:51 *213:70 18.3036 
10 *213:70 *3755:D 10.0321 
11 *213:70 *213:83 13.1071 
12 *213:83 *213:89 13.6786 
13 *213:89 *3661:C 9.3 
14 *213:89 *213:108 27.9286 
15 *213:108 *3861:A1 27.3896 
16 *213:108 *3680:A 9.3 
17 *213:83 *213:138 8.73214 
18 *213:138 *3673:A2 13.8536 
19 *213:138 *3676:A1 9.3 
*END

*D_NET *214 0.0232719
*CONN
*I *3673:A3 I *D sky130_fd_sc_hd__o31a_1
*I *3676:A2 I *D sky130_fd_sc_hd__o21a_1
*I *3793:B1 I *D sky130_fd_sc_hd__a22o_1
*I *3849:B1 I *D sky130_fd_sc_hd__a22o_1
*I *3661:D I *D sky130_fd_sc_hd__or4_1
*I *3679:B I *D sky130_fd_sc_hd__nand2_1
*I *3682:A1_N I *D sky130_fd_sc_hd__o2bb2a_1
*I *3846:A2 I *D sky130_fd_sc_hd__a31o_1
*I *3807:D I *D sky130_fd_sc_hd__and4_1
*I *3859:A1 I *D sky130_fd_sc_hd__a31o_1
*I *3660:X O *D sky130_fd_sc_hd__clkbuf_4
*CAP
1 *3673:A3 0.000178956
2 *3676:A2 1.82115e-05
3 *3793:B1 4.97752e-05
4 *3849:B1 0.000681276
5 *3661:D 0
6 *3679:B 0.000118068
7 *3682:A1_N 0
8 *3846:A2 7.9916e-05
9 *3807:D 9.0878e-05
10 *3859:A1 8.00295e-05
11 *3660:X 0
12 *214:130 0.000373706
13 *214:100 0.00216021
14 *214:88 0.00188188
15 *214:77 0.000827749
16 *214:57 0.000792228
17 *214:47 0.00203774
18 *214:25 0.00119045
19 *214:6 0.00250098
20 *214:4 0.00221331
21 *3673:A3 *3673:B1 0.000122003
22 *3673:A3 *3676:B1 5.52238e-05
23 *3673:A3 *3677:B 0.000144773
24 *3673:A3 *3684:B1 0
25 *3676:A2 *3673:B1 3.99614e-06
26 *3679:B *236:16 3.43251e-05
27 *3679:B *275:10 0
28 *3679:B *303:18 0.000212162
29 *3793:B1 *245:23 4.33002e-05
30 *3793:B1 *249:96 2.59355e-05
31 *3793:B1 *272:14 4.50149e-05
32 *3846:A2 *3846:A1 8.41284e-06
33 *3846:A2 *245:31 4.36551e-06
34 *3846:A2 *245:33 1.88048e-05
35 *3849:B1 *3849:B2 5.33005e-05
36 *3849:B1 *245:29 0.000511275
37 *3849:B1 *279:35 6.25963e-05
38 *214:6 *3702:A1 2.24763e-05
39 *214:6 *3702:A2 5.19842e-06
40 *214:6 *3702:B1 2.27416e-05
41 *214:6 *3702:B2 5.41609e-05
42 *214:6 *3709:A3 0.000175251
43 *214:6 *243:26 1.86687e-05
44 *214:6 *255:6 0.000144773
45 *214:25 *3731:B1 0
46 *214:25 *3807:B 5.0725e-05
47 *214:25 *3871:A1 0
48 *214:25 *3873:A1 0
49 *214:25 *3889:A 1.28585e-05
50 *214:25 *243:43 8.56295e-05
51 *214:25 *245:33 9.4724e-05
52 *214:25 *245:37 0.000741413
53 *214:25 *279:12 0.000123288
54 *214:47 *3875:CLK 0.000156926
55 *214:47 *243:26 7.75312e-05
56 *214:57 *3681:A2 8.9931e-05
57 *214:57 *3682:A2_N 1.22286e-05
58 *214:57 *3682:B1 5.17614e-05
59 *214:57 *3875:RESET_B 7.6644e-05
60 *214:57 *3891:A 0.000274294
61 *214:57 *293:6 0.000106828
62 *214:77 *3661:A 1.02504e-05
63 *214:77 *3664:C_N 7.95674e-05
64 *214:77 *3727:A 0
65 *214:77 *3875:D 0
66 *214:77 *3875:RESET_B 9.88679e-05
67 *214:77 *217:21 4.25716e-05
68 *214:77 *251:21 0
69 *214:77 *265:31 0.000115179
70 *214:77 *301:98 0.000267814
71 *214:77 *301:115 4.40802e-05
72 *214:88 *3661:A 0.000272665
73 *214:88 *3727:A 0
74 *214:88 *247:112 0.000153854
75 *214:88 *279:35 5.58941e-05
76 *214:88 *296:38 0.000262415
77 *214:88 *296:40 0.000116474
78 *214:100 *245:29 3.7143e-05
79 *214:100 *246:85 6.52967e-05
80 *3673:A1 *3673:A3 5.52238e-05
81 *3673:A2 *3673:A3 2.24195e-05
82 *3673:A2 *3676:A2 1.04232e-05
83 *3673:A2 *214:130 1.39726e-05
84 *3715:A *214:6 0.000105163
85 *3720:C *214:25 0.000170458
86 *3725:B1_N *214:88 6.81196e-05
87 *3725:B1_N *214:100 0
88 *3732:A *214:25 8.09064e-05
89 *3742:A1 *214:100 2.14658e-05
90 *3742:A2 *214:100 4.9071e-05
91 *3742:B1 *214:100 5.52302e-05
92 *3743:B *214:100 0
93 *3826:B1 *214:25 0.000127446
94 *3833:A1 *3849:B1 6.54117e-05
95 *3845:A1 *3849:B1 0.00018372
96 *3849:A2 *3846:A2 1.18064e-05
97 *3856:C *214:25 6.63476e-05
98 *3859:A2 *214:25 2.70591e-05
99 *3859:B1 *3859:A1 6.05161e-06
100 *3859:B1 *214:6 0.000196968
101 *3859:B1 *214:25 0
102 *3861:A2 *3679:B 2.90311e-05
103 *3880:D *214:25 0
104 *72:20 *214:88 0
105 *73:12 *214:77 0
106 *89:8 *214:100 2.05757e-05
107 *162:16 *3849:B1 8.84829e-05
108 *163:8 *3849:B1 3.17148e-05
109 *179:39 *214:25 0
110 *180:16 *3807:D 5.52238e-05
111 *180:16 *3846:A2 0.000198705
112 *180:16 *214:25 0.000118813
113 *192:12 *3846:A2 6.97972e-05
114 *209:16 *3859:A1 1.15172e-05
115 *209:16 *214:6 0.000166557
116 *213:42 *3807:D 1.39841e-05
117 *213:89 *214:88 5.44074e-05
118 *213:108 *214:77 0
119 *213:138 *214:100 0.000135028
120 *213:138 *214:130 0.000299772
*RES
1 *3660:X *214:4 9.3 
2 *214:4 *214:6 19.4286 
3 *214:6 *3859:A1 10.5679 
4 *214:6 *214:25 32.3571 
5 *214:25 *3807:D 10.6571 
6 *214:25 *3846:A2 21.1571 
7 *214:4 *214:47 14.8929 
8 *214:47 *214:57 16.8884 
9 *214:57 *3682:A1_N 9.3 
10 *214:57 *3679:B 21.1571 
11 *214:47 *214:77 12.5714 
12 *214:77 *3661:D 13.8 
13 *214:77 *214:88 12.8214 
14 *214:88 *214:100 14.5756 
15 *214:100 *3849:B1 22.1365 
16 *214:100 *3793:B1 18.3261 
17 *214:88 *214:130 3.41071 
18 *214:130 *3676:A2 9.72857 
19 *214:130 *3673:A3 13.55 
*END

*D_NET *215 0.00136808
*CONN
*I *3670:B I *D sky130_fd_sc_hd__nand2_1
*I *3662:C I *D sky130_fd_sc_hd__or3_1
*I *3668:A2 I *D sky130_fd_sc_hd__o21a_1
*I *3661:X O *D sky130_fd_sc_hd__or4_1
*CAP
1 *3670:B 0.000112644
2 *3662:C 0
3 *3668:A2 2.89828e-05
4 *3661:X 0.00010375
5 *215:12 9.37642e-05
6 *215:8 0.000281176
7 *3668:A2 *3662:A 4.87854e-05
8 *3668:A2 *3668:A1 3.85007e-05
9 *3668:A2 *300:96 2.28499e-05
10 *3668:A2 *300:109 1.33343e-05
11 *3670:B *3671:B 0.000127446
12 *3670:B *217:97 4.47843e-05
13 *3670:B *217:116 1.00375e-05
14 *3670:B *300:45 6.98669e-05
15 *215:8 *3671:A 0.000137983
16 *215:12 *217:97 4.03318e-05
17 *213:108 *3670:B 6.98302e-05
18 *213:108 *215:12 0.00012401
*RES
1 *3661:X *215:8 15.1571 
2 *215:8 *215:12 6.14286 
3 *215:12 *3668:A2 10.2464 
4 *215:12 *3662:C 9.3 
5 *215:8 *3670:B 17.2643 
*END

*D_NET *216 0.00113466
*CONN
*I *3665:B I *D sky130_fd_sc_hd__nand2_1
*I *3664:B I *D sky130_fd_sc_hd__or3b_2
*I *3662:X O *D sky130_fd_sc_hd__or3_1
*CAP
1 *3665:B 6.71199e-05
2 *3664:B 0.000223596
3 *3662:X 0
4 *216:4 0.000290716
5 *3664:B *3666:A 0.000196276
6 *3664:B *3666:B 3.47737e-05
7 *3664:B *3687:C1 0
8 *3664:B *3689:B1 0
9 *3664:B *217:95 9.25014e-06
10 *3664:B *243:14 4.1331e-06
11 *3664:B *302:18 5.83233e-05
12 *3665:B *3662:B 5.7998e-05
13 *3665:B *3665:A 5.71472e-05
14 *3665:B *3867:A1 0.000135327
15 *213:108 *3664:B 0
*RES
1 *3662:X *216:4 9.3 
2 *216:4 *3664:B 23.2821 
3 *216:4 *3665:B 11.2821 
*END

*D_NET *217 0.0134544
*CONN
*I *3668:B1 I *D sky130_fd_sc_hd__o21a_1
*I *3665:A I *D sky130_fd_sc_hd__nand2_1
*I *3673:B1 I *D sky130_fd_sc_hd__o31a_1
*I *3676:B1 I *D sky130_fd_sc_hd__o21a_1
*I *3670:A I *D sky130_fd_sc_hd__nand2_1
*I *3818:B1 I *D sky130_fd_sc_hd__o21ai_1
*I *3707:B I *D sky130_fd_sc_hd__and3_1
*I *3731:A2 I *D sky130_fd_sc_hd__a21oi_1
*I *3873:A1 I *D sky130_fd_sc_hd__a31o_1
*I *3664:C_N I *D sky130_fd_sc_hd__or3b_2
*I *3663:X O *D sky130_fd_sc_hd__buf_2
*CAP
1 *3668:B1 0
2 *3665:A 0.000161825
3 *3673:B1 0.000116543
4 *3676:B1 1.22537e-05
5 *3670:A 5.16168e-05
6 *3818:B1 0
7 *3707:B 0
8 *3731:A2 0.00013035
9 *3873:A1 0.00024746
10 *3664:C_N 0.00034936
11 *3663:X 0
12 *217:116 0.000385185
13 *217:97 0.000543827
14 *217:95 0.000730286
15 *217:85 0.000498316
16 *217:47 0.00078721
17 *217:43 0.00166704
18 *217:27 0.00163245
19 *217:21 0.000610452
20 *217:6 0.000419324
21 *3664:C_N *302:28 0.000445577
22 *3664:C_N *302:41 0
23 *3665:A *3867:A1 4.88637e-05
24 *3670:A *272:20 3.7469e-05
25 *3673:B1 *3684:A2 0
26 *3731:A2 *3731:B1 0.000159449
27 *3873:A1 *3731:B1 0.00020176
28 *3873:A1 *243:43 0.000146523
29 *217:27 *3695:A 5.03772e-05
30 *217:27 *246:42 6.87146e-05
31 *217:27 *248:10 9.71197e-05
32 *217:27 *300:51 0.000139168
33 *217:27 *300:57 7.10432e-05
34 *217:43 *3697:B1 1.37292e-05
35 *217:43 *3697:B2 7.40571e-05
36 *217:43 *3735:B 0.000120708
37 *217:43 *3817:A 0.000488493
38 *217:43 *302:50 2.89114e-05
39 *217:43 *302:52 0.000252092
40 *217:43 *302:54 0.0001717
41 *217:85 *300:51 0.00031119
42 *217:95 *3662:B 0
43 *217:95 *3687:C1 0
44 *217:95 *300:51 9.22103e-06
45 *217:95 *300:96 0.00020288
46 *217:95 *300:109 2.44318e-05
47 *217:97 *3671:B 6.65398e-05
48 *217:97 *3687:B2 0
49 *217:97 *3687:C1 0
50 *217:97 *225:12 4.57445e-05
51 *217:116 *3674:B 6.97972e-05
52 *217:116 *225:12 1.19402e-05
53 *217:116 *265:42 2.6949e-05
54 *217:116 *300:43 7.83366e-05
55 *217:116 *300:45 0
56 *3664:B *217:95 9.25014e-06
57 *3665:B *3665:A 5.71472e-05
58 *3670:B *217:97 4.47843e-05
59 *3670:B *217:116 1.00375e-05
60 *3673:A1 *3673:B1 5.52238e-05
61 *3673:A2 *3673:B1 0.000228558
62 *3673:A2 *3676:B1 2.28499e-05
63 *3673:A3 *3673:B1 0.000122003
64 *3673:A3 *3676:B1 5.52238e-05
65 *3676:A2 *3673:B1 3.99614e-06
66 *3714:A *217:43 0.000137983
67 *3719:A2 *217:43 0.000185643
68 *3719:A2 *217:47 4.59075e-05
69 *3818:A2 *217:27 9.90367e-05
70 *3818:A2 *217:43 5.52302e-05
71 *59:14 *217:43 9.90367e-05
72 *66:10 *217:43 5.50115e-05
73 *68:14 *217:43 5.71472e-05
74 *73:12 *3664:C_N 4.1331e-06
75 *73:12 *217:21 3.84385e-05
76 *165:6 *217:27 4.38128e-05
77 *165:6 *217:43 5.52302e-05
78 *211:14 *3731:A2 0
79 *211:14 *3873:A1 0
80 *211:73 *3731:A2 0
81 *212:24 *217:97 0
82 *212:24 *217:116 0
83 *214:25 *3873:A1 0
84 *214:77 *3664:C_N 7.95674e-05
85 *214:77 *217:21 4.25716e-05
86 *215:12 *217:97 4.03318e-05
*RES
1 *3663:X *217:6 13.8 
2 *217:6 *3664:C_N 20.8893 
3 *217:6 *217:21 6.14286 
4 *217:21 *217:27 8.07143 
5 *217:27 *217:43 30.7679 
6 *217:43 *217:47 9.14286 
7 *217:47 *3873:A1 19.55 
8 *217:47 *3731:A2 16.4071 
9 *217:43 *3707:B 9.3 
10 *217:27 *3818:B1 9.3 
11 *217:21 *217:85 3.73214 
12 *217:85 *217:95 9.39286 
13 *217:95 *217:97 4.98214 
14 *217:97 *3670:A 15.0679 
15 *217:97 *217:116 9.78571 
16 *217:116 *3676:B1 9.83571 
17 *217:116 *3673:B1 13.1571 
18 *217:95 *3665:A 16.5321 
19 *217:85 *3668:B1 9.3 
*END

*D_NET *218 0.00129398
*CONN
*I *3689:A2 I *D sky130_fd_sc_hd__a21oi_4
*I *3688:A2 I *D sky130_fd_sc_hd__o22a_1
*I *3664:X O *D sky130_fd_sc_hd__or3b_2
*CAP
1 *3689:A2 3.2426e-05
2 *3688:A2 8.91743e-05
3 *3664:X 0.000400817
4 *218:12 0.000522417
5 *3688:A2 *3688:B2 5.5782e-05
6 *3688:A2 *3689:A1 8.00806e-05
7 *3688:A2 *3689:B1 0
8 *218:12 *3689:A1 4.81894e-05
9 *218:12 *243:14 1.92789e-05
10 *218:12 *302:28 4.58194e-05
*RES
1 *3664:X *218:12 15.7464 
2 *218:12 *3688:A2 20.2464 
3 *218:12 *3689:A2 9.83571 
*END

*D_NET *219 0.000387136
*CONN
*I *3666:B I *D sky130_fd_sc_hd__xor2_1
*I *3665:Y O *D sky130_fd_sc_hd__nand2_1
*CAP
1 *3666:B 9.3668e-05
2 *3665:Y 9.3668e-05
3 *3666:B *3687:C1 5.24274e-05
4 *3666:B *220:8 0
5 *3666:B *223:10 5.62995e-05
6 *3666:B *262:38 5.62995e-05
7 *3664:B *3666:B 3.47737e-05
*RES
1 *3665:Y *3666:B 30.3143 
*END

*D_NET *220 0.00141118
*CONN
*I *3667:B I *D sky130_fd_sc_hd__and2_1
*I *3687:A2 I *D sky130_fd_sc_hd__o221a_1
*I *3666:X O *D sky130_fd_sc_hd__xor2_1
*CAP
1 *3667:B 0.000176228
2 *3687:A2 0
3 *3666:X 8.26403e-05
4 *220:8 0.000258869
5 *3667:B *3687:A1 0.000242486
6 *3667:B *3867:A1 0.000177234
7 *3667:B *262:38 0.000186379
8 *220:8 *3686:A2 2.89114e-05
9 *220:8 *223:10 3.48705e-05
10 *220:8 *262:38 0.000223564
11 *3666:B *220:8 0
*RES
1 *3666:X *220:8 11.9071 
2 *220:8 *3687:A2 9.3 
3 *220:8 *3667:B 24.3893 
*END

*D_NET *221 0.000866268
*CONN
*I *3688:B1 I *D sky130_fd_sc_hd__o22a_1
*I *3667:X O *D sky130_fd_sc_hd__and2_1
*CAP
1 *3688:B1 0.00027942
2 *3667:X 0.00027942
3 *3688:B1 *3688:A1 5.33433e-05
4 *3688:B1 *3688:B2 6.08821e-05
5 *3688:B1 *3867:A1 8.00806e-05
6 *3688:B1 *236:16 8.00806e-05
7 *209:98 *3688:B1 1.32552e-05
8 *209:115 *3688:B1 1.97865e-05
*RES
1 *3667:X *3688:B1 33.2071 
*END

*D_NET *222 0.000520081
*CONN
*I *3669:B I *D sky130_fd_sc_hd__xnor2_1
*I *3668:X O *D sky130_fd_sc_hd__o21a_1
*CAP
1 *3669:B 9.12824e-05
2 *3668:X 9.12824e-05
3 *3669:B *262:38 4.87953e-05
4 *3669:B *265:31 0.000102545
5 *3669:B *301:94 5.33005e-05
6 *3669:B *301:98 0.000102545
7 *3669:B *303:34 3.03304e-05
*RES
1 *3668:X *3669:B 30.3143 
*END

*D_NET *223 0.00197744
*CONN
*I *3687:B1 I *D sky130_fd_sc_hd__o221a_1
*I *3686:A2 I *D sky130_fd_sc_hd__a22o_1
*I *3669:Y O *D sky130_fd_sc_hd__xnor2_1
*CAP
1 *3687:B1 0
2 *3686:A2 0.000172929
3 *3669:Y 0.000346042
4 *223:10 0.000518971
5 *3686:A2 *3686:A1 5.7661e-06
6 *3686:A2 *3687:B2 0.000166305
7 *3686:A2 *3687:C1 0.000340059
8 *3686:A2 *236:16 0
9 *223:10 *3666:A 5.33005e-05
10 *223:10 *3687:A1 0
11 *223:10 *262:38 2.24599e-05
12 *223:10 *303:34 0.000231529
13 *3666:B *223:10 5.62995e-05
14 *220:8 *3686:A2 2.89114e-05
15 *220:8 *223:10 3.48705e-05
*RES
1 *3669:Y *223:10 16.0321 
2 *223:10 *3686:A2 23.9429 
3 *223:10 *3687:B1 9.3 
*END

*D_NET *224 0.000283349
*CONN
*I *3671:B I *D sky130_fd_sc_hd__xor2_1
*I *3670:Y O *D sky130_fd_sc_hd__nand2_1
*CAP
1 *3671:B 4.46813e-05
2 *3670:Y 4.46813e-05
3 *3670:B *3671:B 0.000127446
4 *217:97 *3671:B 6.65398e-05
*RES
1 *3670:Y *3671:B 29.2429 
*END

*D_NET *225 0.00115342
*CONN
*I *3685:A2 I *D sky130_fd_sc_hd__a22o_1
*I *3672:B I *D sky130_fd_sc_hd__or2_1
*I *3671:X O *D sky130_fd_sc_hd__xor2_1
*CAP
1 *3685:A2 0
2 *3672:B 0.000117589
3 *3671:X 0.000152353
4 *225:12 0.000269941
5 *3672:B *3672:A 6.58597e-05
6 *3672:B *3685:B2 5.71472e-05
7 *3672:B *3686:B2 2.59355e-05
8 *3672:B *272:20 2.28598e-05
9 *225:12 *3686:B2 3.30237e-05
10 *225:12 *272:20 0.000269428
11 *212:24 *225:12 8.15939e-05
12 *217:97 *225:12 4.57445e-05
13 *217:116 *225:12 1.19402e-05
*RES
1 *3671:X *225:12 22.8357 
2 *225:12 *3672:B 12.3357 
3 *225:12 *3685:A2 9.3 
*END

*D_NET *226 0.000921894
*CONN
*I *3686:B1 I *D sky130_fd_sc_hd__a22o_1
*I *3672:X O *D sky130_fd_sc_hd__or2_1
*CAP
1 *3686:B1 0.000303665
2 *3672:X 0.000303665
3 *3686:B1 *3686:A1 1.24368e-05
4 *3686:B1 *3686:B2 5.71472e-05
5 *3686:B1 *3863:A3 0
6 *3686:B1 *3883:CLK 1.33442e-05
7 *3686:B1 *236:16 5.48581e-05
8 *3863:A1 *3686:B1 0.000176778
9 *3865:A2 *3686:B1 0
*RES
1 *3672:X *3686:B1 33.7964 
*END

*D_NET *227 0.000211455
*CONN
*I *3674:B I *D sky130_fd_sc_hd__xnor2_1
*I *3673:X O *D sky130_fd_sc_hd__o31a_1
*CAP
1 *3674:B 4.68367e-05
2 *3673:X 4.68367e-05
3 *212:24 *3674:B 4.79842e-05
4 *217:116 *3674:B 6.97972e-05
*RES
1 *3673:X *3674:B 29.2429 
*END

*D_NET *228 0.00136005
*CONN
*I *3675:B I *D sky130_fd_sc_hd__or2_1
*I *3684:A2 I *D sky130_fd_sc_hd__a22o_1
*I *3674:Y O *D sky130_fd_sc_hd__xnor2_1
*CAP
1 *3675:B 2.79508e-05
2 *3684:A2 0.00015144
3 *3674:Y 0.000166796
4 *228:8 0.000346187
5 *3675:B *3865:A1 2.14658e-05
6 *3684:A2 *3675:A 0.000153054
7 *3684:A2 *3685:B2 6.05161e-06
8 *3684:A2 *236:16 0.000153054
9 *3684:A2 *271:20 5.92264e-05
10 *228:8 *3674:A 0
11 *228:8 *3865:A1 0.000274824
12 *3673:B1 *3684:A2 0
*RES
1 *3674:Y *228:8 13.0321 
2 *228:8 *3684:A2 22.3536 
3 *228:8 *3675:B 9.83571 
*END

*D_NET *229 0.000286755
*CONN
*I *3685:B1 I *D sky130_fd_sc_hd__a22o_1
*I *3675:X O *D sky130_fd_sc_hd__or2_1
*CAP
1 *3685:B1 4.75377e-05
2 *3675:X 4.75377e-05
3 *3685:B1 *3685:B2 0.000127446
4 *3685:B1 *273:10 6.42338e-05
*RES
1 *3675:X *3685:B1 29.2429 
*END

*D_NET *230 0.000616494
*CONN
*I *3677:B I *D sky130_fd_sc_hd__xnor2_1
*I *3676:X O *D sky130_fd_sc_hd__o21a_1
*CAP
1 *3677:B 0.000164732
2 *3676:X 0.000164732
3 *3677:B *300:43 0
4 *3673:A3 *3677:B 0.000144773
5 *212:12 *3677:B 1.41029e-05
6 *212:16 *3677:B 0.000128154
*RES
1 *3676:X *3677:B 30.9036 
*END

*D_NET *231 0.00111844
*CONN
*I *3683:A2 I *D sky130_fd_sc_hd__a21o_1
*I *3678:B I *D sky130_fd_sc_hd__or2_1
*I *3677:Y O *D sky130_fd_sc_hd__xnor2_1
*CAP
1 *3683:A2 0.000229233
2 *3678:B 0
3 *3677:Y 0.000207573
4 *231:8 0.000436806
5 *3683:A2 *3683:A1 0
6 *3683:A2 *271:20 1.97695e-05
7 *3683:A2 *279:37 8.90199e-05
8 *231:8 *279:37 0.000136039
*RES
1 *3677:Y *231:8 13.1393 
2 *231:8 *3678:B 9.3 
3 *231:8 *3683:A2 22.55 
*END

*D_NET *232 0.000297995
*CONN
*I *3684:B1 I *D sky130_fd_sc_hd__a22o_1
*I *3678:X O *D sky130_fd_sc_hd__or2_1
*CAP
1 *3684:B1 9.77034e-05
2 *3678:X 9.77034e-05
3 *3684:B1 *3683:A1 4.15914e-05
4 *3684:B1 *271:20 6.09963e-05
5 *3684:B1 *273:10 0
6 *3673:A3 *3684:B1 0
*RES
1 *3678:X *3684:B1 29.6 
*END

*D_NET *233 0.000387165
*CONN
*I *3680:B I *D sky130_fd_sc_hd__xor2_1
*I *3679:Y O *D sky130_fd_sc_hd__nand2_1
*CAP
1 *3680:B 6.15713e-05
2 *3679:Y 6.15713e-05
3 *3680:B *3679:A 5.33005e-05
4 *3680:B *3891:A 0.000114577
5 *3680:B *303:34 9.61455e-05
*RES
1 *3679:Y *3680:B 20.7786 
*END

*D_NET *234 0.000976056
*CONN
*I *3681:A2 I *D sky130_fd_sc_hd__a21oi_1
*I *3682:B1 I *D sky130_fd_sc_hd__o2bb2a_1
*I *3680:X O *D sky130_fd_sc_hd__xor2_1
*CAP
1 *3681:A2 0.000129982
2 *3682:B1 4.6041e-05
3 *3680:X 7.10625e-05
4 *234:10 0.000247085
5 *3681:A2 *3682:A2_N 9.65998e-05
6 *3681:A2 *236:16 5.71472e-05
7 *234:10 *3891:A 4.03109e-05
8 *234:10 *276:14 0.000146135
9 *234:10 *302:18 0
10 *214:57 *3681:A2 8.9931e-05
11 *214:57 *3682:B1 5.17614e-05
*RES
1 *3680:X *234:10 20.2464 
2 *234:10 *3682:B1 10.2464 
3 *234:10 *3681:A2 12.3179 
*END

*D_NET *235 0.000580632
*CONN
*I *3682:A2_N I *D sky130_fd_sc_hd__o2bb2a_1
*I *3681:Y O *D sky130_fd_sc_hd__a21oi_1
*CAP
1 *3682:A2_N 0.000235902
2 *3681:Y 0.000235902
3 *3681:A2 *3682:A2_N 9.65998e-05
4 *214:57 *3682:A2_N 1.22286e-05
*RES
1 *3681:Y *3682:A2_N 22.9036 
*END

*D_NET *236 0.00361873
*CONN
*I *3683:B1 I *D sky130_fd_sc_hd__a21o_1
*I *3682:X O *D sky130_fd_sc_hd__o2bb2a_1
*CAP
1 *3683:B1 0
2 *3682:X 0.00110296
3 *236:16 0.00110296
4 *236:16 *3675:A 3.90417e-05
5 *236:16 *3684:B2 5.71472e-05
6 *236:16 *3685:B2 4.43698e-05
7 *236:16 *3686:B2 0
8 *236:16 *3687:B2 0
9 *236:16 *3688:B2 0.000346639
10 *236:16 *3867:A1 0.000256931
11 *236:16 *3883:CLK 0
12 *236:16 *271:20 0.000112461
13 *236:16 *273:10 0
14 *236:16 *275:10 0
15 *3679:B *236:16 3.43251e-05
16 *3681:A2 *236:16 5.71472e-05
17 *3684:A2 *236:16 0.000153054
18 *3686:A2 *236:16 0
19 *3686:B1 *236:16 5.48581e-05
20 *3688:B1 *236:16 8.00806e-05
21 *3861:A1 *236:16 5.7903e-06
22 *3861:A2 *236:16 0.000170952
23 *3861:B1 *236:16 0
*RES
1 *3682:X *236:16 42.4071 
2 *236:16 *3683:B1 9.3 
*END

*D_NET *237 0.000126884
*CONN
*I *3684:B2 I *D sky130_fd_sc_hd__a22o_1
*I *3683:X O *D sky130_fd_sc_hd__a21o_1
*CAP
1 *3684:B2 6.29488e-06
2 *3683:X 6.29488e-06
3 *3684:B2 *271:20 5.71472e-05
4 *236:16 *3684:B2 5.71472e-05
*RES
1 *3683:X *3684:B2 19.1357 
*END

*D_NET *238 0.00101112
*CONN
*I *3685:B2 I *D sky130_fd_sc_hd__a22o_1
*I *3684:X O *D sky130_fd_sc_hd__a22o_1
*CAP
1 *3685:B2 0.000239725
2 *3684:X 0.000239725
3 *3685:B2 *3672:A 5.52302e-05
4 *3685:B2 *3675:A 0.000173797
5 *3685:B2 *273:10 6.76272e-05
6 *3672:B *3685:B2 5.71472e-05
7 *3684:A2 *3685:B2 6.05161e-06
8 *3685:B1 *3685:B2 0.000127446
9 *236:16 *3685:B2 4.43698e-05
*RES
1 *3684:X *3685:B2 33.1536 
*END

*D_NET *239 0.000763692
*CONN
*I *3686:B2 I *D sky130_fd_sc_hd__a22o_1
*I *3685:X O *D sky130_fd_sc_hd__a22o_1
*CAP
1 *3686:B2 0.000216597
2 *3685:X 0.000216597
3 *3686:B2 *3687:B2 3.34366e-05
4 *3686:B2 *273:10 0.000125724
5 *3672:B *3686:B2 2.59355e-05
6 *3686:B1 *3686:B2 5.71472e-05
7 *3863:A1 *3686:B2 5.52302e-05
8 *225:12 *3686:B2 3.30237e-05
9 *236:16 *3686:B2 0
*RES
1 *3685:X *3686:B2 31.4393 
*END

*D_NET *240 0.000864215
*CONN
*I *3687:C1 I *D sky130_fd_sc_hd__o221a_1
*I *3686:X O *D sky130_fd_sc_hd__a22o_1
*CAP
1 *3687:C1 0.000226225
2 *3686:X 0.000226225
3 *3664:B *3687:C1 0
4 *3666:B *3687:C1 5.24274e-05
5 *3686:A2 *3687:C1 0.000340059
6 *3863:A1 *3687:C1 1.92789e-05
7 *217:95 *3687:C1 0
8 *217:97 *3687:C1 0
*RES
1 *3686:X *3687:C1 32.5107 
*END

*D_NET *241 0.00125681
*CONN
*I *3688:B2 I *D sky130_fd_sc_hd__o22a_1
*I *3687:X O *D sky130_fd_sc_hd__o221a_1
*CAP
1 *3688:B2 0.000227248
2 *3687:X 0.000227248
3 *3688:B2 *3688:A1 9.90431e-05
4 *3688:B2 *3689:A1 0
5 *3688:A2 *3688:B2 5.5782e-05
6 *3688:B1 *3688:B2 6.08821e-05
7 *209:98 *3688:B2 0.000227532
8 *209:115 *3688:B2 1.24368e-05
9 *236:16 *3688:B2 0.000346639
*RES
1 *3687:X *3688:B2 35.0107 
*END

*D_NET *242 0.000385173
*CONN
*I *3689:B1 I *D sky130_fd_sc_hd__a21oi_4
*I *3688:X O *D sky130_fd_sc_hd__o22a_1
*CAP
1 *3689:B1 0.000149156
2 *3688:X 0.000149156
3 *3689:B1 *3689:A1 0
4 *3689:B1 *243:14 8.00806e-05
5 *3664:B *3689:B1 0
6 *3688:A2 *3689:B1 0
7 *209:98 *3689:B1 6.78055e-06
*RES
1 *3688:X *3689:B1 30.0821 
*END

*D_NET *243 0.0174476
*CONN
*I *3865:A3 I *D sky130_fd_sc_hd__a31o_1
*I *3863:A3 I *D sky130_fd_sc_hd__a31o_1
*I *3867:A3 I *D sky130_fd_sc_hd__a31o_1
*I *3861:A3 I *D sky130_fd_sc_hd__a31o_1
*I *3873:A3 I *D sky130_fd_sc_hd__a31o_1
*I *3856:B I *D sky130_fd_sc_hd__or3_1
*I *3690:B I *D sky130_fd_sc_hd__nor2_1
*I *3871:A3 I *D sky130_fd_sc_hd__a31o_1
*I *3869:A3 I *D sky130_fd_sc_hd__a31o_1
*I *3859:A3 I *D sky130_fd_sc_hd__a31o_1
*I *3689:Y O *D sky130_fd_sc_hd__a21oi_4
*CAP
1 *3865:A3 0.00017934
2 *3863:A3 8.37189e-05
3 *3867:A3 6.51136e-05
4 *3861:A3 1.63023e-05
5 *3873:A3 2.23854e-05
6 *3856:B 0.000108118
7 *3690:B 0
8 *3871:A3 2.57886e-05
9 *3869:A3 2.55853e-05
10 *3859:A3 6.2215e-06
11 *3689:Y 0.000247495
12 *243:130 0.000490083
13 *243:117 0.00043331
14 *243:104 0.000683317
15 *243:79 0.000424286
16 *243:55 0.000438303
17 *243:47 0.000825596
18 *243:43 0.00063904
19 *243:26 0.00310108
20 *243:14 0.00337404
21 *3859:A3 *3871:A1 9.15186e-06
22 *3865:A3 *3883:CLK 0.000182889
23 *3867:A3 *3867:A1 0.000139907
24 *243:14 *3689:A1 0
25 *243:14 *276:14 0
26 *243:14 *302:18 0
27 *243:26 *3702:B1 0
28 *243:26 *3703:A_N 0
29 *243:26 *3704:B 1.02504e-05
30 *243:26 *3709:A3 5.37963e-05
31 *243:26 *3871:A1 0.000883792
32 *243:26 *3875:CLK 0.000219828
33 *243:26 *255:6 1.72894e-05
34 *243:26 *277:22 8.98778e-05
35 *243:26 *301:27 1.46911e-05
36 *243:26 *303:34 0.000227532
37 *243:43 *3707:C 3.05446e-05
38 *243:43 *3871:A1 2.77147e-05
39 *243:55 *3691:B1_N 0.000148504
40 *243:55 *3869:A1 0
41 *243:55 *261:16 2.019e-07
42 *243:79 *3874:CLK 0.000114992
43 *243:79 *244:39 5.59013e-05
44 *243:79 *261:10 0.000125724
45 *243:79 *261:16 0.000128168
46 *243:79 *261:64 0.000387425
47 *243:104 *3891:A 1.32822e-05
48 *243:104 *303:34 0.000301817
49 *243:117 *3881:CLK 0.00017738
50 *243:117 *3891:A 1.00073e-05
51 *243:130 *3881:CLK 0.000100735
52 *243:130 *262:40 0.00014535
53 *3656:A *243:79 0
54 *3664:B *243:14 4.1331e-06
55 *3686:B1 *3863:A3 0
56 *3689:B1 *243:14 8.00806e-05
57 *3691:A2 *243:55 3.45776e-05
58 *3856:C *3856:B 2.1195e-05
59 *3857:A1 *3856:B 0
60 *3859:A2 *3859:A3 2.11419e-05
61 *3859:A2 *243:43 2.11419e-05
62 *3861:A2 *243:104 3.1521e-05
63 *3861:B1 *3861:A3 1.3701e-05
64 *3861:B1 *243:104 9.90367e-05
65 *3863:A1 *3863:A3 6.05161e-06
66 *3863:B1 *3865:A3 2.48938e-05
67 *3863:B1 *243:130 0.000295137
68 *3865:A2 *3863:A3 3.93346e-05
69 *3865:A2 *3865:A3 0
70 *3867:A2 *3867:A3 3.67257e-05
71 *3868:A *3869:A3 7.32955e-05
72 *3868:A *3871:A3 5.26948e-05
73 *3869:A2 *3869:A3 7.43578e-06
74 *3869:A2 *3871:A3 0
75 *3871:A2 *3871:A3 1.03233e-05
76 *3873:A1 *243:43 0.000146523
77 *3873:B1 *243:43 0
78 *3881:D *3861:A3 0
79 *3881:D *243:104 0
80 *3881:D *243:117 5.52238e-05
81 *3883:D *3865:A3 2.27416e-05
82 *3887:D *243:47 2.89114e-05
83 *3887:D *243:55 6.57032e-05
84 *209:16 *243:26 0.000197888
85 *209:35 *3869:A3 7.03295e-05
86 *209:35 *3871:A3 4.39066e-05
87 *209:74 *243:79 0
88 *209:115 *3867:A3 1.58163e-05
89 *209:121 *3865:A3 3.34366e-05
90 *209:121 *243:117 5.83304e-05
91 *209:121 *243:130 0.000748714
92 *210:10 *243:55 5.92328e-05
93 *211:14 *243:43 0
94 *211:14 *243:79 0
95 *211:73 *243:79 0
96 *213:108 *243:26 2.14757e-05
97 *214:6 *243:26 1.86687e-05
98 *214:25 *243:43 8.56295e-05
99 *214:47 *243:26 7.75312e-05
100 *218:12 *243:14 1.92789e-05
*RES
1 *3689:Y *243:14 22.7286 
2 *243:14 *243:26 35.1521 
3 *243:26 *3859:A3 14.0768 
4 *243:26 *243:43 13.4911 
5 *243:43 *243:47 1.78571 
6 *243:47 *243:55 15.25 
7 *243:55 *3869:A3 10.6571 
8 *243:55 *3871:A3 10.5857 
9 *243:47 *243:79 17.0179 
10 *243:79 *3690:B 9.3 
11 *243:79 *3856:B 10.8714 
12 *243:43 *3873:A3 9.72857 
13 *243:14 *243:104 7.125 
14 *243:104 *3861:A3 9.72857 
15 *243:104 *243:117 7.80357 
16 *243:117 *3867:A3 15.5857 
17 *243:117 *243:130 9.53571 
18 *243:130 *3863:A3 15.175 
19 *243:130 *3865:A3 18.0143 
*END

*D_NET *244 0.00625699
*CONN
*I *3851:B1 I *D sky130_fd_sc_hd__a22o_1
*I *3847:B1 I *D sky130_fd_sc_hd__a22o_1
*I *3855:B1 I *D sky130_fd_sc_hd__a22o_1
*I *3691:B1_N I *D sky130_fd_sc_hd__o21ba_1
*I *3690:Y O *D sky130_fd_sc_hd__nor2_1
*CAP
1 *3851:B1 0.00017691
2 *3847:B1 0.000488004
3 *3855:B1 4.35396e-05
4 *3691:B1_N 0.000615698
5 *3690:Y 0
6 *244:54 0.000694415
7 *244:39 0.000577498
8 *244:4 0.00112016
9 *3691:B1_N *3691:A1 0.000287714
10 *3691:B1_N *3872:B 5.71472e-05
11 *3691:B1_N *293:61 0
12 *3691:B1_N *301:10 0
13 *3847:B1 *3847:A2 0.000144773
14 *3847:B1 *3855:A2 0.000202835
15 *3847:B1 *3878:CLK 0.000125717
16 *3847:B1 *3878:RESET_B 3.84385e-05
17 *3847:B1 *261:92 5.16489e-05
18 *3847:B1 *301:10 0
19 *3851:B1 *3851:A2 2.02786e-05
20 *3855:B1 *3851:A2 0
21 *244:39 *261:64 0.00020648
22 *244:39 *261:79 0
23 *244:39 *261:92 3.32354e-05
24 *244:54 *261:92 6.98302e-05
25 *3690:A *244:39 4.02694e-05
26 *3691:A2 *3691:B1_N 3.47641e-06
27 *3847:A1 *3847:B1 5.71472e-05
28 *3850:A1 *3851:B1 0
29 *3855:A1 *3855:B1 3.57366e-05
30 *3855:B2 *3847:B1 2.59355e-05
31 *3855:B2 *3851:B1 1.98839e-05
32 *3855:B2 *3855:B1 5.33005e-05
33 *3855:B2 *244:39 1.39374e-05
34 *3855:B2 *244:54 3.9838e-05
35 *3856:A *3691:B1_N 4.60545e-05
36 *3856:C *3691:B1_N 0.000104587
37 *3857:B1_N *3691:B1_N 5.52302e-05
38 *3876:D *3847:B1 9.90367e-05
39 *3877:D *244:39 7.63616e-05
40 *3879:D *3691:B1_N 1.40415e-05
41 *210:10 *3691:B1_N 7.39637e-05
42 *210:51 *3691:B1_N 7.39637e-05
43 *211:83 *3691:B1_N 5.01117e-05
44 *211:100 *244:39 0
45 *211:117 *3847:B1 1.00073e-05
46 *211:117 *3851:B1 5.74499e-06
47 *211:117 *3855:B1 0.00014183
48 *211:117 *244:39 5.09427e-05
49 *211:117 *244:54 6.8646e-06
50 *243:55 *3691:B1_N 0.000148504
51 *243:79 *244:39 5.59013e-05
*RES
1 *3690:Y *244:4 9.3 
2 *244:4 *3691:B1_N 31.925 
3 *244:4 *244:39 14.9107 
4 *244:39 *3855:B1 15.5857 
5 *244:39 *244:54 5.53571 
6 *244:54 *3847:B1 28.8536 
7 *244:54 *3851:B1 11.4964 
*END

*D_NET *245 0.01419
*CONN
*I *3806:A1 I *D sky130_fd_sc_hd__a22o_1
*I *3794:A I *D sky130_fd_sc_hd__and4_2
*I *3795:A I *D sky130_fd_sc_hd__nand2_1
*I *3788:A1 I *D sky130_fd_sc_hd__a31o_1
*I *3846:A1 I *D sky130_fd_sc_hd__a31o_1
*I *3807:A I *D sky130_fd_sc_hd__and4_1
*I *3849:A1 I *D sky130_fd_sc_hd__a22o_1
*I *3707:A I *D sky130_fd_sc_hd__and3_1
*I *3731:A1 I *D sky130_fd_sc_hd__a21oi_1
*I *3820:A0 I *D sky130_fd_sc_hd__mux2_1
*I *3692:X O *D sky130_fd_sc_hd__buf_2
*CAP
1 *3806:A1 0
2 *3794:A 6.04569e-05
3 *3795:A 5.02846e-05
4 *3788:A1 0
5 *3846:A1 0.0001477
6 *3807:A 1.645e-05
7 *3849:A1 7.60109e-05
8 *3707:A 0.000348993
9 *3731:A1 0.000171162
10 *3820:A0 0.000246612
11 *3692:X 0
12 *245:114 0.000101096
13 *245:98 0.000646029
14 *245:92 0.000728625
15 *245:37 0.000841101
16 *245:33 0.000483866
17 *245:31 0.000117178
18 *245:29 0.00134193
19 *245:23 0.00158786
20 *245:4 0.000561819
21 *3707:A *3707:C 3.47641e-06
22 *3707:A *3719:A1 1.38247e-05
23 *3731:A1 *3731:B1 4.44999e-05
24 *3795:A *3788:A2 0.000145994
25 *3820:A0 *3713:A 0.000104974
26 *3820:A0 *3817:A 0
27 *3820:A0 *272:14 0
28 *3820:A0 *272:20 5.33005e-05
29 *3849:A1 *279:35 1.56e-05
30 *245:23 *3708:A 5.59013e-05
31 *245:23 *246:10 0.000167022
32 *245:23 *247:33 5.41794e-05
33 *245:23 *267:44 2.6949e-05
34 *245:23 *267:59 6.06767e-05
35 *245:23 *272:14 0.000276943
36 *245:23 *272:20 4.27935e-05
37 *245:92 *267:59 1.89507e-06
38 *245:92 *272:14 9.90819e-06
39 *245:98 *3768:B1 2.72449e-05
40 *245:98 *272:14 0.000698447
41 *245:98 *274:29 0.000128154
42 *3719:A2 *3707:A 2.89114e-05
43 *3732:A *3707:A 0.000142965
44 *3732:B *3731:A1 1.74352e-05
45 *3734:B *245:37 4.70981e-05
46 *3781:B *245:98 4.98872e-05
47 *3788:B1 *3795:A 1.95127e-05
48 *3792:A *245:92 0.000146474
49 *3793:B1 *245:23 4.33002e-05
50 *3794:C *3794:A 0.000123617
51 *3797:A *3795:A 3.82891e-06
52 *3833:A3 *245:33 0
53 *3839:A_N *245:98 0.000296852
54 *3845:A1 *3849:A1 0.000138881
55 *3845:A1 *245:33 6.74911e-05
56 *3845:A3 *3846:A1 0
57 *3846:A2 *3846:A1 8.41284e-06
58 *3846:A2 *245:31 4.36551e-06
59 *3846:A2 *245:33 1.88048e-05
60 *3849:A2 *3849:A1 0.000181796
61 *3849:A2 *245:33 0
62 *3849:B1 *245:29 0.000511275
63 *3854:A3 *3846:A1 1.98839e-05
64 *3856:C *3731:A1 2.87555e-06
65 *55:18 *3820:A0 5.80706e-06
66 *58:8 *3820:A0 3.38136e-05
67 *68:42 *245:37 0.000149911
68 *77:6 *3820:A0 0.000269422
69 *77:6 *245:23 5.33005e-05
70 *79:8 *3707:A 6.42095e-05
71 *79:8 *3731:A1 1.39841e-05
72 *80:10 *3707:A 5.71472e-05
73 *80:10 *245:37 3.08907e-05
74 *131:22 *245:98 2.98674e-05
75 *132:29 *3794:A 2.84494e-05
76 *132:29 *245:92 2.84009e-05
77 *132:29 *245:98 0.000214172
78 *139:6 *3794:A 5.52302e-05
79 *141:14 *3794:A 0.000180764
80 *170:14 *3707:A 0
81 *173:12 *245:33 7.80714e-06
82 *173:12 *245:37 0.000124842
83 *179:39 *3707:A 0.000103981
84 *179:39 *245:37 0
85 *180:16 *3807:A 9.90367e-05
86 *192:12 *3846:A1 0.000126439
87 *192:16 *3846:A1 5.52238e-05
88 *213:42 *3807:A 9.90367e-05
89 *213:42 *245:29 0.000152412
90 *214:25 *245:33 9.4724e-05
91 *214:25 *245:37 0.000741413
92 *214:100 *245:29 3.7143e-05
*RES
1 *3692:X *245:4 9.3 
2 *245:4 *3820:A0 23.7464 
3 *245:4 *245:23 13.2054 
4 *245:23 *245:29 9.2452 
5 *245:29 *245:31 0.276786 
6 *245:31 *245:33 2.25 
7 *245:33 *245:37 14.0357 
8 *245:37 *3731:A1 11.4786 
9 *245:37 *3707:A 24.9071 
10 *245:33 *3849:A1 15.9786 
11 *245:31 *3807:A 14.7464 
12 *245:29 *3846:A1 16.8446 
13 *245:23 *245:92 2.40179 
14 *245:92 *245:98 21.8571 
15 *245:98 *3788:A1 9.3 
16 *245:98 *3795:A 10.7554 
17 *245:92 *245:114 0.535714 
18 *245:114 *3794:A 16.3 
19 *245:114 *3806:A1 13.8 
*END

*D_NET *246 0.0104394
*CONN
*I *3819:A1 I *D sky130_fd_sc_hd__a31o_1
*I *3723:B2 I *D sky130_fd_sc_hd__a22o_1
*I *3740:A I *D sky130_fd_sc_hd__nand4_1
*I *3739:B2 I *D sky130_fd_sc_hd__a22o_1
*I *3755:A I *D sky130_fd_sc_hd__nand4_2
*I *3724:A I *D sky130_fd_sc_hd__nand4_1
*I *3695:A I *D sky130_fd_sc_hd__nand4_1
*I *3818:A1 I *D sky130_fd_sc_hd__o21ai_1
*I *3697:B2 I *D sky130_fd_sc_hd__a22o_1
*I *3710:A I *D sky130_fd_sc_hd__nand2_1
*I *3693:X O *D sky130_fd_sc_hd__buf_2
*CAP
1 *3819:A1 0
2 *3723:B2 7.78183e-05
3 *3740:A 0
4 *3739:B2 1.16062e-05
5 *3755:A 0
6 *3724:A 0.000100571
7 *3695:A 2.63024e-05
8 *3818:A1 0
9 *3697:B2 0.000151369
10 *3710:A 8.16507e-05
11 *3693:X 0.000328629
12 *246:91 9.0117e-05
13 *246:85 0.000452929
14 *246:66 0.000586395
15 *246:62 0.000412142
16 *246:44 2.63024e-05
17 *246:42 0.000353006
18 *246:25 0.000752844
19 *246:12 0.000573135
20 *246:10 0.000348725
21 *3695:A *300:57 9.71197e-05
22 *3697:B2 *3697:B1 0.000158654
23 *3697:B2 *3735:B 2.42445e-05
24 *3697:B2 *249:134 3.17067e-05
25 *3697:B2 *266:35 0
26 *3697:B2 *303:42 2.05938e-05
27 *3710:A *3712:A 2.52082e-05
28 *3710:A *267:44 0.000141526
29 *3723:B2 *3723:A1 1.3701e-05
30 *3723:B2 *3723:B1 1.74352e-05
31 *3723:B2 *247:99 9.71197e-05
32 *3723:B2 *247:112 8.36572e-05
33 *3723:B2 *272:20 0.000213172
34 *3724:A *3724:C 1.21812e-05
35 *3739:B2 *3755:B 5.52302e-05
36 *246:10 *3708:A 0.000217305
37 *246:10 *3712:A 6.03211e-05
38 *246:10 *267:44 0.000716526
39 *246:10 *279:35 9.60939e-05
40 *246:12 *3712:A 1.69115e-05
41 *246:12 *267:44 5.59013e-05
42 *246:42 *3697:B1 7.6644e-05
43 *246:62 *3695:B 0.000173083
44 *246:62 *3697:B1 4.66511e-05
45 *246:62 *3724:C 0.000289564
46 *246:62 *247:99 0.000274288
47 *246:62 *264:51 8.07313e-05
48 *246:62 *264:62 1.39841e-05
49 *246:62 *272:20 0.000537171
50 *246:66 *247:99 0
51 *246:85 *264:51 0
52 *246:85 *296:98 9.60939e-05
53 *246:91 *247:127 2.16719e-05
54 *3714:A *3710:A 2.63834e-05
55 *3725:B1_N *246:85 1.04114e-05
56 *3736:A *3724:A 7.19827e-05
57 *3737:B1 *246:85 0
58 *3740:D *246:85 2.8266e-06
59 *3742:B1 *246:85 0.000170654
60 *3742:B1 *246:91 5.59013e-05
61 *3743:A *246:85 5.33005e-05
62 *3743:B *246:85 0
63 *3832:B *246:25 5.33005e-05
64 *3:13 *246:42 4.02462e-05
65 *3:13 *246:62 2.26424e-05
66 *69:21 *3724:A 5.694e-05
67 *70:10 *246:62 2.24763e-05
68 *71:33 *246:85 4.62632e-05
69 *72:20 *246:66 9.24395e-05
70 *72:20 *246:85 4.60387e-05
71 *87:10 *246:85 1.21258e-05
72 *88:8 *246:91 0.000172375
73 *165:6 *246:25 0.000589806
74 *165:6 *246:42 5.52302e-05
75 *212:82 *3739:B2 5.52302e-05
76 *213:83 *246:91 0.000173804
77 *213:89 *246:85 4.55187e-05
78 *214:100 *246:85 6.52967e-05
79 *217:27 *3695:A 5.03772e-05
80 *217:27 *246:42 6.87146e-05
81 *217:43 *3697:B2 7.40571e-05
82 *245:23 *246:10 0.000167022
*RES
1 *3693:X *246:10 23.9786 
2 *246:10 *246:12 0.732143 
3 *246:12 *3710:A 15.7464 
4 *246:12 *246:25 10.7857 
5 *246:25 *3697:B2 22.3714 
6 *246:25 *246:42 6.89286 
7 *246:42 *246:44 4.5 
8 *246:44 *3818:A1 9.3 
9 *246:44 *3695:A 10.2464 
10 *246:42 *246:62 13.9286 
11 *246:62 *246:66 6.75 
12 *246:66 *3724:A 16.0143 
13 *246:66 *246:85 11.0357 
14 *246:85 *246:91 11.8571 
15 *246:91 *3755:A 9.3 
16 *246:91 *3739:B2 9.83571 
17 *246:85 *3740:A 9.3 
18 *246:62 *3723:B2 12.2107 
19 *246:10 *3819:A1 13.8 
*END

*D_NET *247 0.0131308
*CONN
*I *3724:B I *D sky130_fd_sc_hd__nand4_1
*I *3739:A1 I *D sky130_fd_sc_hd__a22o_1
*I *3755:B I *D sky130_fd_sc_hd__nand4_2
*I *3740:B I *D sky130_fd_sc_hd__nand4_1
*I *3723:A1 I *D sky130_fd_sc_hd__a22o_1
*I *3785:A I *D sky130_fd_sc_hd__and4_1
*I *3695:B I *D sky130_fd_sc_hd__nand4_1
*I *3711:A I *D sky130_fd_sc_hd__nand2_1
*I *3793:B2 I *D sky130_fd_sc_hd__a22o_1
*I *3712:A I *D sky130_fd_sc_hd__or2_1
*I *3694:X O *D sky130_fd_sc_hd__buf_2
*CAP
1 *3724:B 3.36837e-05
2 *3739:A1 5.01221e-05
3 *3755:B 9.15133e-05
4 *3740:B 0.00013718
5 *3723:A1 1.39026e-05
6 *3785:A 0.000277789
7 *3695:B 0.000437957
8 *3711:A 0
9 *3793:B2 0.000237848
10 *3712:A 0.000240007
11 *3694:X 0
12 *247:127 0.00025215
13 *247:112 0.000478496
14 *247:99 0.000438165
15 *247:89 0.000632354
16 *247:33 0.000342676
17 *247:18 0.000720065
18 *247:14 0.000965858
19 *247:10 0.000536637
20 *247:4 0.000511386
21 *3695:B *3727:A 0
22 *3695:B *300:57 0.00014183
23 *3712:A *3708:A 4.25427e-05
24 *3723:A1 *3723:A2 1.04232e-05
25 *3724:B *3724:C 1.24368e-05
26 *3740:B *296:98 0.000178847
27 *3785:A *263:23 0.000113682
28 *3785:A *266:22 0.000183216
29 *3785:A *266:35 1.78447e-05
30 *3793:B2 *249:54 0.000293178
31 *3793:B2 *249:96 5.33005e-05
32 *3793:B2 *272:14 0.000554273
33 *247:10 *3694:A 3.03129e-05
34 *247:14 *263:23 4.75521e-05
35 *247:14 *266:35 4.43698e-05
36 *247:18 *3713:A 9.71197e-05
37 *247:18 *303:78 5.96516e-05
38 *247:33 *3708:A 4.33438e-05
39 *247:33 *249:48 4.58194e-05
40 *247:33 *272:14 7.6644e-05
41 *247:89 *3724:C 0.000266486
42 *247:99 *3723:A2 1.92789e-05
43 *247:99 *264:51 6.19181e-05
44 *247:99 *264:62 0
45 *247:112 *3723:A2 1.21258e-05
46 *247:112 *3723:B1 2.59355e-05
47 *247:112 *279:35 0.000148189
48 *247:127 *279:35 0.000105689
49 *247:127 *296:36 5.75896e-05
50 *3710:A *3712:A 2.52082e-05
51 *3713:B *3712:A 3.56212e-05
52 *3714:A *3712:A 5.4695e-05
53 *3714:B *3712:A 6.72827e-05
54 *3723:B2 *3723:A1 1.3701e-05
55 *3723:B2 *247:99 9.71197e-05
56 *3723:B2 *247:112 8.36572e-05
57 *3725:B1_N *247:112 6.81196e-05
58 *3736:A *3724:B 1.56e-05
59 *3739:B2 *3755:B 5.52302e-05
60 *3745:A2 *3695:B 0.000177821
61 *3745:A2 *247:14 9.25014e-06
62 *3745:B1_N *247:14 6.09572e-05
63 *3746:C *247:10 2.87485e-05
64 *3746:C *247:89 0.000115674
65 *3755:D *3755:B 0
66 *3779:A1 *247:89 9.60939e-05
67 *3779:B1 *247:89 7.17235e-05
68 *3820:S *3712:A 0.000150618
69 *3:13 *3695:B 0.00010326
70 *55:66 *247:18 9.20635e-06
71 *58:8 *3712:A 1.59782e-05
72 *58:8 *247:33 1.9643e-05
73 *70:10 *247:99 9.24825e-05
74 *74:25 *247:14 5.74562e-05
75 *75:8 *3695:B 0.000473747
76 *77:6 *247:33 9.60875e-05
77 *127:14 *3785:A 4.76575e-05
78 *212:80 *3739:A1 2.44318e-05
79 *212:82 *3739:A1 2.89114e-05
80 *212:82 *3755:B 8.86314e-05
81 *212:121 *3755:B 0
82 *213:70 *3785:A 2.89016e-05
83 *213:83 *3755:B 0.000180764
84 *213:83 *247:112 0.00012401
85 *213:83 *247:127 0.000211913
86 *213:89 *247:112 0.000404889
87 *214:88 *247:112 0.000153854
88 *245:23 *247:33 5.41794e-05
89 *246:10 *3712:A 6.03211e-05
90 *246:12 *3712:A 1.69115e-05
91 *246:62 *3695:B 0.000173083
92 *246:62 *247:99 0.000274288
93 *246:66 *247:99 0
94 *246:91 *247:127 2.16719e-05
*RES
1 *3694:X *247:4 9.3 
2 *247:4 *247:10 5.98214 
3 *247:10 *247:14 7.96429 
4 *247:14 *247:18 8.73214 
5 *247:18 *3712:A 19.6929 
6 *247:18 *247:33 7.39286 
7 *247:33 *3793:B2 25.9429 
8 *247:33 *3711:A 9.3 
9 *247:14 *3695:B 27.3893 
10 *247:10 *3785:A 20.1571 
11 *247:4 *247:89 6.85714 
12 *247:89 *247:99 14.4821 
13 *247:99 *3723:A1 9.72857 
14 *247:99 *247:112 12.25 
15 *247:112 *3740:B 15.5679 
16 *247:112 *247:127 8.39286 
17 *247:127 *3755:B 11.9071 
18 *247:127 *3739:A1 10.675 
19 *247:89 *3724:B 9.83571 
*END

*D_NET *248 0.00202939
*CONN
*I *3726:B1 I *D sky130_fd_sc_hd__a22o_1
*I *3698:C I *D sky130_fd_sc_hd__nand4_1
*I *3699:A I *D sky130_fd_sc_hd__and2_1
*I *3695:Y O *D sky130_fd_sc_hd__nand4_1
*CAP
1 *3726:B1 2.04426e-05
2 *3698:C 4.36033e-05
3 *3699:A 0.000183414
4 *3695:Y 0.000142428
5 *248:12 0.000269574
6 *248:10 0.000205428
7 *3698:C *249:134 5.33005e-05
8 *3699:A *3726:B2 5.41794e-05
9 *3699:A *3875:D 7.43578e-06
10 *3699:A *251:21 0.000126439
11 *3699:A *265:31 0.000186662
12 *3699:A *277:22 0.000105163
13 *3726:B1 *302:50 5.33005e-05
14 *3726:B1 *303:42 2.59355e-05
15 *248:10 *3695:C 4.78056e-05
16 *248:10 *251:21 0.000144038
17 *248:10 *301:82 2.26327e-05
18 *248:12 *3726:B2 0.000116474
19 *248:12 *251:21 0.00012401
20 *3:13 *3699:A 0
21 *217:27 *248:10 9.71197e-05
*RES
1 *3695:Y *248:10 16.6929 
2 *248:10 *248:12 1.64286 
3 *248:12 *3699:A 18.7286 
4 *248:12 *3698:C 14.3357 
5 *248:10 *3726:B1 14.3357 
*END

*D_NET *249 0.0133363
*CONN
*I *3698:A I *D sky130_fd_sc_hd__nand4_1
*I *3726:A1 I *D sky130_fd_sc_hd__a22o_1
*I *3709:A2 I *D sky130_fd_sc_hd__a31o_1
*I *3711:B I *D sky130_fd_sc_hd__nand2_1
*I *3793:A1 I *D sky130_fd_sc_hd__a22o_1
*I *3785:B I *D sky130_fd_sc_hd__and4_1
*I *3849:B2 I *D sky130_fd_sc_hd__a22o_1
*I *3807:B I *D sky130_fd_sc_hd__and4_1
*I *3712:B I *D sky130_fd_sc_hd__or2_1
*I *3700:B I *D sky130_fd_sc_hd__nand2_1
*I *3696:X O *D sky130_fd_sc_hd__buf_2
*CAP
1 *3698:A 3.50099e-05
2 *3726:A1 8.62093e-05
3 *3709:A2 0
4 *3711:B 0
5 *3793:A1 0
6 *3785:B 0.00030552
7 *3849:B2 1.67089e-05
8 *3807:B 0.0004794
9 *3712:B 0.000128172
10 *3700:B 3.08774e-05
11 *3696:X 2.96064e-05
12 *249:134 0.000694335
13 *249:96 0.000413012
14 *249:66 0.00106045
15 *249:54 0.00101824
16 *249:48 0.000935536
17 *249:27 0.00079139
18 *249:16 0.00033146
19 *249:10 0.000361708
20 *249:6 0.000737936
21 *3698:A *3698:B 1.5424e-05
22 *3698:A *302:28 5.71472e-05
23 *3700:B *3700:A 5.04841e-06
24 *3700:B *252:20 1.6549e-05
25 *3700:B *303:61 0
26 *3712:B *3710:B 1.00733e-05
27 *3712:B *302:52 1.98839e-05
28 *3712:B *302:54 7.32173e-05
29 *3726:A1 *251:21 0.000147474
30 *3726:A1 *302:41 0.000100831
31 *3785:B *3785:D 2.59355e-05
32 *3807:B *279:12 2.84494e-05
33 *3807:B *279:35 0.000186721
34 *3849:B2 *279:35 2.89114e-05
35 *249:6 *277:22 5.30637e-06
36 *249:10 *3709:A1 0.00014285
37 *249:10 *3709:B1 1.02936e-05
38 *249:16 *3704:A 0.000122226
39 *249:16 *3709:B1 4.58194e-05
40 *249:16 *254:6 7.77652e-05
41 *249:16 *263:23 0
42 *249:16 *267:44 1.81709e-05
43 *249:16 *301:69 0.000154997
44 *249:16 *303:78 7.98175e-05
45 *249:27 *263:23 6.67737e-05
46 *249:27 *303:78 0.0001144
47 *249:48 *263:23 0.000637596
48 *249:48 *264:62 0.00018077
49 *249:48 *267:44 0.000121446
50 *249:48 *303:78 0.000391249
51 *249:54 *272:14 6.20091e-06
52 *249:134 *3697:A1 8.55687e-05
53 *249:134 *3698:B 1.24368e-05
54 *249:134 *3698:D 5.33005e-05
55 *249:134 *3699:B 8.25843e-06
56 *249:134 *3709:A1 0.000217663
57 *249:134 *3875:CLK 0
58 *249:134 *250:8 2.78509e-05
59 *249:134 *252:20 0
60 *249:134 *301:69 7.49387e-06
61 *249:134 *301:82 0.00018372
62 *249:134 *302:28 2.01281e-05
63 *249:134 *303:42 9.25014e-06
64 *3697:B2 *249:134 3.17067e-05
65 *3698:C *249:134 5.33005e-05
66 *3793:A2 *3785:B 7.34187e-06
67 *3793:A2 *249:96 1.78303e-05
68 *3793:B1 *249:96 2.59355e-05
69 *3793:B2 *249:54 0.000293178
70 *3793:B2 *249:96 5.33005e-05
71 *3815:A1 *249:54 0
72 *3815:A1 *249:66 4.35336e-05
73 *3815:A2 *249:66 5.52238e-05
74 *3833:A1 *249:66 3.25078e-05
75 *3833:B1 *249:66 0.000217539
76 *3849:A2 *3807:B 0.000128161
77 *3849:B1 *3849:B2 5.33005e-05
78 *3850:A3 *3807:B 0.000265453
79 *56:8 *249:10 3.08382e-06
80 *56:8 *249:16 2.44318e-05
81 *77:6 *249:48 8.98372e-05
82 *94:16 *249:54 0
83 *162:16 *249:66 0.000189471
84 *163:8 *3807:B 2.37761e-05
85 *163:8 *249:66 2.61337e-05
86 *179:39 *3807:B 2.34204e-05
87 *209:16 *249:6 9.22103e-06
88 *209:16 *249:10 1.32552e-05
89 *213:42 *3785:B 2.24371e-05
90 *213:42 *249:66 0.000265784
91 *213:42 *249:96 0.000219094
92 *213:51 *3785:B 6.49803e-05
93 *213:70 *3785:B 1.39726e-05
94 *214:25 *3807:B 5.0725e-05
95 *247:33 *249:48 4.58194e-05
*RES
1 *3696:X *249:6 9.83571 
2 *249:6 *249:10 2.60714 
3 *249:10 *249:16 9.83929 
4 *249:16 *3700:B 14.5321 
5 *249:16 *249:27 1.64286 
6 *249:27 *3712:B 15.9964 
7 *249:27 *249:48 17.9107 
8 *249:48 *249:54 16.4107 
9 *249:54 *249:66 16.1786 
10 *249:66 *3807:B 31.0321 
11 *249:66 *3849:B2 14.3357 
12 *249:54 *249:96 3.01786 
13 *249:96 *3785:B 13.4429 
14 *249:96 *3793:A1 9.3 
15 *249:48 *3711:B 9.3 
16 *249:10 *3709:A2 9.3 
17 *249:6 *249:134 18.7143 
18 *249:134 *3726:A1 20.2464 
19 *249:134 *3698:A 10.2464 
*END

*D_NET *250 0.000915491
*CONN
*I *3698:D I *D sky130_fd_sc_hd__nand4_1
*I *3726:B2 I *D sky130_fd_sc_hd__a22o_1
*I *3697:X O *D sky130_fd_sc_hd__a22o_1
*CAP
1 *3698:D 1.69613e-05
2 *3726:B2 8.13327e-05
3 *3697:X 5.34129e-05
4 *250:8 0.000151707
5 *3698:D *3699:B 1.39726e-05
6 *3726:B2 *301:82 0.000148189
7 *250:8 *3699:B 5.76121e-05
8 *250:8 *301:69 3.37729e-05
9 *250:8 *301:82 0.000106726
10 *3699:A *3726:B2 5.41794e-05
11 *3:13 *3726:B2 0
12 *248:12 *3726:B2 0.000116474
13 *249:134 *3698:D 5.33005e-05
14 *249:134 *250:8 2.78509e-05
*RES
1 *3697:X *250:8 11.3893 
2 *250:8 *3726:B2 20.55 
3 *250:8 *3698:D 9.83571 
*END

*D_NET *251 0.00257967
*CONN
*I *3727:A I *D sky130_fd_sc_hd__nand3_1
*I *3728:A1 I *D sky130_fd_sc_hd__a21o_1
*I *3699:B I *D sky130_fd_sc_hd__and2_1
*I *3698:Y O *D sky130_fd_sc_hd__nand4_1
*CAP
1 *3727:A 0.000102594
2 *3728:A1 4.18998e-05
3 *3699:B 0.000284392
4 *3698:Y 0
5 *251:21 0.000494845
6 *251:4 0.000634743
7 *3699:B *3875:CLK 0.000150618
8 *3699:B *301:69 1.24368e-05
9 *3699:B *301:82 1.57523e-05
10 *251:21 *3695:C 2.60158e-05
11 *251:21 *302:41 1.17968e-05
12 *3695:B *3727:A 0
13 *3698:D *3699:B 1.39726e-05
14 *3699:A *251:21 0.000126439
15 *3726:A1 *251:21 0.000147474
16 *3728:A2 *3728:A1 1.24368e-05
17 *3728:B1 *3728:A1 1.55885e-05
18 *3:13 *3699:B 0.000150618
19 *3:13 *3727:A 0
20 *3:13 *251:21 0
21 *72:20 *3727:A 0
22 *73:12 *3727:A 4.1331e-06
23 *73:12 *251:21 0
24 *214:77 *3727:A 0
25 *214:77 *251:21 0
26 *214:88 *3727:A 0
27 *248:10 *251:21 0.000144038
28 *248:12 *251:21 0.00012401
29 *249:134 *3699:B 8.25843e-06
30 *250:8 *3699:B 5.76121e-05
*RES
1 *3698:Y *251:4 9.3 
2 *251:4 *3699:B 23.2464 
3 *251:4 *251:21 11.9107 
4 *251:21 *3728:A1 14.3357 
5 *251:21 *3727:A 15.0679 
*END

*D_NET *252 0.005433
*CONN
*I *3705:A_N I *D sky130_fd_sc_hd__and2b_1
*I *3706:B I *D sky130_fd_sc_hd__xnor2_1
*I *3699:X O *D sky130_fd_sc_hd__and2_1
*CAP
1 *3705:A_N 0
2 *3706:B 8.10118e-05
3 *3699:X 0.00127408
4 *252:20 0.00135509
5 *3706:B *3706:A 0.000139907
6 *3706:B *3707:C 0.00018372
7 *252:20 *3697:A1 0.000312209
8 *252:20 *3700:A 9.03671e-05
9 *252:20 *3706:A 0.000174232
10 *252:20 *3707:C 9.90431e-05
11 *252:20 *3875:CLK 0.000100823
12 *252:20 *257:16 5.1811e-05
13 *252:20 *258:8 5.52238e-05
14 *252:20 *301:69 0.000570226
15 *252:20 *303:61 0.000310025
16 *3700:B *252:20 1.6549e-05
17 *3714:B *252:20 3.67257e-05
18 *3718:A *252:20 4.88637e-05
19 *3823:A0 *252:20 2.78608e-05
20 *3823:A1 *252:20 0.000185643
21 *55:26 *252:20 0.000230475
22 *61:16 *252:20 4.55516e-05
23 *168:16 *252:20 1.02936e-05
24 *170:14 *252:20 3.32631e-05
25 *249:134 *252:20 0
*RES
1 *3699:X *252:20 42.7286 
2 *252:20 *3706:B 11.8 
3 *252:20 *3705:A_N 9.3 
*END

*D_NET *253 0.00037995
*CONN
*I *3704:A I *D sky130_fd_sc_hd__xnor2_1
*I *3700:Y O *D sky130_fd_sc_hd__nand2_1
*CAP
1 *3704:A 6.56442e-05
2 *3700:Y 6.56442e-05
3 *3704:A *3704:B 3.39401e-05
4 *3704:A *3709:A3 0
5 *3704:A *263:23 0
6 *3704:A *267:44 9.24954e-05
7 *249:16 *3704:A 0.000122226
*RES
1 *3700:Y *3704:A 29.5464 
*END

*D_NET *254 0.00152096
*CONN
*I *3709:B1 I *D sky130_fd_sc_hd__a31o_1
*I *3703:A_N I *D sky130_fd_sc_hd__and2b_1
*I *3701:X O *D sky130_fd_sc_hd__and4_1
*CAP
1 *3709:B1 7.24819e-05
2 *3703:A_N 9.0379e-05
3 *3701:X 7.1246e-05
4 *254:6 0.000234107
5 *3703:A_N *3704:B 0
6 *3703:A_N *3709:A3 0.000148182
7 *3709:B1 *3709:A1 3.18676e-05
8 *3709:B1 *277:22 0
9 *254:6 *267:44 0.00010096
10 *254:6 *301:69 6.67417e-05
11 *209:16 *3709:B1 0.000168334
12 *209:16 *254:6 0.000402784
13 *243:26 *3703:A_N 0
14 *249:10 *3709:B1 1.02936e-05
15 *249:16 *3709:B1 4.58194e-05
16 *249:16 *254:6 7.77652e-05
*RES
1 *3701:X *254:6 13.1214 
2 *254:6 *3703:A_N 20.2464 
3 *254:6 *3709:B1 11.4964 
*END

*D_NET *255 0.00107471
*CONN
*I *3709:A3 I *D sky130_fd_sc_hd__a31o_1
*I *3703:B I *D sky130_fd_sc_hd__and2b_1
*I *3702:X O *D sky130_fd_sc_hd__a22o_1
*CAP
1 *3709:A3 0.000121309
2 *3703:B 0
3 *3702:X 3.61771e-05
4 *255:6 0.000157486
5 *3709:A3 *3704:B 0
6 *3709:A3 *263:10 5.83304e-05
7 *3709:A3 *263:23 0.000162118
8 *3703:A_N *3709:A3 0.000148182
9 *3704:A *3709:A3 0
10 *214:6 *3709:A3 0.000175251
11 *214:6 *255:6 0.000144773
12 *243:26 *3709:A3 5.37963e-05
13 *243:26 *255:6 1.72894e-05
*RES
1 *3702:X *255:6 10.6571 
2 *255:6 *3703:B 9.3 
3 *255:6 *3709:A3 22.925 
*END

*D_NET *256 0.000315025
*CONN
*I *3704:B I *D sky130_fd_sc_hd__xnor2_1
*I *3703:X O *D sky130_fd_sc_hd__and2b_1
*CAP
1 *3704:B 0.00011924
2 *3703:X 0.00011924
3 *3704:B *3702:B1 0
4 *3704:B *267:44 3.23542e-05
5 *3703:A_N *3704:B 0
6 *3704:A *3704:B 3.39401e-05
7 *3709:A3 *3704:B 0
8 *243:26 *3704:B 1.02504e-05
*RES
1 *3703:X *3704:B 29.5464 
*END

*D_NET *257 0.00338082
*CONN
*I *3706:A I *D sky130_fd_sc_hd__xnor2_1
*I *3705:B I *D sky130_fd_sc_hd__and2b_1
*I *3704:Y O *D sky130_fd_sc_hd__xnor2_1
*CAP
1 *3706:A 0.000153311
2 *3705:B 0
3 *3704:Y 0.00105633
4 *257:16 0.00120964
5 *257:16 *267:44 4.52549e-05
6 *257:16 *302:71 0
7 *3706:B *3706:A 0.000139907
8 *3714:B *257:16 5.62995e-05
9 *3717:B *257:16 1.98839e-05
10 *3718:A *257:16 1.02936e-05
11 *3822:A2 *257:16 2.89016e-05
12 *3823:A0 *257:16 8.18783e-05
13 *55:26 *257:16 4.63078e-05
14 *61:16 *257:16 0.000181796
15 *168:16 *257:16 2.59355e-05
16 *170:14 *257:16 9.90431e-05
17 *252:20 *3706:A 0.000174232
18 *252:20 *257:16 5.1811e-05
*RES
1 *3704:Y *257:16 32.425 
2 *257:16 *3705:B 9.3 
3 *257:16 *3706:A 13.0321 
*END

*D_NET *258 0.00123368
*CONN
*I *3719:A1 I *D sky130_fd_sc_hd__o21ai_1
*I *3720:B I *D sky130_fd_sc_hd__or3_1
*I *3705:X O *D sky130_fd_sc_hd__and2b_1
*CAP
1 *3719:A1 7.5131e-05
2 *3720:B 0.000249343
3 *3705:X 3.92359e-05
4 *258:8 0.00036371
5 *3719:A1 *3707:C 0
6 *3707:A *3719:A1 1.38247e-05
7 *3719:B1 *3720:B 3.27421e-05
8 *3720:A *3720:B 0.000188586
9 *3720:C *3720:B 0
10 *3721:B *3720:B 9.90367e-05
11 *170:14 *3719:A1 6.25007e-05
12 *170:14 *3720:B 5.43491e-05
13 *252:20 *258:8 5.52238e-05
*RES
1 *3705:X *258:8 14.3357 
2 *258:8 *3720:B 18.8536 
3 *258:8 *3719:A1 15.4429 
*END

*D_NET *259 0.00212447
*CONN
*I *3707:C I *D sky130_fd_sc_hd__and3_1
*I *3731:B1 I *D sky130_fd_sc_hd__a21oi_1
*I *3706:Y O *D sky130_fd_sc_hd__xnor2_1
*CAP
1 *3707:C 0.000371168
2 *3731:B1 0.000240695
3 *3706:Y 0
4 *259:4 0.000611863
5 *3706:B *3707:C 0.00018372
6 *3707:A *3707:C 3.47641e-06
7 *3719:A1 *3707:C 0
8 *3719:A2 *3707:C 2.04134e-05
9 *3720:C *3707:C 4.92942e-05
10 *3731:A1 *3731:B1 4.44999e-05
11 *3731:A2 *3731:B1 0.000159449
12 *3732:A *3707:C 3.39401e-05
13 *3732:B *3731:B1 4.34697e-05
14 *3856:C *3731:B1 3.11378e-05
15 *3873:A1 *3731:B1 0.00020176
16 *214:25 *3731:B1 0
17 *243:43 *3707:C 3.05446e-05
18 *252:20 *3707:C 9.90431e-05
*RES
1 *3706:Y *259:4 9.3 
2 *259:4 *3731:B1 24.4071 
3 *259:4 *3707:C 23.8536 
*END

*D_NET *260 0.00393218
*CONN
*I *3889:A I *D sky130_fd_sc_hd__clkbuf_16
*I *3890:A I *D sky130_fd_sc_hd__clkbuf_16
*I *3888:X O *D sky130_fd_sc_hd__clkbuf_16
*CAP
1 *3889:A 0.000886207
2 *3890:A 4.53007e-05
3 *3888:X 0.000236218
4 *260:10 0.00116773
5 *3889:A *3874:CLK 0.00099801
6 *3889:A *266:45 0.00019941
7 *3889:A *277:22 0
8 *3890:A *263:23 1.94945e-05
9 *3890:A *302:52 2.59355e-05
10 *260:10 *263:23 0.000124757
11 *260:10 *266:35 0
12 *3718:B *3889:A 0
13 *3729:A_N *260:10 0.000126439
14 *3729:B *260:10 1.78447e-05
15 *3729:C *260:10 4.15914e-05
16 *3732:A *3889:A 2.11419e-05
17 *3745:B1_N *260:10 9.25014e-06
18 *214:25 *3889:A 1.28585e-05
*RES
1 *3888:X *260:10 18.8625 
2 *260:10 *3890:A 14.6125 
3 *260:10 *3889:A 23.7544 
*END

*D_NET *261 0.0077675
*CONN
*I *3876:CLK I *D sky130_fd_sc_hd__dfrtp_1
*I *3878:CLK I *D sky130_fd_sc_hd__dfrtp_1
*I *3877:CLK I *D sky130_fd_sc_hd__dfrtp_2
*I *3879:CLK I *D sky130_fd_sc_hd__dfrtp_1
*I *3887:CLK I *D sky130_fd_sc_hd__dfrtp_1
*I *3880:CLK I *D sky130_fd_sc_hd__dfrtp_1
*I *3886:CLK I *D sky130_fd_sc_hd__dfrtp_1
*I *3885:CLK I *D sky130_fd_sc_hd__dfrtp_1
*I *3889:X O *D sky130_fd_sc_hd__clkbuf_16
*CAP
1 *3876:CLK 0.000115419
2 *3878:CLK 0.000547698
3 *3877:CLK 3.31996e-05
4 *3879:CLK 0
5 *3887:CLK 7.60064e-05
6 *3880:CLK 2.47714e-05
7 *3886:CLK 0
8 *3885:CLK 0.000178723
9 *3889:X 2.9238e-05
10 *261:92 0.000822913
11 *261:79 0.000379018
12 *261:64 0.000467815
13 *261:33 0.000269368
14 *261:16 0.000868923
15 *261:10 0.000561097
16 *261:8 0.000350518
17 *3876:CLK *3855:A2 0.000161878
18 *3877:CLK *3877:RESET_B 1.39841e-05
19 *3878:CLK *3855:A2 5.03772e-05
20 *3878:CLK *3878:RESET_B 9.46929e-05
21 *3880:CLK *293:22 2.89016e-05
22 *261:16 *3869:A1 0
23 *261:33 *293:22 3.07455e-05
24 *261:92 *293:86 0
25 *3656:A *261:8 5.33005e-05
26 *3847:B1 *3878:CLK 0.000125717
27 *3847:B1 *261:92 5.16489e-05
28 *3855:B2 *261:92 2.87473e-05
29 *3856:A *261:64 9.97744e-05
30 *3870:A *3885:CLK 0
31 *3871:B1 *3885:CLK 0.000103285
32 *3871:B1 *261:16 6.09476e-05
33 *3874:D *261:10 0.000117196
34 *3874:D *261:16 0.000197984
35 *3874:D *261:64 0.00019187
36 *3876:D *3876:CLK 7.3237e-05
37 *3876:D *3878:CLK 3.75052e-05
38 *3876:D *261:92 5.83233e-05
39 *3877:D *3877:CLK 6.05161e-06
40 *3877:D *261:79 5.83233e-05
41 *3877:D *261:92 0.000128161
42 *3879:D *261:64 0
43 *3885:D *3885:CLK 0
44 *3886:D *3885:CLK 2.19778e-05
45 *3886:D *261:16 2.37761e-05
46 *3886:D *261:33 5.17614e-05
47 *3887:D *3887:CLK 2.59355e-05
48 *209:74 *261:16 0
49 *210:10 *261:16 2.03079e-05
50 *210:25 *261:16 5.98939e-05
51 *211:83 *261:64 1.21041e-05
52 *211:100 *261:64 0
53 *211:100 *261:79 5.16759e-05
54 *211:100 *261:92 5.16489e-05
55 *243:55 *261:16 2.019e-07
56 *243:79 *261:10 0.000125724
57 *243:79 *261:16 0.000128168
58 *243:79 *261:64 0.000387425
59 *244:39 *261:64 0.00020648
60 *244:39 *261:79 0
61 *244:39 *261:92 3.32354e-05
62 *244:54 *261:92 6.98302e-05
*RES
1 *3889:X *261:8 14.3357 
2 *261:8 *261:10 1.64286 
3 *261:10 *261:16 8.07143 
4 *261:16 *3885:CLK 16.9607 
5 *261:16 *261:33 7.94643 
6 *261:33 *3886:CLK 9.3 
7 *261:33 *3880:CLK 9.83571 
8 *261:10 *3887:CLK 15.1929 
9 *261:8 *261:64 12.75 
10 *261:64 *3879:CLK 9.3 
11 *261:64 *261:79 8.25 
12 *261:79 *3877:CLK 14.3357 
13 *261:79 *261:92 9.48214 
14 *261:92 *3878:CLK 26.2643 
15 *261:92 *3876:CLK 12.3 
*END

*D_NET *262 0.0155364
*CONN
*I *3883:CLK I *D sky130_fd_sc_hd__dfrtp_1
*I *3882:CLK I *D sky130_fd_sc_hd__dfrtp_1
*I *3884:CLK I *D sky130_fd_sc_hd__dfrtp_2
*I *3881:CLK I *D sky130_fd_sc_hd__dfrtp_1
*I *3874:CLK I *D sky130_fd_sc_hd__dfrtp_1
*I *3875:CLK I *D sky130_fd_sc_hd__dfrtp_1
*I *3890:X O *D sky130_fd_sc_hd__clkbuf_16
*CAP
1 *3883:CLK 0.000345682
2 *3882:CLK 0.000108169
3 *3884:CLK 9.98559e-05
4 *3881:CLK 0.000155598
5 *3874:CLK 0.00231373
6 *3875:CLK 0.00040656
7 *3890:X 0
8 *262:62 0.000518671
9 *262:40 0.000348606
10 *262:38 0.00172555
11 *262:6 0.00272029
12 *262:4 0.00156758
13 *3874:CLK *3697:B1 1.10632e-05
14 *3874:CLK *266:45 4.26862e-05
15 *3874:CLK *277:22 0
16 *3875:CLK *3697:B1 0.000245853
17 *3875:CLK *265:14 8.82021e-05
18 *3875:CLK *277:22 0
19 *3881:CLK *3687:A1 1.02504e-05
20 *3881:CLK *3891:A 5.76121e-05
21 *3881:CLK *275:10 0.000364245
22 *3883:CLK *3865:A1 0
23 *3883:CLK *3867:A1 0
24 *262:38 *3666:A 1.58163e-05
25 *262:38 *3687:A1 2.15245e-05
26 *262:38 *301:94 0.000398988
27 *262:38 *302:50 0.000113083
28 *262:38 *303:34 0.000125423
29 *262:40 *3687:A1 0.000191877
30 *262:40 *3867:A1 0
31 *262:62 *3867:A1 0
32 *3666:B *262:38 5.62995e-05
33 *3667:B *262:38 0.000186379
34 *3669:B *262:38 4.87953e-05
35 *3686:B1 *3883:CLK 1.33442e-05
36 *3699:B *3875:CLK 0.000150618
37 *3863:B1 *3883:CLK 0.000202842
38 *3863:B1 *262:40 9.25014e-06
39 *3863:B1 *262:62 0.000126439
40 *3865:A3 *3883:CLK 0.000182889
41 *3881:D *3881:CLK 2.44318e-05
42 *3883:D *3883:CLK 3.47737e-05
43 *3889:A *3874:CLK 0.00099801
44 *3:13 *3874:CLK 7.69776e-06
45 *3:13 *3875:CLK 0.00023564
46 *211:14 *3874:CLK 0
47 *211:73 *3874:CLK 0
48 *214:47 *3875:CLK 0.000156926
49 *220:8 *262:38 0.000223564
50 *223:10 *262:38 2.24599e-05
51 *236:16 *3883:CLK 0
52 *243:26 *3875:CLK 0.000219828
53 *243:79 *3874:CLK 0.000114992
54 *243:117 *3881:CLK 0.00017738
55 *243:130 *3881:CLK 0.000100735
56 *243:130 *262:40 0.00014535
57 *249:134 *3875:CLK 0
58 *252:20 *3875:CLK 0.000100823
*RES
1 *3890:X *262:4 9.3 
2 *262:4 *262:6 4.5 
3 *262:6 *3875:CLK 25.6393 
4 *262:6 *3874:CLK 27.4795 
5 *262:4 *262:38 25.1607 
6 *262:38 *262:40 3.46429 
7 *262:40 *3881:CLK 19.8357 
8 *262:40 *3884:CLK 15.1571 
9 *262:38 *262:62 1.64286 
10 *262:62 *3882:CLK 15.1571 
11 *262:62 *3883:CLK 21.8714 
*END

*D_NET *263 0.018701
*CONN
*I *3768:B1 I *D sky130_fd_sc_hd__a22o_1
*I *3769:D I *D sky130_fd_sc_hd__nand4_1
*I *3785:D I *D sky130_fd_sc_hd__and4_1
*I *3660:A I *D sky130_fd_sc_hd__clkbuf_4
*I *3897:X O *D sky130_fd_sc_hd__clkbuf_2
*CAP
1 *3768:B1 4.55284e-05
2 *3769:D 1.27684e-05
3 *3785:D 3.94971e-05
4 *3660:A 0
5 *3897:X 0
6 *263:42 0.000514013
7 *263:23 0.00151497
8 *263:10 0.00252314
9 *263:6 0.00572474
10 *263:4 0.00422135
11 *3768:B1 *274:29 0.00010326
12 *3769:D *3769:C 2.14658e-05
13 *3769:D *274:21 7.43578e-06
14 *263:10 *265:14 0
15 *263:23 *3709:A1 0
16 *263:23 *265:14 0
17 *263:23 *266:35 4.1984e-05
18 *263:23 *266:45 1.01912e-05
19 *263:23 *267:44 6.88974e-05
20 *263:23 *267:59 4.21103e-05
21 *263:23 *277:22 0
22 *263:23 *301:69 0
23 *263:42 *3769:B 2.89114e-05
24 *263:42 *3769:C 6.05161e-06
25 *263:42 *266:22 0
26 *263:42 *267:59 0.000933232
27 *263:42 *267:68 1.02504e-05
28 *3704:A *263:23 0
29 *3709:A3 *263:10 5.83304e-05
30 *3709:A3 *263:23 0.000162118
31 *3729:A_N *263:23 0.000128146
32 *3745:B1_N *263:23 0.000236092
33 *3776:C_N *263:42 8.59039e-05
34 *3785:A *263:23 0.000113682
35 *3785:B *3785:D 2.59355e-05
36 *3785:C *3785:D 5.7661e-06
37 *3793:A2 *3785:D 2.79509e-06
38 *3890:A *263:23 1.94945e-05
39 *93:10 *263:23 0.000148189
40 *116:10 *263:42 2.89114e-05
41 *122:10 *263:42 0
42 *122:16 *263:42 0.000131563
43 *127:14 *263:23 9.95103e-05
44 *127:14 *263:42 0.000359394
45 *132:29 *3768:B1 0.000150625
46 *149:14 *3769:D 3.18676e-05
47 *149:14 *263:42 8.56752e-05
48 *213:51 *3785:D 5.33005e-05
49 *245:98 *3768:B1 2.72449e-05
50 *247:14 *263:23 4.75521e-05
51 *249:16 *263:23 0
52 *249:27 *263:23 6.67737e-05
53 *249:48 *263:23 0.000637596
54 *260:10 *263:23 0.000124757
*RES
1 *3897:X *263:4 9.3 
2 *263:4 *263:6 64.1964 
3 *263:6 *263:10 31.9464 
4 *263:10 *3660:A 13.8 
5 *263:10 *263:23 23.2679 
6 *263:23 *3785:D 14.7643 
7 *263:23 *263:42 19.2679 
8 *263:42 *3769:D 9.83571 
9 *263:42 *3768:B1 20.2464 
*END

*D_NET *264 0.022762
*CONN
*I *3750:A I *D sky130_fd_sc_hd__and2_1
*I *3692:A I *D sky130_fd_sc_hd__buf_2
*I *3708:A I *D sky130_fd_sc_hd__nand2_2
*I *3735:A I *D sky130_fd_sc_hd__and2_1
*I *3764:A I *D sky130_fd_sc_hd__and2_1
*I *3898:X O *D sky130_fd_sc_hd__buf_2
*CAP
1 *3750:A 0
2 *3692:A 0
3 *3708:A 0.00016477
4 *3735:A 0
5 *3764:A 0.000319536
6 *3898:X 0
7 *264:62 0.000591369
8 *264:51 0.0015856
9 *264:35 0.00166446
10 *264:18 0.00116469
11 *264:14 0.00267481
12 *264:6 0.00587878
13 *264:4 0.00354366
14 *3764:A *3764:B 0.000441463
15 *264:14 *296:16 0.000930244
16 *264:18 *3764:B 0.000521792
17 *264:35 *3750:B 5.33005e-05
18 *264:35 *296:34 0
19 *264:35 *296:141 6.5717e-05
20 *264:51 *3724:C 0
21 *264:51 *3724:D 0.000125748
22 *264:51 *3750:B 5.30479e-05
23 *264:62 *3735:B 0.000186662
24 *264:62 *272:20 2.72423e-05
25 *3712:A *3708:A 4.25427e-05
26 *3730:B *264:62 0.000393943
27 *3736:B *264:51 0.000242913
28 *3740:D *264:51 0
29 *3743:C *264:51 0.000101689
30 *3745:A2 *264:62 1.98839e-05
31 *3749:A *264:51 6.95089e-05
32 *3756:A1 *264:35 4.85029e-05
33 *3757:B1 *264:51 0
34 *3760:A1 *264:51 5.16852e-05
35 *3761:B *264:51 0
36 *3762:A1 *264:51 0
37 *3763:A *264:51 3.32354e-05
38 *3763:C *264:51 5.10822e-05
39 *3766:A1 *264:35 2.84398e-05
40 *3772:C *264:35 7.00499e-05
41 *3774:A2 *264:51 3.81e-05
42 *3775:A *264:51 6.05161e-06
43 *3782:B *264:35 0.000121573
44 *70:10 *264:51 0.000108484
45 *77:6 *264:62 2.59355e-05
46 *82:10 *264:62 9.90367e-05
47 *82:19 *264:51 0
48 *96:8 *264:51 0
49 *97:10 *264:51 2.37761e-05
50 *102:8 *264:35 0.00012401
51 *102:8 *264:51 0
52 *102:23 *264:35 0.000160278
53 *106:12 *264:51 0.000100831
54 *110:12 *264:51 8.00806e-05
55 *111:10 *3764:A 3.81416e-06
56 *113:10 *264:35 3.30004e-05
57 *121:14 *264:51 3.67548e-05
58 *245:23 *3708:A 5.59013e-05
59 *246:10 *3708:A 0.000217305
60 *246:62 *264:51 8.07313e-05
61 *246:62 *264:62 1.39841e-05
62 *246:85 *264:51 0
63 *247:33 *3708:A 4.33438e-05
64 *247:99 *264:51 6.19181e-05
65 *247:99 *264:62 0
66 *249:48 *264:62 0.00018077
*RES
1 *3898:X *264:4 9.3 
2 *264:4 *264:6 54.1339 
3 *264:6 *264:14 47.7232 
4 *264:14 *264:18 9.55357 
5 *264:18 *3764:A 14.2643 
6 *264:18 *264:35 19.9821 
7 *264:35 *264:51 33.6964 
8 *264:51 *3735:A 9.3 
9 *264:51 *264:62 9.19643 
10 *264:62 *3708:A 21.6929 
11 *264:62 *3692:A 9.3 
12 *264:35 *3750:A 9.3 
*END

*D_NET *265 0.0261182
*CONN
*I *3753:A I *D sky130_fd_sc_hd__and2_1
*I *3767:A I *D sky130_fd_sc_hd__and2_1
*I *3738:A I *D sky130_fd_sc_hd__and2_1
*I *3722:A I *D sky130_fd_sc_hd__and2_1
*I *3696:A I *D sky130_fd_sc_hd__buf_2
*I *3899:X O *D sky130_fd_sc_hd__buf_2
*CAP
1 *3753:A 2.87843e-05
2 *3767:A 5.96714e-05
3 *3738:A 0.000116831
4 *3722:A 0
5 *3696:A 0
6 *3899:X 0.00137555
7 *265:57 0.000561425
8 *265:42 0.00111474
9 *265:31 0.00171243
10 *265:16 0.00118749
11 *265:14 0.00422099
12 *265:12 0.00664796
13 *265:8 0.00380251
14 *3753:A *3767:B 2.59355e-05
15 *3767:A *3753:B 4.38128e-05
16 *3767:A *3767:B 2.14658e-05
17 *3767:A *296:22 0.00010096
18 *265:8 *3929:A 0.00049839
19 *265:12 *3929:A 0.000305398
20 *265:12 *3930:A 0.000490403
21 *265:12 *269:8 7.50473e-05
22 *265:14 *277:22 5.80706e-06
23 *265:31 *3750:B 1.02504e-05
24 *265:31 *3875:D 8.37135e-05
25 *265:31 *277:22 7.88954e-05
26 *265:31 *300:43 5.74562e-05
27 *265:31 *300:45 0.000133243
28 *265:31 *300:49 7.50697e-05
29 *265:31 *301:98 7.98549e-05
30 *265:31 *301:115 0.000504628
31 *265:42 *3750:B 0
32 *265:42 *296:66 0.000227539
33 *265:42 *300:43 0.000764002
34 *265:57 *3750:B 0
35 *265:57 *296:34 0
36 *265:57 *300:31 0.000964937
37 *265:57 *300:43 1.02504e-05
38 *3669:B *265:31 0.000102545
39 *3699:A *265:31 0.000186662
40 *3758:C *265:57 4.35141e-05
41 *3875:CLK *265:14 8.82021e-05
42 *3:13 *265:14 0
43 *100:6 *3767:A 5.71472e-05
44 *103:10 *265:57 0
45 *114:16 *265:57 0
46 *209:98 *265:31 0.000112584
47 *213:108 *265:31 0
48 *214:77 *265:31 0.000115179
49 *217:116 *265:42 2.6949e-05
50 *263:10 *265:14 0
51 *263:23 *265:14 0
*RES
1 *3899:X *265:8 33.4696 
2 *265:8 *265:12 48.7768 
3 *265:12 *265:14 77.5357 
4 *265:14 *265:16 4.5 
5 *265:16 *3696:A 9.3 
6 *265:16 *265:31 33.3929 
7 *265:31 *3722:A 9.3 
8 *265:31 *265:42 16.5179 
9 *265:42 *3738:A 15.5857 
10 *265:42 *265:57 16.7679 
11 *265:57 *3767:A 11.0679 
12 *265:57 *3753:A 9.83571 
*END

*D_NET *266 0.0246149
*CONN
*I *3754:A1 I *D sky130_fd_sc_hd__a22o_1
*I *3769:B I *D sky130_fd_sc_hd__nand4_1
*I *3768:A1 I *D sky130_fd_sc_hd__a22o_1
*I *3697:A1 I *D sky130_fd_sc_hd__a22o_1
*I *3701:B I *D sky130_fd_sc_hd__and4_1
*I *3702:A1 I *D sky130_fd_sc_hd__a22o_1
*I *3694:A I *D sky130_fd_sc_hd__buf_2
*I *3900:X O *D sky130_fd_sc_hd__buf_2
*CAP
1 *3754:A1 0
2 *3769:B 7.669e-05
3 *3768:A1 6.62643e-05
4 *3697:A1 0.000133318
5 *3701:B 0
6 *3702:A1 0.000133622
7 *3694:A 3.5506e-05
8 *3900:X 0.00320706
9 *266:88 0.000357944
10 *266:84 0.000281755
11 *266:45 0.000703575
12 *266:35 0.00122198
13 *266:22 0.00137891
14 *266:20 0.00183203
15 *266:18 0.00349347
16 *266:8 0.00575995
17 *3697:A1 *301:69 6.20057e-05
18 *3697:A1 *303:61 9.63148e-05
19 *3702:A1 *3702:A2 0.000207127
20 *3702:A1 *3702:B1 6.53543e-05
21 *3702:A1 *3702:B2 5.71472e-05
22 *3702:A1 *267:23 5.5692e-05
23 *3702:A1 *302:73 5.38776e-05
24 *3768:A1 *3754:B1 2.286e-05
25 *3768:A1 *274:29 1.98839e-05
26 *3769:B *267:68 7.6644e-05
27 *266:8 *3921:A 0.000185408
28 *266:8 *301:8 0.000326324
29 *266:18 *272:10 0
30 *266:22 *267:68 0
31 *266:35 *3709:A1 1.55475e-05
32 *266:35 *3735:B 7.14351e-05
33 *266:35 *303:42 3.48235e-05
34 *266:45 *3709:A1 1.01912e-05
35 *266:45 *277:22 0.000212489
36 *266:45 *302:71 0.000218387
37 *266:45 *302:73 9.54798e-06
38 *266:88 *3754:B1 0.000225609
39 int4_out[2] *266:8 1.55667e-05
40 int4_out[2] *266:18 3.54697e-06
41 *3697:B2 *266:35 0
42 *3717:A *266:45 0
43 *3729:B *266:35 0.000177941
44 *3746:B *266:22 2.16719e-05
45 *3746:B *266:35 4.49293e-05
46 *3754:A2 *266:22 0.000352477
47 *3754:A2 *266:84 1.24368e-05
48 *3760:A2 *266:22 0
49 *3776:B *266:22 0.000153047
50 *3776:C_N *266:22 3.90513e-05
51 *3780:B *266:22 0.000150618
52 *3783:B *266:20 0
53 *3783:C *266:20 0.000106542
54 *3785:A *266:22 0.000183216
55 *3785:A *266:35 1.78447e-05
56 *3796:A_N *266:20 0
57 *3874:CLK *266:45 4.26862e-05
58 *3889:A *266:45 0.00019941
59 *3906:A *266:18 5.66971e-05
60 *3915:A *266:8 5.4959e-05
61 *61:16 *266:45 4.40493e-05
62 *74:25 *266:35 0.000191403
63 *76:8 *266:35 0.000332771
64 *76:19 *266:35 0.000114759
65 *91:12 *266:22 4.34029e-05
66 *96:8 *266:22 0
67 *108:32 *266:22 0.000223592
68 *114:16 *266:20 0
69 *116:10 *266:20 9.72343e-05
70 *116:10 *266:22 8.9163e-05
71 *122:16 *266:22 0.000202816
72 *127:14 *266:22 0
73 *130:10 *266:20 0.000281671
74 *132:29 *3769:B 7.6644e-05
75 *214:6 *3702:A1 2.24763e-05
76 *247:10 *3694:A 3.03129e-05
77 *247:14 *266:35 4.43698e-05
78 *249:134 *3697:A1 8.55687e-05
79 *252:20 *3697:A1 0.000312209
80 *260:10 *266:35 0
81 *263:23 *266:35 4.1984e-05
82 *263:23 *266:45 1.01912e-05
83 *263:42 *3769:B 2.89114e-05
84 *263:42 *266:22 0
*RES
1 *3900:X *266:8 49.2821 
2 *266:8 *266:18 48.9196 
3 *266:18 *266:20 18.7232 
4 *266:20 *266:22 20.1607 
5 *266:22 *3694:A 14.3357 
6 *266:22 *266:35 12.1964 
7 *266:35 *266:45 11.3778 
8 *266:45 *3702:A1 17.5143 
9 *266:45 *3701:B 13.8 
10 *266:35 *3697:A1 18.3714 
11 *266:20 *266:84 5.89286 
12 *266:84 *266:88 3.32143 
13 *266:88 *3768:A1 10.2643 
14 *266:88 *3769:B 19.8714 
15 *266:84 *3754:A1 9.3 
*END

*D_NET *267 0.0258463
*CONN
*I *3754:B2 I *D sky130_fd_sc_hd__a22o_1
*I *3768:B2 I *D sky130_fd_sc_hd__a22o_1
*I *3769:A I *D sky130_fd_sc_hd__nand4_1
*I *3693:A I *D sky130_fd_sc_hd__buf_2
*I *3701:A I *D sky130_fd_sc_hd__and4_1
*I *3702:B2 I *D sky130_fd_sc_hd__a22o_1
*I *3901:X O *D sky130_fd_sc_hd__buf_2
*CAP
1 *3754:B2 4.88493e-05
2 *3768:B2 0.000203572
3 *3769:A 0
4 *3693:A 1.40568e-05
5 *3701:A 0
6 *3702:B2 4.97672e-05
7 *3901:X 0
8 *267:68 0.000392944
9 *267:59 0.0006791
10 *267:44 0.00138952
11 *267:23 0.000930551
12 *267:10 0.00378478
13 *267:8 0.00364135
14 *267:6 0.00494846
15 *267:4 0.00494846
16 *3693:A *279:35 2.89016e-05
17 *3754:B2 *3754:B1 5.71472e-05
18 *3768:B2 *3754:B1 1.39726e-05
19 *3768:B2 *274:29 7.3237e-05
20 *267:44 *301:69 0.000176322
21 *267:44 *302:71 0
22 *267:44 *303:78 0.000585473
23 *3702:A1 *3702:B2 5.71472e-05
24 *3702:A1 *267:23 5.5692e-05
25 *3704:A *267:44 9.24954e-05
26 *3704:B *267:44 3.23542e-05
27 *3710:A *267:44 0.000141526
28 *3714:A *267:44 5.12892e-05
29 *3714:B *267:44 0
30 *3715:A *267:23 5.25192e-06
31 *3769:B *267:68 7.6644e-05
32 *56:8 *267:44 3.80414e-05
33 *93:10 *267:44 7.50601e-05
34 *93:10 *267:59 4.46186e-06
35 *93:14 *3693:A 5.52238e-05
36 *115:14 *3754:B2 2.27416e-05
37 *116:10 *3768:B2 0
38 *116:10 *267:68 0
39 *122:16 *267:68 0
40 *132:29 *3768:B2 2.49484e-05
41 *132:29 *267:59 0.000391529
42 *132:29 *267:68 5.72318e-05
43 *140:10 *267:59 0.000147474
44 *209:16 *267:10 4.6025e-06
45 *209:16 *267:23 5.10647e-05
46 *209:16 *267:44 0.000238637
47 *214:6 *3702:B2 5.41609e-05
48 *245:23 *267:44 2.6949e-05
49 *245:23 *267:59 6.06767e-05
50 *245:92 *267:59 1.89507e-06
51 *246:10 *267:44 0.000716526
52 *246:12 *267:44 5.59013e-05
53 *249:16 *267:44 1.81709e-05
54 *249:48 *267:44 0.000121446
55 *254:6 *267:44 0.00010096
56 *257:16 *267:44 4.52549e-05
57 *263:23 *267:44 6.88974e-05
58 *263:23 *267:59 4.21103e-05
59 *263:42 *267:59 0.000933232
60 *263:42 *267:68 1.02504e-05
61 *266:22 *267:68 0
*RES
1 *3901:X *267:4 9.3 
2 *267:4 *267:6 57.625 
3 *267:6 *267:8 4.5 
4 *267:8 *267:10 66.6071 
5 *267:10 *3702:B2 15.1571 
6 *267:10 *267:23 6.44643 
7 *267:23 *3701:A 9.3 
8 *267:23 *267:44 27.0893 
9 *267:44 *3693:A 14.3357 
10 *267:44 *267:59 15.4643 
11 *267:59 *3769:A 13.8 
12 *267:59 *267:68 2.55357 
13 *267:68 *3768:B2 17.4429 
14 *267:68 *3754:B2 14.8714 
*END

*D_NET *268 0.0178666
*CONN
*I *3681:B1 I *D sky130_fd_sc_hd__a21oi_1
*I *3902:X O *D sky130_fd_sc_hd__buf_1
*CAP
1 *3681:B1 0
2 *3902:X 0
3 *268:12 0.00151955
4 *268:6 0.00805608
5 *268:4 0.00653653
6 *268:12 *3681:A1 3.92854e-05
7 *268:12 *275:10 0.00171514
8 *268:12 *303:18 0
*RES
1 *3902:X *268:4 9.3 
2 *268:4 *268:6 76.1071 
3 *268:6 *268:12 48.2857 
4 *268:12 *3681:B1 9.3 
*END

*D_NET *269 0.0128338
*CONN
*I *3682:B2 I *D sky130_fd_sc_hd__o2bb2a_1
*I *3681:A1 I *D sky130_fd_sc_hd__a21oi_1
*I *3903:X O *D sky130_fd_sc_hd__buf_1
*CAP
1 *3682:B2 7.58794e-05
2 *3681:A1 0.000296539
3 *3903:X 0.00142997
4 *269:10 0.00329111
5 *269:8 0.00434866
6 *3681:A1 *303:18 0
7 *3682:B2 *3891:A 4.46186e-06
8 *3682:B2 *276:14 6.42338e-05
9 *3682:B2 *302:18 0
10 *269:8 *302:6 0.000358971
11 *269:10 *276:14 0.000281049
12 *269:10 *302:12 0
13 *269:10 *302:16 0
14 *269:10 *302:18 0
15 *269:10 *303:14 0.000852171
16 *269:10 *303:18 0.00136038
17 *3:11 *269:10 0
18 *211:29 *3681:A1 0.000356028
19 *265:12 *269:8 7.50473e-05
20 *268:12 *3681:A1 3.92854e-05
*RES
1 *3903:X *269:8 31.5857 
2 *269:8 *269:10 72.0714 
3 *269:10 *3681:A1 27.2464 
4 *269:10 *3682:B2 15.4429 
*END

*D_NET *270 0.0155072
*CONN
*I *3678:A I *D sky130_fd_sc_hd__or2_1
*I *3683:A1 I *D sky130_fd_sc_hd__a21o_1
*I *3904:X O *D sky130_fd_sc_hd__dlymetal6s2s_1
*CAP
1 *3678:A 0
2 *3683:A1 0.000258834
3 *3904:X 0
4 *270:10 0.0030541
5 *270:8 0.00279527
6 *270:6 0.00455381
7 *270:4 0.00455381
8 *3683:A1 *271:12 1.74352e-05
9 *3683:A1 *271:20 0.000232399
10 *3683:A1 *273:10 0
11 *270:10 *273:10 0
12 *270:10 *300:18 0
13 *3683:A2 *3683:A1 0
14 *3684:B1 *3683:A1 4.15914e-05
*RES
1 *3904:X *270:4 9.3 
2 *270:4 *270:6 76.9286 
3 *270:6 *270:8 4.5 
4 *270:8 *270:10 51.125 
5 *270:10 *3683:A1 18.0321 
6 *270:10 *3678:A 13.8 
*END

*D_NET *271 0.0173939
*CONN
*I *3684:A1 I *D sky130_fd_sc_hd__a22o_1
*I *3675:A I *D sky130_fd_sc_hd__or2_1
*I *3905:X O *D sky130_fd_sc_hd__clkbuf_2
*CAP
1 *3684:A1 0
2 *3675:A 9.68055e-05
3 *3905:X 0
4 *271:20 0.000199729
5 *271:12 0.00458662
6 *271:10 0.0044837
7 *271:8 0.00302019
8 *271:6 0.00302019
9 *3675:A *273:10 0
10 *271:8 *3920:A 0.000955145
11 int4_out[1] *271:8 6.76337e-05
12 *3683:A1 *271:12 1.74352e-05
13 *3683:A1 *271:20 0.000232399
14 *3683:A2 *271:20 1.97695e-05
15 *3684:A2 *3675:A 0.000153054
16 *3684:A2 *271:20 5.92264e-05
17 *3684:B1 *271:20 6.09963e-05
18 *3684:B2 *271:20 5.71472e-05
19 *3685:B2 *3675:A 0.000173797
20 *3898:A *271:8 0
21 *3904:A *271:8 3.85681e-05
22 *236:16 *3675:A 3.90417e-05
23 *236:16 *271:20 0.000112461
*RES
1 *3905:X *271:6 13.8 
2 *271:6 *271:8 60.2321 
3 *271:8 *271:10 4.5 
4 *271:10 *271:12 75.2857 
5 *271:12 *271:20 4.28571 
6 *271:20 *3675:A 21.4607 
7 *271:20 *3684:A1 9.3 
*END

*D_NET *272 0.0143972
*CONN
*I *3672:A I *D sky130_fd_sc_hd__or2_1
*I *3685:A1 I *D sky130_fd_sc_hd__a22o_1
*I *3906:X O *D sky130_fd_sc_hd__buf_1
*CAP
1 *3672:A 0.000150903
2 *3685:A1 0
3 *3906:X 0.00133757
4 *272:20 0.00202941
5 *272:14 0.0037421
6 *272:10 0.00320116
7 *272:20 *3723:A2 0.000102323
8 *272:20 *3723:B1 1.82549e-05
9 *272:20 *3735:B 6.81335e-05
10 *3670:A *272:20 3.7469e-05
11 *3672:B *3672:A 6.58597e-05
12 *3672:B *272:20 2.28598e-05
13 *3685:B2 *3672:A 5.52302e-05
14 *3723:B2 *272:20 0.000213172
15 *3730:A *272:20 0.000161885
16 *3730:B *272:20 3.61496e-05
17 *3745:A2 *272:20 4.58194e-05
18 *3778:B *272:14 7.41547e-05
19 *3788:B1 *272:14 2.79092e-05
20 *3792:A *272:14 0.000144038
21 *3793:B1 *272:14 4.50149e-05
22 *3793:B2 *272:14 0.000554273
23 *3796:B *272:14 2.11419e-05
24 *3797:A *272:14 0
25 *3804:C *272:14 0
26 *3820:A0 *272:14 0
27 *3820:A0 *272:20 5.33005e-05
28 *3840:A2 *272:14 0
29 *58:8 *272:14 5.80706e-06
30 *77:6 *272:20 4.13496e-05
31 *125:23 *272:14 0
32 *128:34 *272:14 5.10822e-05
33 *131:22 *272:14 0
34 *133:10 *272:14 0.000146002
35 *144:8 *272:14 0
36 *144:16 *272:14 0
37 *149:14 *272:14 0
38 *157:14 *272:14 0
39 *225:12 *272:20 0.000269428
40 *245:23 *272:14 0.000276943
41 *245:23 *272:20 4.27935e-05
42 *245:92 *272:14 9.90819e-06
43 *245:98 *272:14 0.000698447
44 *246:62 *272:20 0.000537171
45 *247:33 *272:14 7.6644e-05
46 *249:54 *272:14 6.20091e-06
47 *264:62 *272:20 2.72423e-05
48 *266:18 *272:10 0
*RES
1 *3906:X *272:10 38.7732 
2 *272:10 *272:14 46.2946 
3 *272:14 *272:20 26.6429 
4 *272:20 *3685:A1 9.3 
5 *272:20 *3672:A 11.8893 
*END

*D_NET *273 0.00972596
*CONN
*I *3686:A1 I *D sky130_fd_sc_hd__a22o_1
*I *3687:B2 I *D sky130_fd_sc_hd__o221a_1
*I *3907:X O *D sky130_fd_sc_hd__buf_1
*CAP
1 *3686:A1 3.97385e-05
2 *3687:B2 0.000254366
3 *3907:X 0.000307997
4 *273:10 0.00326224
5 *273:8 0.00327613
6 *273:8 *296:12 3.94707e-05
7 *273:10 *300:18 0.00152103
8 *3675:A *273:10 0
9 *3683:A1 *273:10 0
10 *3684:B1 *273:10 0
11 *3685:B1 *273:10 6.42338e-05
12 *3685:B2 *273:10 6.76272e-05
13 *3686:A2 *3686:A1 5.7661e-06
14 *3686:A2 *3687:B2 0.000166305
15 *3686:B1 *3686:A1 1.24368e-05
16 *3686:B2 *3687:B2 3.34366e-05
17 *3686:B2 *273:10 0.000125724
18 *3863:A1 *3686:A1 5.56465e-05
19 *212:10 *273:10 0.000413323
20 *212:12 *273:10 8.05006e-05
21 *212:16 *273:10 0
22 *212:24 *273:10 0
23 *217:97 *3687:B2 0
24 *236:16 *3687:B2 0
25 *236:16 *273:10 0
26 *270:10 *273:10 0
*RES
1 *3907:X *273:8 17.6214 
2 *273:8 *273:10 67.2143 
3 *273:10 *3687:B2 18.7821 
4 *273:10 *3686:A1 14.7643 
*END

*D_NET *274 0.0116788
*CONN
*I *3769:C I *D sky130_fd_sc_hd__nand4_1
*I *3768:A2 I *D sky130_fd_sc_hd__a22o_1
*I *3754:B1 I *D sky130_fd_sc_hd__a22o_1
*I *3659:A I *D sky130_fd_sc_hd__clkbuf_4
*I *3908:X O *D sky130_fd_sc_hd__clkbuf_2
*CAP
1 *3769:C 4.51081e-05
2 *3768:A2 0
3 *3754:B1 8.467e-05
4 *3659:A 0
5 *3908:X 0
6 *274:29 0.000188161
7 *274:21 0.00136513
8 *274:12 0.00197539
9 *274:6 0.00375389
10 *274:4 0.00299504
11 *274:12 *280:12 0
12 *3754:B2 *3754:B1 5.71472e-05
13 *3768:A1 *3754:B1 2.286e-05
14 *3768:A1 *274:29 1.98839e-05
15 *3768:B1 *274:29 0.00010326
16 *3768:B2 *3754:B1 1.39726e-05
17 *3768:B2 *274:29 7.3237e-05
18 *3769:D *3769:C 2.14658e-05
19 *3769:D *274:21 7.43578e-06
20 *3800:A *274:21 1.15172e-05
21 *3800:B *274:21 0.000224596
22 *3804:C *274:21 8.3722e-05
23 *115:14 *3754:B1 1.32552e-05
24 *132:29 *274:29 1.17968e-05
25 *144:26 *274:12 5.24274e-05
26 *145:14 *274:12 0
27 *146:14 *274:21 2.14658e-05
28 *147:19 *274:21 9.40041e-05
29 *149:14 *274:21 7.95668e-05
30 *245:98 *274:29 0.000128154
31 *263:42 *3769:C 6.05161e-06
32 *266:88 *3754:B1 0.000225609
*RES
1 *3908:X *274:4 9.3 
2 *274:4 *274:6 45.7143 
3 *274:6 *274:12 22.7857 
4 *274:12 *3659:A 9.3 
5 *274:12 *274:21 15.3393 
6 *274:21 *274:29 12 
7 *274:29 *3754:B1 11.9071 
8 *274:29 *3768:A2 9.3 
9 *274:21 *3769:C 9.83571 
*END

*D_NET *275 0.0134189
*CONN
*I *3687:A1 I *D sky130_fd_sc_hd__o221a_1
*I *3667:A I *D sky130_fd_sc_hd__and2_1
*I *3909:X O *D sky130_fd_sc_hd__buf_1
*CAP
1 *3687:A1 0.000315367
2 *3667:A 0
3 *3909:X 0.000954931
4 *275:10 0.00393534
5 *275:8 0.0045749
6 *3687:A1 *3867:A1 5.90443e-06
7 *275:8 *303:14 0.000838118
8 *275:10 *3867:A1 5.57914e-05
9 *275:10 *303:14 0
10 *275:10 *303:18 0
11 *3667:B *3687:A1 0.000242486
12 *3679:B *275:10 0
13 *3861:B1 *275:10 0.000192983
14 *3881:CLK *3687:A1 1.02504e-05
15 *3881:CLK *275:10 0.000364245
16 *223:10 *3687:A1 0
17 *236:16 *275:10 0
18 *262:38 *3687:A1 2.15245e-05
19 *262:40 *3687:A1 0.000191877
20 *268:12 *275:10 0.00171514
*RES
1 *3909:X *275:8 27.8893 
2 *275:8 *275:10 79.3571 
3 *275:10 *3667:A 13.8 
4 *275:10 *3687:A1 20.6214 
*END

*D_NET *276 0.0173235
*CONN
*I *3689:A1 I *D sky130_fd_sc_hd__a21oi_4
*I *3688:A1 I *D sky130_fd_sc_hd__o22a_1
*I *3910:X O *D sky130_fd_sc_hd__clkbuf_2
*CAP
1 *3689:A1 0.00017999
2 *3688:A1 1.99167e-05
3 *3910:X 0.000331742
4 *276:14 0.000629751
5 *276:10 0.00731407
6 *276:8 0.00721597
7 *276:14 *3891:A 0
8 *276:14 *302:18 0
9 *276:14 *303:18 0.000860039
10 *3682:B2 *276:14 6.42338e-05
11 *3688:A2 *3689:A1 8.00806e-05
12 *3688:B1 *3688:A1 5.33433e-05
13 *3688:B2 *3688:A1 9.90431e-05
14 *3688:B2 *3689:A1 0
15 *3689:B1 *3689:A1 0
16 *218:12 *3689:A1 4.81894e-05
17 *234:10 *276:14 0.000146135
18 *243:14 *3689:A1 0
19 *243:14 *276:14 0
20 *269:10 *276:14 0.000281049
*RES
1 *3910:X *276:8 14.5768 
2 *276:8 *276:10 79.5982 
3 *276:10 *276:14 17.375 
4 *276:14 *3688:A1 14.7464 
5 *276:14 *3689:A1 17.4429 
*END

*D_NET *277 0.0218796
*CONN
*I *3875:D I *D sky130_fd_sc_hd__dfrtp_1
*I *3655:A I *D sky130_fd_sc_hd__clkbuf_4
*I *3911:X O *D sky130_fd_sc_hd__clkbuf_2
*CAP
1 *3875:D 0.000185542
2 *3655:A 0
3 *3911:X 0
4 *277:22 0.00427769
5 *277:8 0.00742572
6 *277:6 0.00333356
7 *3875:D *3875:RESET_B 0
8 *277:8 *281:10 0.00231617
9 *277:22 *3709:A1 7.69776e-06
10 *277:22 *301:27 0.0026865
11 int4_out[0] *277:8 2.28544e-05
12 int4_out[3] *277:8 2.11419e-05
13 is_outlier *277:8 0
14 *3699:A *3875:D 7.43578e-06
15 *3699:A *277:22 0.000105163
16 *3709:B1 *277:22 0
17 *3718:B *277:22 0.000297099
18 *3874:CLK *277:22 0
19 *3875:CLK *277:22 0
20 *3889:A *277:22 0
21 *3908:A *277:8 0
22 *3:13 *3875:D 0
23 *209:16 *3875:D 0.000131439
24 *209:16 *277:22 0.000486447
25 *209:98 *3875:D 9.90367e-05
26 *214:77 *3875:D 0
27 *243:26 *277:22 8.98778e-05
28 *249:6 *277:22 5.30637e-06
29 *263:23 *277:22 0
30 *265:14 *277:22 5.80706e-06
31 *265:31 *3875:D 8.37135e-05
32 *265:31 *277:22 7.88954e-05
33 *266:45 *277:22 0.000212489
*RES
1 *3911:X *277:6 13.8 
2 *277:6 *277:8 76.7768 
3 *277:8 *277:22 28.7657 
4 *277:22 *3655:A 9.3 
5 *277:22 *3875:D 22.7286 
*END

*D_NET *278 0.00576488
*CONN
*I *3919:A I *D sky130_fd_sc_hd__clkbuf_4
*I *3893:A I *D sky130_fd_sc_hd__dlygate4sd3_1
*I *3876:Q O *D sky130_fd_sc_hd__dfrtp_1
*CAP
1 *3919:A 0
2 *3893:A 0
3 *3876:Q 0.000278564
4 *278:23 0.00235475
5 *278:10 0.00263332
6 *278:10 *301:10 0.000184626
7 *278:23 *301:10 0.000187893
8 *3878:D *278:10 0.000125724
*RES
1 *3876:Q *278:10 19.5321 
2 *278:10 *3893:A 13.8 
3 *278:10 *278:23 42.2679 
4 *278:23 *3919:A 9.3 
*END

*D_NET *279 0.0205314
*CONN
*I *3920:A I *D sky130_fd_sc_hd__buf_2
*I *3896:A I *D sky130_fd_sc_hd__dlygate4sd3_1
*I *3877:Q O *D sky130_fd_sc_hd__dfrtp_2
*CAP
1 *3920:A 0.000431725
2 *3896:A 0
3 *3877:Q 9.68177e-05
4 *279:37 0.00609799
5 *279:35 0.00766642
6 *279:12 0.00209697
7 *279:35 *296:36 2.58997e-05
8 *279:35 *296:38 7.38844e-05
9 *279:37 *296:98 3.32631e-05
10 *3677:A *279:37 2.59355e-05
11 *3683:A2 *279:37 8.90199e-05
12 *3693:A *279:35 2.89016e-05
13 *3742:A1 *279:35 0
14 *3748:B *279:35 4.14279e-05
15 *3780:A *279:35 1.81774e-05
16 *3780:B *279:35 6.09773e-05
17 *3807:B *279:12 2.84494e-05
18 *3807:B *279:35 0.000186721
19 *3814:A *279:35 0.000144773
20 *3845:A1 *279:35 9.22103e-06
21 *3849:A1 *279:35 1.56e-05
22 *3849:A2 *279:12 9.41642e-05
23 *3849:A2 *279:35 0.000171306
24 *3849:B1 *279:35 6.25963e-05
25 *3849:B2 *279:35 2.89114e-05
26 *3850:A3 *279:12 9.41642e-05
27 *3850:A3 *279:35 8.66063e-05
28 *87:10 *279:37 0.000139913
29 *89:8 *279:35 0.000814389
30 *93:14 *279:35 0.00015629
31 *94:16 *279:35 2.89114e-05
32 *95:16 *279:35 3.60237e-05
33 *161:8 *279:35 1.00073e-05
34 *213:138 *279:35 1.56e-05
35 *214:25 *279:12 0.000123288
36 *214:88 *279:35 5.58941e-05
37 *231:8 *279:37 0.000136039
38 *246:10 *279:35 9.60939e-05
39 *247:112 *279:35 0.000148189
40 *247:127 *279:35 0.000105689
41 *271:8 *3920:A 0.000955145
*RES
1 *3877:Q *279:12 20.8893 
2 *279:12 *3896:A 9.3 
3 *279:12 *279:35 42.875 
4 *279:35 *279:37 88.0179 
5 *279:37 *3920:A 30.2643 
*END

*D_NET *280 0.00740358
*CONN
*I *3895:A I *D sky130_fd_sc_hd__dlygate4sd3_1
*I *3921:A I *D sky130_fd_sc_hd__clkbuf_4
*I *3878:Q O *D sky130_fd_sc_hd__dfrtp_1
*CAP
1 *3895:A 0
2 *3921:A 0.000400216
3 *3878:Q 0.000189385
4 *280:12 0.00291192
5 *280:10 0.0025117
6 *280:8 0.000189385
7 *280:8 *3878:RESET_B 0
8 int4_out[2] *3921:A 4.79605e-05
9 *3829:A *280:12 0.000193165
10 *3847:B2 *280:12 0.000101545
11 *3854:A2 *280:12 3.5794e-05
12 *3854:A3 *280:8 0.000139907
13 *3854:B1 *280:12 1.17968e-05
14 *144:26 *280:12 0
15 *154:25 *280:12 0.000148189
16 *155:21 *280:12 0.000157381
17 *180:20 *280:8 9.90431e-05
18 *213:8 *280:12 8.07788e-05
19 *266:8 *3921:A 0.000185408
20 *274:12 *280:12 0
*RES
1 *3878:Q *280:8 13.1393 
2 *280:8 *280:10 4.5 
3 *280:10 *280:12 49.6518 
4 *280:12 *3921:A 21.9518 
5 *280:8 *3895:A 9.3 
*END

*D_NET *281 0.0121282
*CONN
*I *3894:A I *D sky130_fd_sc_hd__dlygate4sd3_1
*I *3922:A I *D sky130_fd_sc_hd__clkbuf_4
*I *3879:Q O *D sky130_fd_sc_hd__dfrtp_1
*CAP
1 *3894:A 0.000268361
2 *3922:A 0
3 *3879:Q 0
4 *281:10 0.00205945
5 *281:8 0.00463763
6 *281:4 0.00284654
7 *3894:A *301:10 0
8 *277:8 *281:10 0.00231617
*RES
1 *3879:Q *281:4 9.3 
2 *281:4 *281:8 34.6071 
3 *281:8 *281:10 52.9464 
4 *281:10 *3922:A 13.8 
5 *281:4 *3894:A 22.6571 
*END

*D_NET *282 0.00433159
*CONN
*I *3892:A I *D sky130_fd_sc_hd__dlygate4sd3_1
*I *3923:A I *D sky130_fd_sc_hd__clkbuf_4
*I *3874:Q O *D sky130_fd_sc_hd__dfrtp_1
*CAP
1 *3892:A 0.00025208
2 *3923:A 0.00191371
3 *3874:Q 0
4 *282:4 0.00216579
5 *3892:A *3874:RESET_B 0
*RES
1 *3874:Q *282:4 9.3 
2 *282:4 *3923:A 41.1929 
3 *282:4 *3892:A 22.4429 
*END

*D_NET *283 0.00832855
*CONN
*I *3858:B I *D sky130_fd_sc_hd__and2_1
*I *3924:A I *D sky130_fd_sc_hd__clkbuf_4
*I *3880:Q O *D sky130_fd_sc_hd__dfrtp_1
*CAP
1 *3858:B 8.50504e-05
2 *3924:A 0
3 *3880:Q 0
4 *283:10 0.0039569
5 *283:8 0.00399985
6 *283:4 0.000127995
7 *3858:B *3880:RESET_B 0.000144773
8 *3858:B *293:22 0
9 *283:8 *3880:RESET_B 1.39841e-05
10 *3858:A *283:10 0
*RES
1 *3880:Q *283:4 9.3 
2 *283:4 *283:8 5.03571 
3 *283:8 *283:10 72.375 
4 *283:10 *3924:A 13.8 
5 *283:4 *3858:B 11.3893 
*END

*D_NET *284 0.0151962
*CONN
*I *3925:A I *D sky130_fd_sc_hd__clkbuf_4
*I *3860:B I *D sky130_fd_sc_hd__and2_1
*I *3881:Q O *D sky130_fd_sc_hd__dfrtp_1
*CAP
1 *3925:A 0.00139906
2 *3860:B 0.00040888
3 *3881:Q 0.000182682
4 *284:23 0.00602185
5 *284:10 0.00521434
6 *3925:A *288:27 0
7 *284:23 *3932:A 0.00147007
8 *284:23 *292:22 0.000421546
9 *3860:A *3860:B 7.77652e-05
10 *211:31 *284:10 0
11 *211:42 *284:10 0
*RES
1 *3881:Q *284:10 20.8536 
2 *284:10 *3860:B 16.0321 
3 *284:10 *284:23 61.3214 
4 *284:23 *3925:A 42.8893 
*END

*D_NET *285 0.0118142
*CONN
*I *3658:A I *D sky130_fd_sc_hd__clkbuf_4
*I *3767:B I *D sky130_fd_sc_hd__and2_1
*I *3912:X O *D sky130_fd_sc_hd__buf_1
*CAP
1 *3658:A 0
2 *3767:B 0.000544283
3 *3912:X 0
4 *285:16 0.00353117
5 *285:10 0.00519718
6 *285:6 0.00221029
7 *3767:B *3753:B 5.52302e-05
8 *3767:B *296:22 0.000177705
9 *3767:B *296:141 1.3701e-05
10 *3753:A *3767:B 2.59355e-05
11 *3767:A *3767:B 2.14658e-05
12 *212:10 *3767:B 3.72932e-05
*RES
1 *3912:X *285:6 13.8 
2 *285:6 *285:10 45 
3 *285:10 *285:16 49.5536 
4 *285:16 *3767:B 18.4786 
5 *285:16 *3658:A 9.3 
*END

*D_NET *286 0.013977
*CONN
*I *3926:A I *D sky130_fd_sc_hd__clkbuf_4
*I *3862:B I *D sky130_fd_sc_hd__and2_1
*I *3882:Q O *D sky130_fd_sc_hd__dfrtp_1
*CAP
1 *3926:A 0
2 *3862:B 0.000437094
3 *3882:Q 0
4 *286:27 0.00461091
5 *286:25 0.00652381
6 *286:4 0.00234999
7 *3862:B *304:28 0
8 *3862:A *3862:B 5.52238e-05
*RES
1 *3882:Q *286:4 9.3 
2 *286:4 *3862:B 25.55 
3 *286:4 *286:25 26.8036 
4 *286:25 *286:27 84.5179 
5 *286:27 *3926:A 13.8 
*END

*D_NET *287 0.0165511
*CONN
*I *3927:A I *D sky130_fd_sc_hd__clkbuf_4
*I *3864:B I *D sky130_fd_sc_hd__and2_1
*I *3883:Q O *D sky130_fd_sc_hd__dfrtp_1
*CAP
1 *3927:A 0.00131635
2 *3864:B 0.000289802
3 *3883:Q 0.000100269
4 *287:33 0.00434983
5 *287:23 0.00636445
6 *287:8 0.00372104
7 *3864:B *304:26 0.000129868
8 *287:8 *3883:RESET_B 5.41609e-05
9 sideband_out[3] *3927:A 2.64196e-05
10 *3864:A *3864:B 5.52302e-05
11 *3912:A *3927:A 0.000143633
*RES
1 *3883:Q *287:8 15.1571 
2 *287:8 *3864:B 19.2643 
3 *287:8 *287:23 60.8393 
4 *287:23 *287:33 49.875 
5 *287:33 *3927:A 30.3714 
*END

*D_NET *288 0.0190754
*CONN
*I *3928:A I *D sky130_fd_sc_hd__clkbuf_4
*I *3866:B I *D sky130_fd_sc_hd__and2_1
*I *3884:Q O *D sky130_fd_sc_hd__dfrtp_2
*CAP
1 *3928:A 3.41104e-05
2 *3866:B 0.000400279
3 *3884:Q 0
4 *288:27 0.00359055
5 *288:25 0.00355644
6 *288:23 0.00554688
7 *288:4 0.00594716
8 *3866:B *3867:A1 0
9 *3866:B *304:32 0
10 sideband_out[1] *288:27 0
11 valid_out *288:27 0
12 *3867:A2 *3866:B 0
13 *3925:A *288:27 0
*RES
1 *3884:Q *288:4 9.3 
2 *288:4 *3866:B 24.7286 
3 *288:4 *288:23 64.6071 
4 *288:23 *288:25 4.5 
5 *288:25 *288:27 65.0893 
6 *288:27 *3928:A 14.3357 
*END

*D_NET *289 0.0154805
*CONN
*I *3868:B I *D sky130_fd_sc_hd__and2_1
*I *3929:A I *D sky130_fd_sc_hd__clkbuf_4
*I *3885:Q O *D sky130_fd_sc_hd__dfrtp_1
*CAP
1 *3868:B 0.000185163
2 *3929:A 0.0010463
3 *3885:Q 0.000198252
4 *289:10 0.00302645
5 *289:8 0.00236357
6 *3868:B *290:8 6.98302e-05
7 *3868:B *290:10 0.000133012
8 *3868:B *291:10 0.000177116
9 *3868:B *293:38 0.000143044
10 *3929:A *3930:A 0.000449539
11 *289:10 *290:10 0.005571
12 *289:10 *291:10 0.00128451
13 *3868:A *3868:B 2.89114e-05
14 *265:8 *3929:A 0.00049839
15 *265:12 *3929:A 0.000305398
*RES
1 *3885:Q *289:8 15.9786 
2 *289:8 *289:10 70.25 
3 *289:10 *3929:A 35.2821 
4 *289:8 *3868:B 20.2286 
*END

*D_NET *290 0.0133764
*CONN
*I *3870:B I *D sky130_fd_sc_hd__and2_1
*I *3930:A I *D sky130_fd_sc_hd__clkbuf_4
*I *3886:Q O *D sky130_fd_sc_hd__dfrtp_1
*CAP
1 *3870:B 0.000575337
2 *3930:A 7.45024e-05
3 *3886:Q 4.3324e-05
4 *290:10 0.00265135
5 *290:8 0.00319551
6 *290:8 *3885:RESET_B 0
7 *290:8 *293:38 1.02504e-05
8 *290:10 *3885:RESET_B 0
9 *3868:B *290:8 6.98302e-05
10 *3868:B *290:10 0.000133012
11 *3871:B1 *3870:B 5.71472e-05
12 *3885:D *3870:B 5.52302e-05
13 *3929:A *3930:A 0.000449539
14 *265:12 *3930:A 0.000490403
15 *289:10 *290:10 0.005571
*RES
1 *3886:Q *290:8 14.8357 
2 *290:8 *290:10 71.4643 
3 *290:10 *3930:A 18.4429 
4 *290:8 *3870:B 21.4786 
*END

*D_NET *291 0.0112248
*CONN
*I *3872:B I *D sky130_fd_sc_hd__and2_1
*I *3931:A I *D sky130_fd_sc_hd__clkbuf_4
*I *3887:Q O *D sky130_fd_sc_hd__dfrtp_1
*CAP
1 *3872:B 0.000471761
2 *3931:A 0.00201076
3 *3887:Q 0.000116235
4 *291:10 0.00415196
5 *291:8 0.0027292
6 *3872:B *3691:A1 6.27058e-05
7 *291:8 *293:38 0
8 *291:10 *293:38 0
9 *3691:A2 *3872:B 9.71197e-05
10 *3691:B1_N *3872:B 5.71472e-05
11 *3868:B *291:10 0.000177116
12 *3872:A *3872:B 3.18676e-05
13 *3874:D *3872:B 1.00073e-05
14 *210:25 *3872:B 2.44318e-05
15 *289:10 *291:10 0.00128451
*RES
1 *3887:Q *291:8 15.7464 
2 *291:8 *291:10 50.5179 
3 *291:10 *3931:A 44.7286 
4 *291:8 *3872:B 21.7643 
*END

*D_NET *292 0.0134508
*CONN
*I *3932:A I *D sky130_fd_sc_hd__buf_2
*I *3875:Q O *D sky130_fd_sc_hd__dfrtp_1
*CAP
1 *3932:A 0.00117581
2 *3875:Q 0.00166695
3 *292:22 0.00390819
4 *292:18 0.00439933
5 *292:18 *302:18 6.57026e-05
6 *3861:A1 *292:18 0.000343232
7 *284:23 *3932:A 0.00147007
8 *284:23 *292:22 0.000421546
*RES
1 *3875:Q *292:18 30.0031 
2 *292:18 *292:22 34.6339 
3 *292:22 *3932:A 38.3804 
*END

*D_NET *293 0.0137566
*CONN
*I *3875:RESET_B I *D sky130_fd_sc_hd__dfrtp_1
*I *3885:RESET_B I *D sky130_fd_sc_hd__dfrtp_1
*I *3878:RESET_B I *D sky130_fd_sc_hd__dfrtp_1
*I *3876:RESET_B I *D sky130_fd_sc_hd__dfrtp_1
*I *3877:RESET_B I *D sky130_fd_sc_hd__dfrtp_2
*I *3879:RESET_B I *D sky130_fd_sc_hd__dfrtp_1
*I *3874:RESET_B I *D sky130_fd_sc_hd__dfrtp_1
*I *3887:RESET_B I *D sky130_fd_sc_hd__dfrtp_1
*I *3886:RESET_B I *D sky130_fd_sc_hd__dfrtp_1
*I *3880:RESET_B I *D sky130_fd_sc_hd__dfrtp_1
*I *3891:X O *D sky130_fd_sc_hd__clkbuf_4
*CAP
1 *3875:RESET_B 9.72552e-05
2 *3885:RESET_B 9.06463e-05
3 *3878:RESET_B 0.000287653
4 *3876:RESET_B 0.000128108
5 *3877:RESET_B 0.000518823
6 *3879:RESET_B 0
7 *3874:RESET_B 0.00054096
8 *3887:RESET_B 3.35693e-05
9 *3886:RESET_B 3.99586e-06
10 *3880:RESET_B 0.00241505
11 *3891:X 0.000282966
12 *293:86 0.000563372
13 *293:68 0.00070695
14 *293:61 0.00034279
15 *293:38 0.000816855
16 *293:32 0.000900694
17 *293:22 0.00095813
18 *293:6 0.00210659
19 *3874:RESET_B *301:10 0.000143503
20 *3878:RESET_B *3855:A2 7.40249e-05
21 *3878:RESET_B *301:10 0.00024095
22 *293:38 *3869:A1 0
23 *293:38 *301:10 8.39632e-05
24 *293:61 *3857:A2 0.000126209
25 *293:61 *301:10 0.0004445
26 *293:68 *3857:A2 5.56943e-05
27 *293:68 *301:10 0.000119618
28 *293:86 *3855:A2 3.69697e-05
29 *293:86 *301:10 0.000359554
30 *3691:B1_N *293:61 0
31 *3847:B1 *3878:RESET_B 3.84385e-05
32 *3858:B *3880:RESET_B 0.000144773
33 *3858:B *293:22 0
34 *3868:B *293:38 0.000143044
35 *3875:D *3875:RESET_B 0
36 *3877:CLK *3877:RESET_B 1.39841e-05
37 *3877:D *3877:RESET_B 0.00014285
38 *3878:CLK *3878:RESET_B 9.46929e-05
39 *3880:CLK *293:22 2.89016e-05
40 *3880:D *293:22 0.000105163
41 *3885:D *3885:RESET_B 0
42 *3885:D *293:38 0
43 *3886:D *3886:RESET_B 2.81497e-05
44 *3886:D *293:22 9.6087e-05
45 *3886:D *293:32 2.00884e-05
46 *3892:A *3874:RESET_B 0
47 *211:83 *293:61 0
48 *211:100 *293:68 7.79781e-06
49 *211:100 *293:86 7.58664e-05
50 *214:57 *3875:RESET_B 7.6644e-05
51 *214:57 *293:6 0.000106828
52 *214:77 *3875:RESET_B 9.88679e-05
53 *261:33 *293:22 3.07455e-05
54 *261:92 *293:86 0
55 *280:8 *3878:RESET_B 0
56 *283:8 *3880:RESET_B 1.39841e-05
57 *290:8 *3885:RESET_B 0
58 *290:8 *293:38 1.02504e-05
59 *290:10 *3885:RESET_B 0
60 *291:8 *293:38 0
61 *291:10 *293:38 0
*RES
1 *3891:X *293:6 13.1214 
2 *293:6 *3880:RESET_B 29.1518 
3 *3880:RESET_B *293:22 10.7946 
4 *293:22 *3886:RESET_B 0.473214 
5 *293:22 *293:32 3.42857 
6 *293:32 *293:38 14.5893 
7 *293:38 *3887:RESET_B 4.97321 
8 *293:38 *3874:RESET_B 9.48214 
9 *3874:RESET_B *293:61 12.2232 
10 *293:61 *3879:RESET_B 4.5 
11 *293:61 *293:68 1.64286 
12 *293:68 *3877:RESET_B 11.8304 
13 *293:68 *293:86 4.67857 
14 *293:86 *3876:RESET_B 6.11607 
15 *293:86 *3878:RESET_B 11.4375 
16 *293:32 *3885:RESET_B 10.3393 
17 *293:6 *3875:RESET_B 11.25 
*END

*D_NET *294 0.00103371
*CONN
*I *3691:A1 I *D sky130_fd_sc_hd__o21ba_1
*I *3892:X O *D sky130_fd_sc_hd__dlygate4sd3_1
*CAP
1 *3691:A1 0.000293084
2 *3892:X 0.000293084
3 *3691:A1 *301:10 0
4 *3691:A2 *3691:A1 9.71197e-05
5 *3691:B1_N *3691:A1 0.000287714
6 *3872:B *3691:A1 6.27058e-05
*RES
1 *3892:X *3691:A1 34.4036 
*END

*D_NET *295 0.000236687
*CONN
*I *3847:A2 I *D sky130_fd_sc_hd__a22o_1
*I *3893:X O *D sky130_fd_sc_hd__dlygate4sd3_1
*CAP
1 *3847:A2 4.59573e-05
2 *3893:X 4.59573e-05
3 *3847:B1 *3847:A2 0.000144773
*RES
1 *3893:X *3847:A2 19.9571 
*END

*D_NET *296 0.0249255
*CONN
*I *3753:B I *D sky130_fd_sc_hd__and2_1
*I *3795:B I *D sky130_fd_sc_hd__nand2_1
*I *3788:A2 I *D sky130_fd_sc_hd__a31o_1
*I *3739:A2 I *D sky130_fd_sc_hd__a22o_1
*I *3740:C I *D sky130_fd_sc_hd__nand4_1
*I *3724:D I *D sky130_fd_sc_hd__nand4_1
*I *3865:A1 I *D sky130_fd_sc_hd__a31o_1
*I *3674:A I *D sky130_fd_sc_hd__xnor2_1
*I *3723:B1 I *D sky130_fd_sc_hd__a22o_1
*I *3661:A I *D sky130_fd_sc_hd__or4_1
*I *3913:X O *D sky130_fd_sc_hd__clkbuf_4
*CAP
1 *3753:B 8.21614e-06
2 *3795:B 0
3 *3788:A2 0.00010584
4 *3739:A2 1.26698e-05
5 *3740:C 0
6 *3724:D 0.00038678
7 *3865:A1 0.000907415
8 *3674:A 2.23854e-05
9 *3723:B1 6.12402e-05
10 *3661:A 0.000151635
11 *3913:X 0.00175389
12 *296:141 0.000880084
13 *296:98 0.000588698
14 *296:66 0.00126953
15 *296:40 0.000255432
16 *296:38 0.000518939
17 *296:36 0.000428239
18 *296:34 0.00084102
19 *296:22 0.00159499
20 *296:16 0.00172136
21 *296:12 0.00338497
22 *3661:A *3671:A 1.97695e-05
23 *3661:A *301:115 0.000270958
24 *3723:B1 *3723:A2 0.000178847
25 *3865:A1 *304:26 0
26 *296:12 *300:12 0.00135644
27 *296:16 *300:31 0.000154455
28 *296:36 *3750:B 4.698e-05
29 *296:38 *3750:B 0.000381325
30 *296:38 *301:115 3.34366e-05
31 *296:40 *301:115 0.00012401
32 *296:66 *300:43 1.32552e-05
33 *3675:B *3865:A1 2.14658e-05
34 *3723:B2 *3723:B1 1.74352e-05
35 *3737:B1 *3724:D 3.48139e-05
36 *3740:B *296:98 0.000178847
37 *3740:D *3724:D 3.18676e-05
38 *3743:A *3724:D 2.95641e-05
39 *3743:A *296:98 2.28499e-05
40 *3743:B *3724:D 0.000110446
41 *3743:C *3724:D 7.55769e-05
42 *3751:A *296:34 9.87227e-05
43 *3752:A1 *296:34 0.000262322
44 *3756:A1 *296:34 0.000144038
45 *3758:A *296:34 6.57455e-05
46 *3765:B *296:141 2.73377e-05
47 *3767:A *3753:B 4.38128e-05
48 *3767:A *296:22 0.00010096
49 *3767:B *3753:B 5.52302e-05
50 *3767:B *296:22 0.000177705
51 *3767:B *296:141 1.3701e-05
52 *3770:A2 *296:141 0.000139913
53 *3771:A1 *296:141 1.39841e-05
54 *3771:B1 *296:141 0.00022266
55 *3773:A1 *296:141 9.90431e-05
56 *3782:A *296:141 0.000263524
57 *3782:B *296:141 5.27084e-05
58 *3784:B1 *3788:A2 1.05731e-05
59 *3784:B1 *296:141 1.86723e-05
60 *3795:A *3788:A2 0.000145994
61 *3797:A *3788:A2 1.11491e-05
62 *3883:CLK *3865:A1 0
63 *3883:D *3865:A1 2.34204e-05
64 *3907:A *296:12 0.000100642
65 *72:20 *3661:A 0
66 *83:10 *3724:D 0.000148189
67 *85:21 *296:34 0.000128161
68 *87:10 *296:34 0.00012401
69 *87:10 *296:36 0.000151333
70 *87:10 *296:98 2.39999e-05
71 *88:8 *296:34 0
72 *90:6 *3724:D 2.51343e-06
73 *100:6 *296:22 0.000203665
74 *100:6 *296:141 5.74499e-06
75 *100:23 *296:141 6.01685e-05
76 *102:8 *296:34 0
77 *103:10 *296:34 0.000121516
78 *114:16 *296:34 7.6644e-05
79 *115:14 *296:141 3.97677e-05
80 *115:23 *296:141 0.000137983
81 *117:8 *296:141 0.000443648
82 *118:6 *296:141 2.6505e-05
83 *129:18 *296:16 0
84 *129:18 *296:141 6.8194e-05
85 *131:22 *296:141 5.33005e-05
86 *136:14 *3788:A2 0.000268409
87 *136:14 *296:141 2.89967e-05
88 *212:80 *3739:A2 2.30969e-05
89 *213:89 *3661:A 6.05161e-06
90 *213:108 *3661:A 3.97677e-05
91 *214:77 *3661:A 1.02504e-05
92 *214:88 *3661:A 0.000272665
93 *214:88 *296:38 0.000262415
94 *214:88 *296:40 0.000116474
95 *228:8 *3674:A 0
96 *228:8 *3865:A1 0.000274824
97 *246:85 *296:98 9.60939e-05
98 *247:112 *3723:B1 2.59355e-05
99 *247:127 *296:36 5.75896e-05
100 *264:14 *296:16 0.000930244
101 *264:35 *296:34 0
102 *264:35 *296:141 6.5717e-05
103 *264:51 *3724:D 0.000125748
104 *265:42 *296:66 0.000227539
105 *265:57 *296:34 0
106 *272:20 *3723:B1 1.82549e-05
107 *273:8 *296:12 3.94707e-05
108 *279:35 *296:36 2.58997e-05
109 *279:35 *296:38 7.38844e-05
110 *279:37 *296:98 3.32631e-05
*RES
1 *3913:X *296:12 40.4161 
2 *296:12 *296:16 39.5804 
3 *296:16 *296:22 3.55357 
4 *296:22 *296:34 20.2143 
5 *296:34 *296:36 2.85714 
6 *296:36 *296:38 5.28571 
7 *296:38 *296:40 1.64286 
8 *296:40 *3661:A 18.6393 
9 *296:40 *3723:B1 15.5679 
10 *296:38 *296:66 9.96429 
11 *296:66 *3674:A 9.72857 
12 *296:66 *3865:A1 30.8893 
13 *296:36 *296:98 8.76786 
14 *296:98 *3724:D 25.3893 
15 *296:98 *3740:C 9.3 
16 *296:34 *3739:A2 14.0321 
17 *296:22 *296:141 26.8214 
18 *296:141 *3788:A2 12.7464 
19 *296:141 *3795:B 9.3 
20 *296:16 *3753:B 9.83571 
*END

*D_NET *297 0.00068089
*CONN
*I *3857:A2 I *D sky130_fd_sc_hd__a21bo_1
*I *3894:X O *D sky130_fd_sc_hd__dlygate4sd3_1
*CAP
1 *3857:A2 8.74099e-05
2 *3894:X 8.74099e-05
3 *3857:A1 *3857:A2 1.53756e-05
4 *211:100 *3857:A2 0.000308792
5 *293:61 *3857:A2 0.000126209
6 *293:68 *3857:A2 5.56943e-05
*RES
1 *3894:X *3857:A2 31.6714 
*END

*D_NET *298 0.00165484
*CONN
*I *3855:A2 I *D sky130_fd_sc_hd__a22o_1
*I *3895:X O *D sky130_fd_sc_hd__dlygate4sd3_1
*CAP
1 *3855:A2 0.000539523
2 *3895:X 0.000539523
3 *3847:A1 *3855:A2 3.92854e-05
4 *3847:B1 *3855:A2 0.000202835
5 *3850:A2 *3855:A2 0
6 *3855:A1 *3855:A2 1.04232e-05
7 *3876:CLK *3855:A2 0.000161878
8 *3878:CLK *3855:A2 5.03772e-05
9 *3878:RESET_B *3855:A2 7.40249e-05
10 *293:86 *3855:A2 3.69697e-05
*RES
1 *3895:X *3855:A2 45.5643 
*END

*D_NET *299 0.0012467
*CONN
*I *3851:A2 I *D sky130_fd_sc_hd__a22o_1
*I *3896:X O *D sky130_fd_sc_hd__dlygate4sd3_1
*CAP
1 *3851:A2 0.000457517
2 *3896:X 0.000457517
3 *3850:A3 *3851:A2 0.000276211
4 *3851:B1 *3851:A2 2.02786e-05
5 *3851:B2 *3851:A2 2.27416e-05
6 *3855:A1 *3851:A2 0
7 *3855:B1 *3851:A2 0
8 *211:117 *3851:A2 1.24368e-05
*RES
1 *3896:X *3851:A2 25.35 
*END

*D_NET *300 0.0271146
*CONN
*I *3738:B I *D sky130_fd_sc_hd__and2_1
*I *3723:A2 I *D sky130_fd_sc_hd__a22o_1
*I *3671:A I *D sky130_fd_sc_hd__xor2_1
*I *3867:A1 I *D sky130_fd_sc_hd__a31o_1
*I *3662:B I *D sky130_fd_sc_hd__or3_1
*I *3668:A1 I *D sky130_fd_sc_hd__o21a_1
*I *3695:D I *D sky130_fd_sc_hd__nand4_1
*I *3724:C I *D sky130_fd_sc_hd__nand4_1
*I *3697:B1 I *D sky130_fd_sc_hd__a22o_1
*I *3764:B I *D sky130_fd_sc_hd__and2_1
*I *3914:X O *D sky130_fd_sc_hd__clkbuf_4
*CAP
1 *3738:B 0
2 *3723:A2 0.000385671
3 *3671:A 0.000113372
4 *3867:A1 0.000996304
5 *3662:B 5.41127e-05
6 *3668:A1 8.47275e-06
7 *3695:D 1.91209e-05
8 *3724:C 0.000413445
9 *3697:B1 0.000225453
10 *3764:B 0.000337383
11 *3914:X 0.00162017
12 *300:109 0.00108555
13 *300:96 0.000107549
14 *300:57 0.000787753
15 *300:51 0.000488435
16 *300:49 0.000473294
17 *300:45 0.000322415
18 *300:43 0.00109888
19 *300:31 0.00128195
20 *300:18 0.0028442
21 *300:12 0.0034381
22 *3697:B1 *3735:B 0
23 *3724:C *3735:B 0
24 *3867:A1 *3662:A 1.97695e-05
25 *300:43 *3750:B 1.00375e-05
26 *300:51 *3662:A 0.000181803
27 *300:96 *3662:A 9.22103e-06
28 *300:109 *3662:A 6.9276e-05
29 *3661:A *3671:A 1.97695e-05
30 *3661:B *3671:A 4.65338e-05
31 *3665:A *3867:A1 4.88637e-05
32 *3665:B *3662:B 5.7998e-05
33 *3665:B *3867:A1 0.000135327
34 *3667:B *3867:A1 0.000177234
35 *3668:A2 *3668:A1 3.85007e-05
36 *3668:A2 *300:96 2.28499e-05
37 *3668:A2 *300:109 1.33343e-05
38 *3670:B *300:45 6.98669e-05
39 *3677:B *300:43 0
40 *3687:A1 *3867:A1 5.90443e-06
41 *3688:B1 *3867:A1 8.00806e-05
42 *3695:A *300:57 9.71197e-05
43 *3695:B *300:57 0.00014183
44 *3697:B2 *3697:B1 0.000158654
45 *3723:A1 *3723:A2 1.04232e-05
46 *3723:B1 *3723:A2 0.000178847
47 *3724:A *3724:C 1.21812e-05
48 *3724:B *3724:C 1.24368e-05
49 *3725:A2 *3724:C 2.58821e-05
50 *3736:A *3724:C 5.91094e-05
51 *3736:C *3724:C 2.89016e-05
52 *3745:A2 *3724:C 0
53 *3764:A *3764:B 0.000441463
54 *3782:B *3764:B 0.000104016
55 *3818:A2 *300:57 1.24368e-05
56 *3866:B *3867:A1 0
57 *3867:A2 *3867:A1 1.32552e-05
58 *3867:A3 *3867:A1 0.000139907
59 *3874:CLK *3697:B1 1.10632e-05
60 *3875:CLK *3697:B1 0.000245853
61 *3883:CLK *3867:A1 0
62 *3884:D *3867:A1 0.000142856
63 *3913:A *300:12 5.23822e-05
64 *3914:A *300:12 3.4689e-05
65 *3:13 *3697:B1 1.25544e-05
66 *70:10 *3724:C 5.01117e-05
67 *76:19 *3724:C 0
68 *82:10 *3724:C 0.000100831
69 *111:10 *3764:B 2.65105e-05
70 *209:115 *3867:A1 6.78106e-05
71 *212:10 *300:31 0
72 *212:10 *300:43 0
73 *212:12 *300:43 0
74 *212:16 *300:43 0
75 *213:108 *3671:A 5.03772e-05
76 *213:108 *300:45 1.76039e-05
77 *213:108 *300:49 7.17932e-05
78 *215:8 *3671:A 0.000137983
79 *217:27 *300:51 0.000139168
80 *217:27 *300:57 7.10432e-05
81 *217:43 *3697:B1 1.37292e-05
82 *217:85 *300:51 0.00031119
83 *217:95 *3662:B 0
84 *217:95 *300:51 9.22103e-06
85 *217:95 *300:96 0.00020288
86 *217:95 *300:109 2.44318e-05
87 *217:116 *300:43 7.83366e-05
88 *217:116 *300:45 0
89 *236:16 *3867:A1 0.000256931
90 *246:42 *3697:B1 7.6644e-05
91 *246:62 *3697:B1 4.66511e-05
92 *246:62 *3724:C 0.000289564
93 *247:89 *3724:C 0.000266486
94 *247:99 *3723:A2 1.92789e-05
95 *247:112 *3723:A2 1.21258e-05
96 *262:40 *3867:A1 0
97 *262:62 *3867:A1 0
98 *264:18 *3764:B 0.000521792
99 *264:51 *3724:C 0
100 *265:31 *300:43 5.74562e-05
101 *265:31 *300:45 0.000133243
102 *265:31 *300:49 7.50697e-05
103 *265:42 *300:43 0.000764002
104 *265:57 *300:31 0.000964937
105 *265:57 *300:43 1.02504e-05
106 *270:10 *300:18 0
107 *272:20 *3723:A2 0.000102323
108 *273:10 *300:18 0.00152103
109 *275:10 *3867:A1 5.57914e-05
110 *296:12 *300:12 0.00135644
111 *296:16 *300:31 0.000154455
112 *296:66 *300:43 1.32552e-05
*RES
1 *3914:X *300:12 44.4607 
2 *300:12 *300:18 46.5179 
3 *300:18 *3764:B 19.3 
4 *300:18 *300:31 22.2321 
5 *300:31 *300:43 22.375 
6 *300:43 *300:45 3.46429 
7 *300:45 *300:49 6.44643 
8 *300:49 *300:51 7.10714 
9 *300:51 *300:57 7.92857 
10 *300:57 *3697:B1 19.3893 
11 *300:57 *3724:C 23.675 
12 *300:51 *3695:D 9.72857 
13 *300:49 *300:96 2.78571 
14 *300:96 *3668:A1 9.99643 
15 *300:96 *300:109 1.51786 
16 *300:109 *3662:B 10.5679 
17 *300:109 *3867:A1 38.7464 
18 *300:45 *3671:A 16.8357 
19 *300:43 *3723:A2 18.7643 
20 *300:31 *3738:B 13.8 
*END

*D_NET *301 0.0293077
*CONN
*I *3695:C I *D sky130_fd_sc_hd__nand4_1
*I *3669:A I *D sky130_fd_sc_hd__xnor2_1
*I *3750:B I *D sky130_fd_sc_hd__and2_1
*I *3722:B I *D sky130_fd_sc_hd__and2_1
*I *3662:A I *D sky130_fd_sc_hd__or3_1
*I *3697:A2 I *D sky130_fd_sc_hd__a22o_1
*I *3701:D I *D sky130_fd_sc_hd__and4_1
*I *3702:B1 I *D sky130_fd_sc_hd__a22o_1
*I *3869:A1 I *D sky130_fd_sc_hd__a31o_1
*I *3915:X O *D sky130_fd_sc_hd__clkbuf_4
*CAP
1 *3695:C 9.02423e-05
2 *3669:A 0
3 *3750:B 0.00114244
4 *3722:B 0
5 *3662:A 0.000308618
6 *3697:A2 0
7 *3701:D 0
8 *3702:B1 0.000161782
9 *3869:A1 0.000137304
10 *3915:X 0.0003557
11 *301:115 0.00133609
12 *301:98 0.000594455
13 *301:94 0.000260175
14 *301:82 0.000404427
15 *301:69 0.000836412
16 *301:42 0.000708311
17 *301:27 0.00104801
18 *301:12 0.0010362
19 *301:10 0.00383388
20 *301:8 0.00415882
21 *3702:B1 *3702:A2 6.35819e-05
22 *3702:B1 *302:73 5.09065e-05
23 *301:27 *3871:A1 0.00164313
24 *301:42 *302:71 9.54798e-06
25 *301:42 *302:73 1.1594e-05
26 *301:94 *3663:A 1.04232e-05
27 *301:94 *302:50 0.000235013
28 *301:94 *303:34 0.000250945
29 *301:94 *303:42 4.23643e-05
30 *3661:A *301:115 0.000270958
31 *3668:A2 *3662:A 4.87854e-05
32 *3669:B *301:94 5.33005e-05
33 *3669:B *301:98 0.000102545
34 *3691:A1 *301:10 0
35 *3691:A2 *3869:A1 5.59202e-05
36 *3691:A2 *301:10 5.01876e-06
37 *3691:B1_N *301:10 0
38 *3697:A1 *301:69 6.20057e-05
39 *3699:B *301:69 1.24368e-05
40 *3699:B *301:82 1.57523e-05
41 *3702:A1 *3702:B1 6.53543e-05
42 *3704:B *3702:B1 0
43 *3726:B2 *301:82 0.000148189
44 *3752:A1 *3750:B 2.16719e-05
45 *3758:A *3750:B 3.24389e-05
46 *3758:C *3750:B 0.00012401
47 *3775:A *3750:B 0
48 *3847:B1 *301:10 0
49 *3867:A1 *3662:A 1.97695e-05
50 *3874:RESET_B *301:10 0.000143503
51 *3878:D *301:10 7.07908e-05
52 *3878:RESET_B *301:10 0.00024095
53 *3894:A *301:10 0
54 *3:13 *3695:C 5.53499e-05
55 *3:13 *301:82 6.63476e-05
56 *56:8 *301:69 0.0002976
57 *86:8 *3750:B 0.000128154
58 *86:21 *3750:B 0.000221163
59 *87:10 *3750:B 0.000100735
60 *103:10 *3750:B 0.000119684
61 *214:6 *3702:B1 2.27416e-05
62 *214:77 *301:98 0.000267814
63 *214:77 *301:115 4.40802e-05
64 *243:26 *3702:B1 0
65 *243:26 *301:27 1.46911e-05
66 *243:55 *3869:A1 0
67 *248:10 *3695:C 4.78056e-05
68 *248:10 *301:82 2.26327e-05
69 *249:16 *301:69 0.000154997
70 *249:134 *301:69 7.49387e-06
71 *249:134 *301:82 0.00018372
72 *250:8 *301:69 3.37729e-05
73 *250:8 *301:82 0.000106726
74 *251:21 *3695:C 2.60158e-05
75 *252:20 *301:69 0.000570226
76 *254:6 *301:69 6.67417e-05
77 *261:16 *3869:A1 0
78 *262:38 *301:94 0.000398988
79 *263:23 *301:69 0
80 *264:35 *3750:B 5.33005e-05
81 *264:51 *3750:B 5.30479e-05
82 *265:31 *3750:B 1.02504e-05
83 *265:31 *301:98 7.98549e-05
84 *265:31 *301:115 0.000504628
85 *265:42 *3750:B 0
86 *265:57 *3750:B 0
87 *266:8 *301:8 0.000326324
88 *267:44 *301:69 0.000176322
89 *277:22 *301:27 0.0026865
90 *278:10 *301:10 0.000184626
91 *278:23 *301:10 0.000187893
92 *293:38 *3869:A1 0
93 *293:38 *301:10 8.39632e-05
94 *293:61 *301:10 0.0004445
95 *293:68 *301:10 0.000119618
96 *293:86 *301:10 0.000359554
97 *296:36 *3750:B 4.698e-05
98 *296:38 *3750:B 0.000381325
99 *296:38 *301:115 3.34366e-05
100 *296:40 *301:115 0.00012401
101 *300:43 *3750:B 1.00375e-05
102 *300:51 *3662:A 0.000181803
103 *300:96 *3662:A 9.22103e-06
104 *300:109 *3662:A 6.9276e-05
*RES
1 *3915:X *301:8 22.1393 
2 *301:8 *301:10 78.2946 
3 *301:10 *301:12 0.535714 
4 *301:12 *3869:A1 16.2018 
5 *301:12 *301:27 11.0469 
6 *301:27 *3702:B1 16.4339 
7 *301:27 *301:42 4.77679 
8 *301:42 *3701:D 9.3 
9 *301:42 *301:69 22.7143 
10 *301:69 *3697:A2 9.3 
11 *301:69 *301:82 9.25 
12 *301:82 *301:94 11.4821 
13 *301:94 *301:98 7.96429 
14 *301:98 *3662:A 18.4786 
15 *301:98 *301:115 7.03571 
16 *301:115 *3722:B 13.8 
17 *301:115 *3750:B 38.2107 
18 *301:94 *3669:A 9.3 
19 *301:82 *3695:C 16.05 
*END

*D_NET *302 0.0352578
*CONN
*I *3666:A I *D sky130_fd_sc_hd__xor2_1
*I *3664:A I *D sky130_fd_sc_hd__or3b_2
*I *3735:B I *D sky130_fd_sc_hd__and2_1
*I *3710:B I *D sky130_fd_sc_hd__nand2_1
*I *3701:C I *D sky130_fd_sc_hd__and4_1
*I *3871:A1 I *D sky130_fd_sc_hd__a31o_1
*I *3702:A2 I *D sky130_fd_sc_hd__a22o_1
*I *3817:A I *D sky130_fd_sc_hd__nand2_1
*I *3726:A2 I *D sky130_fd_sc_hd__a22o_1
*I *3698:B I *D sky130_fd_sc_hd__nand4_1
*I *3916:X O *D sky130_fd_sc_hd__buf_4
*CAP
1 *3666:A 8.42507e-05
2 *3664:A 0
3 *3735:B 0.000386638
4 *3710:B 2.07973e-05
5 *3701:C 0
6 *3871:A1 0.00082616
7 *3702:A2 0.000200123
8 *3817:A 0.000443761
9 *3726:A2 0
10 *3698:B 4.14895e-05
11 *3916:X 0
12 *302:73 0.00106031
13 *302:71 0.000268304
14 *302:54 0.00081358
15 *302:52 0.000353524
16 *302:50 0.000840364
17 *302:41 0.000338828
18 *302:28 0.000564479
19 *302:20 0.000440702
20 *302:18 0.00196305
21 *302:16 0.00323945
22 *302:12 0.00248938
23 *302:6 0.00527873
24 *302:4 0.00415
25 *3666:A *303:34 0.000187026
26 *302:6 *303:8 0.00118902
27 *302:6 *303:14 0.00142768
28 *302:18 *3891:A 0
29 *302:18 *303:34 0.000340773
30 *302:50 *3663:A 3.99614e-06
31 *302:50 *303:42 0.000194499
32 *302:52 *303:42 1.92905e-05
33 sideband_out[2] *302:6 0.000142856
34 *3664:B *3666:A 0.000196276
35 *3664:B *302:18 5.83233e-05
36 *3664:C_N *302:28 0.000445577
37 *3664:C_N *302:41 0
38 *3682:B2 *302:18 0
39 *3697:B1 *3735:B 0
40 *3697:B2 *3735:B 2.42445e-05
41 *3698:A *3698:B 1.5424e-05
42 *3698:A *302:28 5.71472e-05
43 *3702:A1 *3702:A2 0.000207127
44 *3702:A1 *302:73 5.38776e-05
45 *3702:B1 *3702:A2 6.35819e-05
46 *3702:B1 *302:73 5.09065e-05
47 *3712:B *3710:B 1.00733e-05
48 *3712:B *302:52 1.98839e-05
49 *3712:B *302:54 7.32173e-05
50 *3714:A *302:54 0.000137983
51 *3714:B *302:71 0.000218486
52 *3719:B1 *3817:A 0
53 *3724:C *3735:B 0
54 *3726:A1 *302:41 0.000100831
55 *3726:B1 *302:50 5.33005e-05
56 *3730:A *3735:B 0
57 *3733:A *3817:A 0
58 *3745:A2 *3735:B 0.000100831
59 *3819:A3 *3817:A 8.00806e-05
60 *3820:A0 *3817:A 0
61 *3859:A2 *3871:A1 0
62 *3859:A3 *3871:A1 9.15186e-06
63 *3861:A1 *302:18 0
64 *3868:A *3871:A1 0.000187106
65 *3871:A2 *3871:A1 5.25193e-05
66 *3890:A *302:52 2.59355e-05
67 *3909:A *302:6 0.000142856
68 *3916:A *302:6 0.000186669
69 *3:11 *302:12 0
70 *55:18 *3817:A 0
71 *55:26 *3817:A 0
72 *55:26 *302:71 0
73 *68:14 *3817:A 0
74 *76:8 *3735:B 9.55371e-05
75 *170:14 *3817:A 0
76 *209:31 *3871:A1 8.45419e-05
77 *209:33 *3871:A1 5.63497e-05
78 *211:14 *3871:A1 0
79 *213:108 *302:18 1.18064e-05
80 *214:6 *3702:A2 5.19842e-06
81 *214:25 *3871:A1 0
82 *217:43 *3735:B 0.000120708
83 *217:43 *3817:A 0.000488493
84 *217:43 *302:50 2.89114e-05
85 *217:43 *302:52 0.000252092
86 *217:43 *302:54 0.0001717
87 *218:12 *302:28 4.58194e-05
88 *223:10 *3666:A 5.33005e-05
89 *234:10 *302:18 0
90 *243:14 *302:18 0
91 *243:26 *3871:A1 0.000883792
92 *243:43 *3871:A1 2.77147e-05
93 *249:134 *3698:B 1.24368e-05
94 *249:134 *302:28 2.01281e-05
95 *251:21 *302:41 1.17968e-05
96 *257:16 *302:71 0
97 *262:38 *3666:A 1.58163e-05
98 *262:38 *302:50 0.000113083
99 *264:62 *3735:B 0.000186662
100 *266:35 *3735:B 7.14351e-05
101 *266:45 *302:71 0.000218387
102 *266:45 *302:73 9.54798e-06
103 *267:44 *302:71 0
104 *269:8 *302:6 0.000358971
105 *269:10 *302:12 0
106 *269:10 *302:16 0
107 *269:10 *302:18 0
108 *272:20 *3735:B 6.81335e-05
109 *276:14 *302:18 0
110 *292:18 *302:18 6.57026e-05
111 *301:27 *3871:A1 0.00164313
112 *301:42 *302:71 9.54798e-06
113 *301:42 *302:73 1.1594e-05
114 *301:94 *302:50 0.000235013
*RES
1 *3916:X *302:4 9.3 
2 *302:4 *302:6 80.2143 
3 *302:6 *302:12 25.4911 
4 *302:12 *302:16 25.3036 
5 *302:16 *302:18 35.5982 
6 *302:18 *302:20 4.5 
7 *302:20 *302:28 9.21429 
8 *302:28 *3698:B 9.83571 
9 *302:28 *302:41 10.6429 
10 *302:41 *3726:A2 9.3 
11 *302:41 *302:50 6.71429 
12 *302:50 *302:52 4.64286 
13 *302:52 *302:54 3.41071 
14 *302:54 *3817:A 27.6214 
15 *302:54 *302:71 9.78571 
16 *302:71 *302:73 0.883929 
17 *302:73 *3702:A2 17.1839 
18 *302:73 *3871:A1 31.7837 
19 *302:71 *3701:C 13.8 
20 *302:52 *3710:B 9.72857 
21 *302:50 *3735:B 27.6036 
22 *302:20 *3664:A 9.3 
23 *302:18 *3666:A 16.8893 
*END

*D_NET *303 0.0277284
*CONN
*I *3679:A I *D sky130_fd_sc_hd__nand2_1
*I *3663:A I *D sky130_fd_sc_hd__buf_2
*I *3713:A I *D sky130_fd_sc_hd__and3_1
*I *3708:B I *D sky130_fd_sc_hd__nand2_2
*I *3700:A I *D sky130_fd_sc_hd__nand2_1
*I *3709:A1 I *D sky130_fd_sc_hd__a31o_1
*I *3917:X O *D sky130_fd_sc_hd__buf_2
*CAP
1 *3679:A 3.51002e-05
2 *3663:A 1.82115e-05
3 *3713:A 0.000309363
4 *3708:B 2.63939e-05
5 *3700:A 3.98781e-05
6 *3709:A1 0.00017976
7 *3917:X 0.00140103
8 *303:78 0.000637508
9 *303:61 0.000604685
10 *303:42 0.00115277
11 *303:34 0.00124788
12 *303:20 0.000554813
13 *303:18 0.00227615
14 *303:16 0.00230237
15 *303:14 0.00148356
16 *303:8 0.00285838
17 *3666:A *303:34 0.000187026
18 *3669:B *303:34 3.03304e-05
19 *3679:B *303:18 0.000212162
20 *3680:B *3679:A 5.33005e-05
21 *3680:B *303:34 9.61455e-05
22 *3681:A1 *303:18 0
23 *3697:A1 *303:61 9.63148e-05
24 *3697:B2 *303:42 2.05938e-05
25 *3700:B *3700:A 5.04841e-06
26 *3700:B *303:61 0
27 *3709:B1 *3709:A1 3.18676e-05
28 *3713:B *3713:A 5.51406e-05
29 *3726:B1 *303:42 2.59355e-05
30 *3817:B *3708:B 0
31 *3817:B *3713:A 4.43256e-05
32 *3820:A0 *3713:A 0.000104974
33 *3820:S *3713:A 9.71197e-05
34 *3861:A1 *3679:A 0
35 *3861:A2 *303:18 6.8646e-06
36 *3861:B1 *3679:A 0
37 *3909:A *303:14 0.000142856
38 *55:18 *3713:A 3.06406e-05
39 *55:66 *3713:A 2.90075e-05
40 *55:66 *303:78 4.35306e-05
41 *58:8 *3713:A 3.57844e-05
42 *59:14 *3713:A 1.02504e-05
43 *209:16 *3709:A1 3.48705e-05
44 *213:108 *303:34 0.000764373
45 *223:10 *303:34 0.000231529
46 *243:26 *303:34 0.000227532
47 *243:104 *303:34 0.000301817
48 *247:18 *3713:A 9.71197e-05
49 *247:18 *303:78 5.96516e-05
50 *249:10 *3709:A1 0.00014285
51 *249:16 *303:78 7.98175e-05
52 *249:27 *303:78 0.0001144
53 *249:48 *303:78 0.000391249
54 *249:134 *3709:A1 0.000217663
55 *249:134 *303:42 9.25014e-06
56 *252:20 *3700:A 9.03671e-05
57 *252:20 *303:61 0.000310025
58 *262:38 *303:34 0.000125423
59 *263:23 *3709:A1 0
60 *266:35 *3709:A1 1.55475e-05
61 *266:35 *303:42 3.48235e-05
62 *266:45 *3709:A1 1.01912e-05
63 *267:44 *303:78 0.000585473
64 *268:12 *303:18 0
65 *269:10 *303:14 0.000852171
66 *269:10 *303:18 0.00136038
67 *275:8 *303:14 0.000838118
68 *275:10 *303:14 0
69 *275:10 *303:18 0
70 *276:14 *303:18 0.000860039
71 *277:22 *3709:A1 7.69776e-06
72 *301:94 *3663:A 1.04232e-05
73 *301:94 *303:34 0.000250945
74 *301:94 *303:42 4.23643e-05
75 *302:6 *303:8 0.00118902
76 *302:6 *303:14 0.00142768
77 *302:18 *303:34 0.000340773
78 *302:50 *3663:A 3.99614e-06
79 *302:50 *303:42 0.000194499
80 *302:52 *303:42 1.92905e-05
*RES
1 *3917:X *303:8 37.9875 
2 *303:8 *303:14 49.7321 
3 *303:14 *303:16 0.535714 
4 *303:16 *303:18 55.9911 
5 *303:18 *303:20 4.5 
6 *303:20 *303:34 27.6964 
7 *303:34 *303:42 13.8929 
8 *303:42 *3709:A1 18.3179 
9 *303:42 *303:61 9.89286 
10 *303:61 *3700:A 10.2643 
11 *303:61 *303:78 18.0714 
12 *303:78 *3708:B 9.72857 
13 *303:78 *3713:A 24.8179 
14 *303:34 *3663:A 9.72857 
15 *303:20 *3679:A 10.2643 
*END

*D_NET *304 0.0147027
*CONN
*I *3882:RESET_B I *D sky130_fd_sc_hd__dfrtp_1
*I *3884:RESET_B I *D sky130_fd_sc_hd__dfrtp_2
*I *3881:RESET_B I *D sky130_fd_sc_hd__dfrtp_1
*I *3891:A I *D sky130_fd_sc_hd__clkbuf_4
*I *3883:RESET_B I *D sky130_fd_sc_hd__dfrtp_1
*I *3918:X O *D sky130_fd_sc_hd__buf_2
*CAP
1 *3882:RESET_B 3.35512e-05
2 *3884:RESET_B 3.35512e-05
3 *3881:RESET_B 2.71784e-05
4 *3891:A 0.00132714
5 *3883:RESET_B 0.00124207
6 *3918:X 8.29479e-05
7 *304:32 0.00164327
8 *304:28 0.000607534
9 *304:26 0.000705521
10 *304:12 0.00438332
11 *304:10 0.00361114
12 *3680:B *3891:A 0.000114577
13 *3682:B2 *3891:A 4.46186e-06
14 *3861:A2 *3891:A 0.000227532
15 *3862:B *304:28 0
16 *3864:A *304:26 6.3753e-05
17 *3864:A *304:28 0
18 *3864:B *304:26 0.000129868
19 *3865:A1 *304:26 0
20 *3866:B *304:32 0
21 *3881:CLK *3891:A 5.76121e-05
22 *3881:D *3891:A 1.55953e-05
23 *211:42 *304:32 0
24 *211:51 *304:28 0
25 *211:51 *304:32 0
26 *214:57 *3891:A 0.000274294
27 *234:10 *3891:A 4.03109e-05
28 *243:104 *3891:A 1.32822e-05
29 *243:117 *3891:A 1.00073e-05
30 *276:14 *3891:A 0
31 *287:8 *3883:RESET_B 5.41609e-05
32 *302:18 *3891:A 0
*RES
1 *3918:X *304:10 19.6393 
2 *304:10 *304:12 54.1339 
3 *304:12 *3883:RESET_B 14.6607 
4 *3883:RESET_B *304:26 12.2679 
5 *304:26 *304:28 4.98214 
6 *304:28 *304:32 9.48214 
7 *304:32 *3891:A 37.1393 
8 *304:32 *3881:RESET_B 0.473214 
9 *304:28 *3884:RESET_B 4.97321 
10 *304:26 *3882:RESET_B 4.97321 
*END
