*SPEF "ieee 1481-1999"
*DESIGN "gear_quantizer"
*DATE "11:11:11 Fri 11 11, 1111"
*VENDOR "OpenRCX"
*PROGRAM "Parallel Extraction"
*VERSION "1.0"
*DESIGN_FLOW "NAME_SCOPE LOCAL" "PIN_CAP NONE"
*DIVIDER /
*DELIMITER :
*BUS_DELIMITER []
*T_UNIT 1 NS
*C_UNIT 1 PF
*R_UNIT 1 OHM
*L_UNIT 1 HENRY

*NAME_MAP
*3 clk
*4 data_in[0]
*5 data_in[1]
*6 data_in[2]
*7 data_in[3]
*8 data_in[4]
*9 data_in[5]
*10 data_in[6]
*11 data_in[7]
*12 int4_out[0]
*13 int4_out[1]
*14 int4_out[2]
*15 int4_out[3]
*16 is_outlier
*17 round_mode
*18 rst_n
*19 scale[0]
*20 scale[1]
*21 scale[2]
*22 scale[3]
*23 sideband_out[0]
*24 sideband_out[1]
*25 sideband_out[2]
*26 sideband_out[3]
*27 sideband_out[4]
*28 sideband_out[5]
*29 sideband_out[6]
*30 sideband_out[7]
*31 threshold[0]
*32 threshold[1]
*33 threshold[2]
*34 threshold[3]
*35 threshold[4]
*36 threshold[5]
*37 threshold[6]
*38 threshold[7]
*39 valid_in
*40 valid_out
*41 _000_
*42 _001_
*43 _002_
*44 _003_
*45 _004_
*46 _005_
*47 _006_
*48 _007_
*49 _008_
*50 _009_
*51 _010_
*52 _011_
*53 _012_
*54 _013_
*55 _014_
*56 _015_
*57 _016_
*58 _017_
*59 _018_
*60 _019_
*61 _020_
*62 _021_
*63 _022_
*64 _023_
*65 _024_
*66 _025_
*67 _026_
*68 _027_
*69 _028_
*70 _029_
*71 _030_
*72 _031_
*73 _032_
*74 _033_
*75 _034_
*76 _035_
*77 _036_
*78 _037_
*79 _038_
*80 _039_
*81 _040_
*82 _041_
*83 _042_
*84 _043_
*85 _044_
*86 _045_
*87 _046_
*88 _047_
*89 _048_
*90 _049_
*91 _050_
*92 _051_
*93 _052_
*94 _053_
*95 _054_
*96 _055_
*97 _056_
*98 _057_
*99 _058_
*100 _059_
*101 _060_
*102 _061_
*103 _062_
*104 _063_
*105 _064_
*106 _065_
*107 _066_
*108 _067_
*109 _068_
*110 _069_
*111 _070_
*112 _071_
*113 _072_
*114 _073_
*115 _074_
*116 _075_
*117 _076_
*118 _077_
*119 _078_
*120 _079_
*121 _080_
*122 _081_
*123 _082_
*124 _083_
*125 _084_
*126 _085_
*127 _086_
*128 _087_
*129 _088_
*130 _089_
*131 _090_
*132 _091_
*133 _092_
*134 _093_
*135 _094_
*136 _095_
*137 _096_
*138 _097_
*139 _098_
*140 _099_
*141 _100_
*142 _101_
*143 _102_
*144 _103_
*145 _104_
*146 _105_
*147 _106_
*148 _107_
*149 _108_
*150 _109_
*151 _110_
*152 _111_
*153 _112_
*154 _113_
*155 _114_
*156 _115_
*157 _116_
*158 _117_
*159 _118_
*160 _119_
*161 _120_
*162 _121_
*163 _122_
*164 _123_
*165 _124_
*166 _125_
*167 _126_
*168 _127_
*169 _128_
*170 _129_
*171 _130_
*172 _131_
*173 _132_
*174 _133_
*175 _134_
*176 _135_
*177 _136_
*178 _137_
*179 _138_
*180 _139_
*181 _140_
*182 _141_
*183 _142_
*184 _143_
*185 _144_
*186 _145_
*187 _146_
*188 _147_
*189 _148_
*190 _149_
*191 _150_
*192 _151_
*193 _152_
*194 _153_
*195 _154_
*196 _155_
*197 _156_
*198 _157_
*199 _158_
*200 _159_
*201 _160_
*202 _161_
*203 _162_
*204 _163_
*205 _164_
*206 _165_
*207 _166_
*208 _167_
*209 _168_
*210 _169_
*211 _170_
*212 _171_
*213 _172_
*214 _173_
*215 _174_
*216 _175_
*217 _176_
*218 _177_
*219 _178_
*220 _179_
*221 _180_
*222 _181_
*223 _182_
*224 _183_
*225 _184_
*226 _185_
*227 _186_
*228 _187_
*229 _188_
*230 _189_
*231 _190_
*232 _191_
*233 _192_
*234 _193_
*235 _194_
*236 _195_
*237 _196_
*238 _197_
*239 _198_
*240 _199_
*241 _200_
*242 _201_
*243 _202_
*244 _203_
*245 _204_
*246 _205_
*247 _206_
*248 _207_
*249 _208_
*250 _209_
*251 _210_
*252 _211_
*253 _212_
*254 _213_
*255 _214_
*256 _215_
*257 _216_
*258 _217_
*259 _218_
*260 _219_
*261 _220_
*262 _221_
*263 _222_
*264 _223_
*265 _224_
*266 _225_
*267 _226_
*268 _227_
*269 _228_
*270 _229_
*271 _230_
*272 _231_
*273 _232_
*274 _233_
*275 _234_
*276 _235_
*277 _236_
*278 _237_
*279 _238_
*280 clknet_0_clk
*281 clknet_1_0__leaf_clk
*282 clknet_1_1__leaf_clk
*283 net1
*284 net10
*285 net11
*286 net12
*287 net13
*288 net14
*289 net15
*290 net16
*291 net17
*292 net18
*293 net19
*294 net2
*295 net20
*296 net21
*297 net22
*298 net23
*299 net24
*300 net25
*301 net26
*302 net27
*303 net28
*304 net29
*305 net3
*306 net30
*307 net31
*308 net32
*309 net33
*310 net34
*311 net35
*312 net36
*313 net37
*314 net38
*315 net39
*316 net4
*317 net40
*318 net41
*319 net42
*320 net43
*321 net44
*322 net45
*323 net46
*324 net47
*325 net48
*326 net49
*327 net5
*328 net50
*329 net51
*330 net6
*331 net7
*332 net8
*333 net9
*334 FILLER_0_0_109
*335 FILLER_0_0_113
*336 FILLER_0_0_118
*337 FILLER_0_0_130
*338 FILLER_0_0_138
*339 FILLER_0_0_14
*340 FILLER_0_0_147
*341 FILLER_0_0_155
*342 FILLER_0_0_161
*343 FILLER_0_0_169
*344 FILLER_0_0_26
*345 FILLER_0_0_35
*346 FILLER_0_0_47
*347 FILLER_0_0_57
*348 FILLER_0_0_69
*349 FILLER_0_0_7
*350 FILLER_0_0_76
*351 FILLER_0_0_85
*352 FILLER_0_0_97
*353 FILLER_0_10_119
*354 FILLER_0_10_131
*355 FILLER_0_10_139
*356 FILLER_0_10_141
*357 FILLER_0_10_15
*358 FILLER_0_10_153
*359 FILLER_0_10_165
*360 FILLER_0_10_27
*361 FILLER_0_10_29
*362 FILLER_0_10_3
*363 FILLER_0_10_42
*364 FILLER_0_10_58
*365 FILLER_0_10_66
*366 FILLER_0_10_75
*367 FILLER_0_11_108
*368 FILLER_0_11_13
*369 FILLER_0_11_131
*370 FILLER_0_11_143
*371 FILLER_0_11_155
*372 FILLER_0_11_167
*373 FILLER_0_11_169
*374 FILLER_0_11_25
*375 FILLER_0_11_29
*376 FILLER_0_11_42
*377 FILLER_0_11_54
*378 FILLER_0_11_57
*379 FILLER_0_11_65
*380 FILLER_0_11_75
*381 FILLER_0_11_81
*382 FILLER_0_11_89
*383 FILLER_0_11_96
*384 FILLER_0_12_107
*385 FILLER_0_12_115
*386 FILLER_0_12_121
*387 FILLER_0_12_133
*388 FILLER_0_12_139
*389 FILLER_0_12_141
*390 FILLER_0_12_15
*391 FILLER_0_12_153
*392 FILLER_0_12_165
*393 FILLER_0_12_3
*394 FILLER_0_12_41
*395 FILLER_0_12_66
*396 FILLER_0_12_74
*397 FILLER_0_12_85
*398 FILLER_0_12_89
*399 FILLER_0_13_103
*400 FILLER_0_13_111
*401 FILLER_0_13_129
*402 FILLER_0_13_141
*403 FILLER_0_13_153
*404 FILLER_0_13_165
*405 FILLER_0_13_169
*406 FILLER_0_13_3
*407 FILLER_0_13_30
*408 FILLER_0_13_54
*409 FILLER_0_13_61
*410 FILLER_0_13_69
*411 FILLER_0_13_91
*412 FILLER_0_14_106
*413 FILLER_0_14_114
*414 FILLER_0_14_141
*415 FILLER_0_14_153
*416 FILLER_0_14_25
*417 FILLER_0_14_3
*418 FILLER_0_14_34
*419 FILLER_0_14_42
*420 FILLER_0_14_65
*421 FILLER_0_14_90
*422 FILLER_0_15_113
*423 FILLER_0_15_137
*424 FILLER_0_15_149
*425 FILLER_0_15_161
*426 FILLER_0_15_167
*427 FILLER_0_15_169
*428 FILLER_0_15_17
*429 FILLER_0_15_25
*430 FILLER_0_15_38
*431 FILLER_0_15_44
*432 FILLER_0_15_50
*433 FILLER_0_15_57
*434 FILLER_0_15_73
*435 FILLER_0_15_84
*436 FILLER_0_15_9
*437 FILLER_0_16_110
*438 FILLER_0_16_130
*439 FILLER_0_16_138
*440 FILLER_0_16_141
*441 FILLER_0_16_15
*442 FILLER_0_16_153
*443 FILLER_0_16_165
*444 FILLER_0_16_29
*445 FILLER_0_16_3
*446 FILLER_0_16_67
*447 FILLER_0_16_74
*448 FILLER_0_16_82
*449 FILLER_0_16_88
*450 FILLER_0_16_96
*451 FILLER_0_17_104
*452 FILLER_0_17_125
*453 FILLER_0_17_137
*454 FILLER_0_17_149
*455 FILLER_0_17_15
*456 FILLER_0_17_161
*457 FILLER_0_17_169
*458 FILLER_0_17_3
*459 FILLER_0_17_35
*460 FILLER_0_17_43
*461 FILLER_0_17_57
*462 FILLER_0_17_68
*463 FILLER_0_17_76
*464 FILLER_0_17_86
*465 FILLER_0_17_94
*466 FILLER_0_18_105
*467 FILLER_0_18_124
*468 FILLER_0_18_136
*469 FILLER_0_18_141
*470 FILLER_0_18_15
*471 FILLER_0_18_153
*472 FILLER_0_18_165
*473 FILLER_0_18_27
*474 FILLER_0_18_3
*475 FILLER_0_18_42
*476 FILLER_0_18_48
*477 FILLER_0_18_59
*478 FILLER_0_18_64
*479 FILLER_0_18_68
*480 FILLER_0_18_81
*481 FILLER_0_18_85
*482 FILLER_0_18_89
*483 FILLER_0_19_104
*484 FILLER_0_19_113
*485 FILLER_0_19_127
*486 FILLER_0_19_139
*487 FILLER_0_19_151
*488 FILLER_0_19_163
*489 FILLER_0_19_167
*490 FILLER_0_19_169
*491 FILLER_0_19_48
*492 FILLER_0_19_62
*493 FILLER_0_19_76
*494 FILLER_0_19_9
*495 FILLER_0_19_91
*496 FILLER_0_1_105
*497 FILLER_0_1_111
*498 FILLER_0_1_113
*499 FILLER_0_1_125
*500 FILLER_0_1_137
*501 FILLER_0_1_149
*502 FILLER_0_1_161
*503 FILLER_0_1_167
*504 FILLER_0_1_169
*505 FILLER_0_1_19
*506 FILLER_0_1_31
*507 FILLER_0_1_43
*508 FILLER_0_1_55
*509 FILLER_0_1_57
*510 FILLER_0_1_69
*511 FILLER_0_1_7
*512 FILLER_0_1_81
*513 FILLER_0_1_93
*514 FILLER_0_20_101
*515 FILLER_0_20_141
*516 FILLER_0_20_153
*517 FILLER_0_20_165
*518 FILLER_0_20_27
*519 FILLER_0_20_3
*520 FILLER_0_20_34
*521 FILLER_0_20_43
*522 FILLER_0_20_64
*523 FILLER_0_20_76
*524 FILLER_0_20_90
*525 FILLER_0_21_103
*526 FILLER_0_21_111
*527 FILLER_0_21_113
*528 FILLER_0_21_128
*529 FILLER_0_21_13
*530 FILLER_0_21_132
*531 FILLER_0_21_147
*532 FILLER_0_21_159
*533 FILLER_0_21_169
*534 FILLER_0_21_25
*535 FILLER_0_21_29
*536 FILLER_0_21_48
*537 FILLER_0_21_57
*538 FILLER_0_21_65
*539 FILLER_0_21_74
*540 FILLER_0_21_86
*541 FILLER_0_21_93
*542 FILLER_0_22_107
*543 FILLER_0_22_127
*544 FILLER_0_22_139
*545 FILLER_0_22_141
*546 FILLER_0_22_153
*547 FILLER_0_22_165
*548 FILLER_0_22_29
*549 FILLER_0_22_3
*550 FILLER_0_22_41
*551 FILLER_0_22_53
*552 FILLER_0_22_63
*553 FILLER_0_22_81
*554 FILLER_0_22_99
*555 FILLER_0_23_134
*556 FILLER_0_23_146
*557 FILLER_0_23_158
*558 FILLER_0_23_166
*559 FILLER_0_23_169
*560 FILLER_0_23_18
*561 FILLER_0_23_3
*562 FILLER_0_23_54
*563 FILLER_0_23_60
*564 FILLER_0_23_68
*565 FILLER_0_23_81
*566 FILLER_0_23_9
*567 FILLER_0_24_11
*568 FILLER_0_24_128
*569 FILLER_0_24_141
*570 FILLER_0_24_153
*571 FILLER_0_24_165
*572 FILLER_0_24_20
*573 FILLER_0_24_29
*574 FILLER_0_24_3
*575 FILLER_0_24_37
*576 FILLER_0_24_54
*577 FILLER_0_24_67
*578 FILLER_0_24_85
*579 FILLER_0_24_91
*580 FILLER_0_25_110
*581 FILLER_0_25_120
*582 FILLER_0_25_132
*583 FILLER_0_25_144
*584 FILLER_0_25_15
*585 FILLER_0_25_156
*586 FILLER_0_25_169
*587 FILLER_0_25_27
*588 FILLER_0_25_3
*589 FILLER_0_25_39
*590 FILLER_0_25_47
*591 FILLER_0_25_57
*592 FILLER_0_25_63
*593 FILLER_0_25_75
*594 FILLER_0_25_87
*595 FILLER_0_25_93
*596 FILLER_0_25_98
*597 FILLER_0_26_100
*598 FILLER_0_26_114
*599 FILLER_0_26_126
*600 FILLER_0_26_138
*601 FILLER_0_26_141
*602 FILLER_0_26_153
*603 FILLER_0_26_165
*604 FILLER_0_26_21
*605 FILLER_0_26_27
*606 FILLER_0_26_29
*607 FILLER_0_26_41
*608 FILLER_0_26_51
*609 FILLER_0_26_59
*610 FILLER_0_26_78
*611 FILLER_0_26_9
*612 FILLER_0_27_120
*613 FILLER_0_27_132
*614 FILLER_0_27_144
*615 FILLER_0_27_15
*616 FILLER_0_27_156
*617 FILLER_0_27_164
*618 FILLER_0_27_169
*619 FILLER_0_27_27
*620 FILLER_0_27_3
*621 FILLER_0_27_39
*622 FILLER_0_27_51
*623 FILLER_0_27_55
*624 FILLER_0_27_57
*625 FILLER_0_27_73
*626 FILLER_0_28_107
*627 FILLER_0_28_111
*628 FILLER_0_28_113
*629 FILLER_0_28_121
*630 FILLER_0_28_125
*631 FILLER_0_28_137
*632 FILLER_0_28_141
*633 FILLER_0_28_147
*634 FILLER_0_28_169
*635 FILLER_0_28_20
*636 FILLER_0_28_29
*637 FILLER_0_28_37
*638 FILLER_0_28_44
*639 FILLER_0_28_57
*640 FILLER_0_28_62
*641 FILLER_0_28_72
*642 FILLER_0_28_76
*643 FILLER_0_28_83
*644 FILLER_0_28_85
*645 FILLER_0_28_9
*646 FILLER_0_28_93
*647 FILLER_0_2_109
*648 FILLER_0_2_121
*649 FILLER_0_2_133
*650 FILLER_0_2_139
*651 FILLER_0_2_141
*652 FILLER_0_2_15
*653 FILLER_0_2_153
*654 FILLER_0_2_165
*655 FILLER_0_2_27
*656 FILLER_0_2_29
*657 FILLER_0_2_3
*658 FILLER_0_2_41
*659 FILLER_0_2_53
*660 FILLER_0_2_65
*661 FILLER_0_2_77
*662 FILLER_0_2_83
*663 FILLER_0_2_85
*664 FILLER_0_2_97
*665 FILLER_0_3_111
*666 FILLER_0_3_113
*667 FILLER_0_3_121
*668 FILLER_0_3_129
*669 FILLER_0_3_138
*670 FILLER_0_3_15
*671 FILLER_0_3_150
*672 FILLER_0_3_162
*673 FILLER_0_3_169
*674 FILLER_0_3_3
*675 FILLER_0_3_43
*676 FILLER_0_3_54
*677 FILLER_0_3_63
*678 FILLER_0_3_75
*679 FILLER_0_3_87
*680 FILLER_0_3_99
*681 FILLER_0_4_109
*682 FILLER_0_4_113
*683 FILLER_0_4_134
*684 FILLER_0_4_141
*685 FILLER_0_4_153
*686 FILLER_0_4_165
*687 FILLER_0_4_74
*688 FILLER_0_4_82
*689 FILLER_0_4_85
*690 FILLER_0_4_9
*691 FILLER_0_4_97
*692 FILLER_0_5_113
*693 FILLER_0_5_131
*694 FILLER_0_5_143
*695 FILLER_0_5_155
*696 FILLER_0_5_167
*697 FILLER_0_5_169
*698 FILLER_0_5_26
*699 FILLER_0_5_3
*700 FILLER_0_5_50
*701 FILLER_0_5_57
*702 FILLER_0_5_70
*703 FILLER_0_5_80
*704 FILLER_0_5_93
*705 FILLER_0_6_112
*706 FILLER_0_6_135
*707 FILLER_0_6_139
*708 FILLER_0_6_141
*709 FILLER_0_6_153
*710 FILLER_0_6_165
*711 FILLER_0_6_3
*712 FILLER_0_6_36
*713 FILLER_0_6_65
*714 FILLER_0_6_97
*715 FILLER_0_7_104
*716 FILLER_0_7_118
*717 FILLER_0_7_124
*718 FILLER_0_7_130
*719 FILLER_0_7_139
*720 FILLER_0_7_151
*721 FILLER_0_7_163
*722 FILLER_0_7_167
*723 FILLER_0_7_169
*724 FILLER_0_7_39
*725 FILLER_0_7_47
*726 FILLER_0_7_55
*727 FILLER_0_7_6
*728 FILLER_0_7_60
*729 FILLER_0_7_82
*730 FILLER_0_7_90
*731 FILLER_0_7_98
*732 FILLER_0_8_109
*733 FILLER_0_8_117
*734 FILLER_0_8_130
*735 FILLER_0_8_138
*736 FILLER_0_8_141
*737 FILLER_0_8_15
*738 FILLER_0_8_153
*739 FILLER_0_8_165
*740 FILLER_0_8_27
*741 FILLER_0_8_3
*742 FILLER_0_8_37
*743 FILLER_0_8_49
*744 FILLER_0_8_61
*745 FILLER_0_8_68
*746 FILLER_0_8_80
*747 FILLER_0_8_85
*748 FILLER_0_8_93
*749 FILLER_0_9_107
*750 FILLER_0_9_111
*751 FILLER_0_9_113
*752 FILLER_0_9_145
*753 FILLER_0_9_15
*754 FILLER_0_9_157
*755 FILLER_0_9_165
*756 FILLER_0_9_169
*757 FILLER_0_9_27
*758 FILLER_0_9_3
*759 FILLER_0_9_39
*760 FILLER_0_9_45
*761 FILLER_0_9_53
*762 FILLER_0_9_57
*763 FILLER_0_9_67
*764 FILLER_0_9_78
*765 FILLER_0_9_95
*766 PHY_0
*767 PHY_1
*768 PHY_10
*769 PHY_11
*770 PHY_12
*771 PHY_13
*772 PHY_14
*773 PHY_15
*774 PHY_16
*775 PHY_17
*776 PHY_18
*777 PHY_19
*778 PHY_2
*779 PHY_20
*780 PHY_21
*781 PHY_22
*782 PHY_23
*783 PHY_24
*784 PHY_25
*785 PHY_26
*786 PHY_27
*787 PHY_28
*788 PHY_29
*789 PHY_3
*790 PHY_30
*791 PHY_31
*792 PHY_32
*793 PHY_33
*794 PHY_34
*795 PHY_35
*796 PHY_36
*797 PHY_37
*798 PHY_38
*799 PHY_39
*800 PHY_4
*801 PHY_40
*802 PHY_41
*803 PHY_42
*804 PHY_43
*805 PHY_44
*806 PHY_45
*807 PHY_46
*808 PHY_47
*809 PHY_48
*810 PHY_49
*811 PHY_5
*812 PHY_50
*813 PHY_51
*814 PHY_52
*815 PHY_53
*816 PHY_54
*817 PHY_55
*818 PHY_56
*819 PHY_57
*820 PHY_6
*821 PHY_7
*822 PHY_8
*823 PHY_9
*824 TAP_100
*825 TAP_101
*826 TAP_102
*827 TAP_103
*828 TAP_104
*829 TAP_105
*830 TAP_106
*831 TAP_107
*832 TAP_108
*833 TAP_109
*834 TAP_110
*835 TAP_111
*836 TAP_112
*837 TAP_113
*838 TAP_114
*839 TAP_115
*840 TAP_116
*841 TAP_117
*842 TAP_118
*843 TAP_119
*844 TAP_120
*845 TAP_121
*846 TAP_122
*847 TAP_123
*848 TAP_124
*849 TAP_125
*850 TAP_126
*851 TAP_127
*852 TAP_128
*853 TAP_129
*854 TAP_130
*855 TAP_131
*856 TAP_132
*857 TAP_133
*858 TAP_134
*859 TAP_135
*860 TAP_136
*861 TAP_137
*862 TAP_138
*863 TAP_139
*864 TAP_140
*865 TAP_141
*866 TAP_142
*867 TAP_143
*868 TAP_144
*869 TAP_145
*870 TAP_146
*871 TAP_147
*872 TAP_148
*873 TAP_149
*874 TAP_150
*875 TAP_58
*876 TAP_59
*877 TAP_60
*878 TAP_61
*879 TAP_62
*880 TAP_63
*881 TAP_64
*882 TAP_65
*883 TAP_66
*884 TAP_67
*885 TAP_68
*886 TAP_69
*887 TAP_70
*888 TAP_71
*889 TAP_72
*890 TAP_73
*891 TAP_74
*892 TAP_75
*893 TAP_76
*894 TAP_77
*895 TAP_78
*896 TAP_79
*897 TAP_80
*898 TAP_81
*899 TAP_82
*900 TAP_83
*901 TAP_84
*902 TAP_85
*903 TAP_86
*904 TAP_87
*905 TAP_88
*906 TAP_89
*907 TAP_90
*908 TAP_91
*909 TAP_92
*910 TAP_93
*911 TAP_94
*912 TAP_95
*913 TAP_96
*914 TAP_97
*915 TAP_98
*916 TAP_99
*917 _239_
*918 _240_
*919 _241_
*920 _242_
*921 _243_
*922 _244_
*923 _245_
*924 _246_
*925 _247_
*926 _248_
*927 _249_
*928 _250_
*929 _251_
*930 _252_
*931 _253_
*932 _254_
*933 _255_
*934 _256_
*935 _257_
*936 _258_
*937 _259_
*938 _260_
*939 _261_
*940 _262_
*941 _263_
*942 _264_
*943 _265_
*944 _266_
*945 _267_
*946 _268_
*947 _269_
*948 _270_
*949 _271_
*950 _272_
*951 _273_
*952 _274_
*953 _275_
*954 _276_
*955 _277_
*956 _278_
*957 _279_
*958 _280_
*959 _281_
*960 _282_
*961 _283_
*962 _284_
*963 _285_
*964 _286_
*965 _287_
*966 _288_
*967 _289_
*968 _290_
*969 _291_
*970 _292_
*971 _293_
*972 _294_
*973 _295_
*974 _296_
*975 _297_
*976 _298_
*977 _299_
*978 _300_
*979 _301_
*980 _302_
*981 _303_
*982 _304_
*983 _305_
*984 _306_
*985 _307_
*986 _308_
*987 _309_
*988 _310_
*989 _311_
*990 _312_
*991 _313_
*992 _314_
*993 _315_
*994 _316_
*995 _317_
*996 _318_
*997 _319_
*998 _320_
*999 _321_
*1000 _322_
*1001 _323_
*1002 _324_
*1003 _325_
*1004 _326_
*1005 _327_
*1006 _328_
*1007 _329_
*1008 _330_
*1009 _331_
*1010 _332_
*1011 _333_
*1012 _334_
*1013 _335_
*1014 _336_
*1015 _337_
*1016 _338_
*1017 _339_
*1018 _340_
*1019 _341_
*1020 _342_
*1021 _343_
*1022 _344_
*1023 _345_
*1024 _346_
*1025 _347_
*1026 _348_
*1027 _349_
*1028 _350_
*1029 _351_
*1030 _352_
*1031 _353_
*1032 _354_
*1033 _355_
*1034 _356_
*1035 _357_
*1036 _358_
*1037 _359_
*1038 _360_
*1039 _361_
*1040 _362_
*1041 _363_
*1042 _364_
*1043 _365_
*1044 _366_
*1045 _367_
*1046 _368_
*1047 _369_
*1048 _370_
*1049 _371_
*1050 _372_
*1051 _373_
*1052 _374_
*1053 _375_
*1054 _376_
*1055 _377_
*1056 _378_
*1057 _379_
*1058 _380_
*1059 _381_
*1060 _382_
*1061 _383_
*1062 _384_
*1063 _385_
*1064 _386_
*1065 _387_
*1066 _388_
*1067 _389_
*1068 _390_
*1069 _391_
*1070 _392_
*1071 _393_
*1072 _394_
*1073 _395_
*1074 _396_
*1075 _397_
*1076 _398_
*1077 _399_
*1078 _400_
*1079 _401_
*1080 _402_
*1081 _403_
*1082 _404_
*1083 _405_
*1084 _406_
*1085 _407_
*1086 _408_
*1087 _409_
*1088 _410_
*1089 _411_
*1090 _412_
*1091 _413_
*1092 _414_
*1093 _415_
*1094 _416_
*1095 _417_
*1096 _418_
*1097 _419_
*1098 _420_
*1099 _421_
*1100 _422_
*1101 _423_
*1102 _424_
*1103 _425_
*1104 _426_
*1105 _427_
*1106 _428_
*1107 _429_
*1108 _430_
*1109 _431_
*1110 _432_
*1111 _433_
*1112 _434_
*1113 _435_
*1114 _436_
*1115 _437_
*1116 _438_
*1117 _439_
*1118 _440_
*1119 _441_
*1120 _442_
*1121 _443_
*1122 _444_
*1123 _445_
*1124 _446_
*1125 _447_
*1126 _448_
*1127 _449_
*1128 _450_
*1129 _451_
*1130 _452_
*1131 _453_
*1132 _454_
*1133 _455_
*1134 _456_
*1135 _457_
*1136 _458_
*1137 _459_
*1138 _460_
*1139 _461_
*1140 _462_
*1141 _463_
*1142 _464_
*1143 _465_
*1144 _466_
*1145 _467_
*1146 _468_
*1147 _469_
*1148 _470_
*1149 _471_
*1150 _472_
*1151 _473_
*1152 _474_
*1153 _475_
*1154 _476_
*1155 _477_
*1156 _478_
*1157 _479_
*1158 _480_
*1159 _481_
*1160 _482_
*1161 _483_
*1162 _484_
*1163 _485_
*1164 _486_
*1165 _487_
*1166 _488_
*1167 _489_
*1168 _490_
*1169 _491_
*1170 clkbuf_0_clk
*1171 clkbuf_1_0__f_clk
*1172 clkbuf_1_1__f_clk
*1173 fanout39
*1174 hold1
*1175 hold10
*1176 hold11
*1177 hold12
*1178 hold2
*1179 hold3
*1180 hold4
*1181 hold5
*1182 hold6
*1183 hold7
*1184 hold8
*1185 hold9
*1186 input1
*1187 input10
*1188 input11
*1189 input12
*1190 input13
*1191 input14
*1192 input15
*1193 input16
*1194 input17
*1195 input18
*1196 input19
*1197 input2
*1198 input20
*1199 input21
*1200 input22
*1201 input23
*1202 input3
*1203 input4
*1204 input5
*1205 input6
*1206 input7
*1207 input8
*1208 input9
*1209 max_cap38
*1210 output24
*1211 output25
*1212 output26
*1213 output27
*1214 output28
*1215 output29
*1216 output30
*1217 output31
*1218 output32
*1219 output33
*1220 output34
*1221 output35
*1222 output36
*1223 output37

*PORTS
clk I
data_in[0] I
data_in[1] I
data_in[2] I
data_in[3] I
data_in[4] I
data_in[5] I
data_in[6] I
data_in[7] I
int4_out[0] O
int4_out[1] O
int4_out[2] O
int4_out[3] O
is_outlier O
round_mode I
rst_n I
scale[0] I
scale[1] I
scale[2] I
scale[3] I
sideband_out[0] O
sideband_out[1] O
sideband_out[2] O
sideband_out[3] O
sideband_out[4] O
sideband_out[5] O
sideband_out[6] O
sideband_out[7] O
threshold[0] I
threshold[1] I
threshold[2] I
threshold[3] I
threshold[4] I
threshold[5] I
threshold[6] I
threshold[7] I
valid_in I
valid_out O

*D_NET *3 0.00517231
*CONN
*P clk I
*I *1170:A I *D sky130_fd_sc_hd__clkbuf_16
*CAP
1 clk 0.00176919
2 *1170:A 0.00176919
3 *1170:A *941:A1 0
4 *1170:A *942:B 6.28765e-05
5 *1170:A *945:A 0
6 *1170:A *1062:B 0
7 *1170:A *1063:B_N 0
8 *1170:A *1071:A2 0.00012972
9 *1170:A *1073:B 2.68037e-05
10 *1170:A *1075:A 6.45942e-05
11 *1170:A *57:87 0
12 *1170:A *71:68 0
13 *1170:A *148:19 0
14 *1170:A *149:12 3.45159e-05
15 *1170:A *156:12 1.72184e-05
16 *1170:A *236:104 0
17 *1170:A *237:85 0
18 *1170:A *238:92 3.76158e-05
19 *1170:A *238:112 2.95902e-05
20 *1170:A *241:91 0.000249935
21 *1170:A *241:104 0.00015212
22 *1170:A *290:12 0
23 *1170:A *305:45 8.65905e-05
24 *1170:A *316:32 0.000354538
25 *1170:A *332:10 0.000324781
26 *1170:A *332:27 6.00519e-05
27 *1170:A *332:54 2.97004e-06
*RES
1 clk *1170:A 38.025 
*END

*D_NET *4 0.000465477
*CONN
*P data_in[0] I
*I *1186:A I *D sky130_fd_sc_hd__buf_1
*CAP
1 data_in[0] 0.000232739
2 *1186:A 0.000232739
*RES
1 data_in[0] *1186:A 6.64043 
*END

*D_NET *5 0.000620808
*CONN
*P data_in[1] I
*I *1197:A I *D sky130_fd_sc_hd__dlymetal6s2s_1
*CAP
1 data_in[1] 0.000310404
2 *1197:A 0.000310404
3 *1197:A *287:14 0
*RES
1 data_in[1] *1197:A 7.91543 
*END

*D_NET *6 0.00102023
*CONN
*P data_in[2] I
*I *1202:A I *D sky130_fd_sc_hd__clkbuf_2
*CAP
1 data_in[2] 0.000510113
2 *1202:A 0.000510113
*RES
1 data_in[2] *1202:A 12.315 
*END

*D_NET *7 0.00101047
*CONN
*P data_in[3] I
*I *1203:A I *D sky130_fd_sc_hd__clkbuf_4
*CAP
1 data_in[3] 0.0004611
2 *1203:A 0.0004611
3 *1203:A *1134:A2 0
4 *1203:A *1135:B 8.8266e-05
*RES
1 data_in[3] *1203:A 11.97 
*END

*D_NET *8 0.00102714
*CONN
*P data_in[4] I
*I *1204:A I *D sky130_fd_sc_hd__buf_1
*CAP
1 data_in[4] 0.000487036
2 *1204:A 0.000487036
3 *1204:A *327:20 5.30673e-05
*RES
1 data_in[4] *1204:A 12.315 
*END

*D_NET *9 0.000923283
*CONN
*P data_in[5] I
*I *1205:A I *D sky130_fd_sc_hd__clkbuf_1
*CAP
1 data_in[5] 0.000461642
2 *1205:A 0.000461642
3 *1205:A *1201:A 0
*RES
1 data_in[5] *1205:A 11.625 
*END

*D_NET *10 0.00148325
*CONN
*P data_in[6] I
*I *1206:A I *D sky130_fd_sc_hd__buf_1
*CAP
1 data_in[6] 0.000465526
2 *1206:A 0.000465526
3 *1206:A *1208:A 0.000552202
*RES
1 data_in[6] *1206:A 13.665 
*END

*D_NET *11 0.000782405
*CONN
*P data_in[7] I
*I *1207:A I *D sky130_fd_sc_hd__buf_2
*CAP
1 data_in[7] 0.000391202
2 *1207:A 0.000391202
*RES
1 data_in[7] *1207:A 10.35 
*END

*D_NET *12 0.000636796
*CONN
*P int4_out[0] O
*I *1210:X O *D sky130_fd_sc_hd__clkbuf_4
*CAP
1 int4_out[0] 0.000266563
2 *1210:X 0.000266563
3 int4_out[0] *287:14 0.000103671
*RES
1 *1210:X int4_out[0] 5.92503 
*END

*D_NET *13 0.000624693
*CONN
*P int4_out[1] O
*I *1211:X O *D sky130_fd_sc_hd__clkbuf_4
*CAP
1 int4_out[1] 0.000302064
2 *1211:X 0.000302064
3 int4_out[1] *291:12 2.05641e-05
*RES
1 *1211:X int4_out[1] 5.07983 
*END

*D_NET *14 0.000921652
*CONN
*P int4_out[2] O
*I *1212:X O *D sky130_fd_sc_hd__clkbuf_4
*CAP
1 int4_out[2] 0.000460826
2 *1212:X 0.000460826
*RES
1 *1212:X int4_out[2] 11.205 
*END

*D_NET *15 0.000716311
*CONN
*P int4_out[3] O
*I *1213:X O *D sky130_fd_sc_hd__clkbuf_4
*CAP
1 int4_out[3] 0.000336973
2 *1213:X 0.000336973
3 int4_out[3] *287:14 4.23658e-05
*RES
1 *1213:X int4_out[3] 5.28417 
*END

*D_NET *16 0.000618091
*CONN
*P is_outlier O
*I *1214:X O *D sky130_fd_sc_hd__clkbuf_4
*CAP
1 is_outlier 0.000309046
2 *1214:X 0.000309046
3 is_outlier *1214:A 0
*RES
1 *1214:X is_outlier 7.24043 
*END

*D_NET *17 0.00158301
*CONN
*P round_mode I
*I *1208:A I *D sky130_fd_sc_hd__buf_1
*CAP
1 round_mode 0.000515404
2 *1208:A 0.000515404
3 *1206:A *1208:A 0.000552202
*RES
1 round_mode *1208:A 11.557 
*END

*D_NET *18 0.000661461
*CONN
*P rst_n I
*I *1187:A I *D sky130_fd_sc_hd__clkbuf_2
*CAP
1 rst_n 0.000330731
2 *1187:A 0.000330731
*RES
1 rst_n *1187:A 7.44697 
*END

*D_NET *19 0.000699046
*CONN
*P scale[0] I
*I *1188:A I *D sky130_fd_sc_hd__dlymetal6s2s_1
*CAP
1 scale[0] 0.000349523
2 *1188:A 0.000349523
*RES
1 scale[0] *1188:A 7.86697 
*END

*D_NET *20 0.00138925
*CONN
*P scale[1] I
*I *1189:A I *D sky130_fd_sc_hd__clkbuf_2
*CAP
1 scale[1] 0.000694624
2 *1189:A 0.000694624
*RES
1 scale[1] *1189:A 15.27 
*END

*D_NET *21 0.00122941
*CONN
*P scale[2] I
*I *1190:A I *D sky130_fd_sc_hd__buf_1
*CAP
1 scale[2] 0.000614705
2 *1190:A 0.000614705
*RES
1 scale[2] *1190:A 14.145 
*END

*D_NET *22 0.000879079
*CONN
*P scale[3] I
*I *1191:A I *D sky130_fd_sc_hd__buf_2
*CAP
1 scale[3] 0.00043954
2 *1191:A 0.00043954
3 *1191:A sideband_out[5] 0
4 *1191:A *1220:A 0
*RES
1 scale[3] *1191:A 8.16177 
*END

*D_NET *23 0.000656106
*CONN
*P sideband_out[0] O
*I *1215:X O *D sky130_fd_sc_hd__clkbuf_4
*CAP
1 sideband_out[0] 0.000328053
2 *1215:X 0.000328053
*RES
1 *1215:X sideband_out[0] 9.39 
*END

*D_NET *24 0.000535485
*CONN
*P sideband_out[1] O
*I *1216:X O *D sky130_fd_sc_hd__buf_2
*CAP
1 sideband_out[1] 0.000251738
2 *1216:X 0.000251738
3 sideband_out[1] *1216:A 3.20096e-05
*RES
1 *1216:X sideband_out[1] 5.41503 
*END

*D_NET *25 0.00119259
*CONN
*P sideband_out[2] O
*I *1217:X O *D sky130_fd_sc_hd__clkbuf_4
*CAP
1 sideband_out[2] 0.000549106
2 *1217:X 0.000549106
3 sideband_out[2] *332:10 9.43747e-05
*RES
1 *1217:X sideband_out[2] 12.465 
*END

*D_NET *26 0.000863994
*CONN
*P sideband_out[3] O
*I *1218:X O *D sky130_fd_sc_hd__clkbuf_4
*CAP
1 sideband_out[3] 0.000421443
2 *1218:X 0.000421443
3 sideband_out[3] *1195:A 2.11084e-05
*RES
1 *1218:X sideband_out[3] 10.86 
*END

*D_NET *27 0.000658255
*CONN
*P sideband_out[4] O
*I *1219:X O *D sky130_fd_sc_hd__buf_2
*CAP
1 sideband_out[4] 0.000329127
2 *1219:X 0.000329127
*RES
1 *1219:X sideband_out[4] 7.3137 
*END

*D_NET *28 0.000659685
*CONN
*P sideband_out[5] O
*I *1220:X O *D sky130_fd_sc_hd__clkbuf_4
*CAP
1 sideband_out[5] 0.000329843
2 *1220:X 0.000329843
3 *1191:A sideband_out[5] 0
*RES
1 *1220:X sideband_out[5] 9.39 
*END

*D_NET *29 0.000808442
*CONN
*P sideband_out[6] O
*I *1221:X O *D sky130_fd_sc_hd__clkbuf_4
*CAP
1 sideband_out[6] 0.000404221
2 *1221:X 0.000404221
*RES
1 *1221:X sideband_out[6] 10.395 
*END

*D_NET *30 0.000602428
*CONN
*P sideband_out[7] O
*I *1222:X O *D sky130_fd_sc_hd__clkbuf_4
*CAP
1 sideband_out[7] 0.000301214
2 *1222:X 0.000301214
*RES
1 *1222:X sideband_out[7] 7.66043 
*END

*D_NET *31 0.000866786
*CONN
*P threshold[0] I
*I *1192:A I *D sky130_fd_sc_hd__buf_1
*CAP
1 threshold[0] 0.000403556
2 *1192:A 0.000403556
3 *1192:A *947:B1 5.41428e-05
4 *1192:A *1103:B1 0
5 *1192:A *291:12 5.53249e-06
*RES
1 threshold[0] *1192:A 6.67157 
*END

*D_NET *32 0.000970599
*CONN
*P threshold[1] I
*I *1193:A I *D sky130_fd_sc_hd__buf_1
*CAP
1 threshold[1] 0.0004853
2 *1193:A 0.0004853
*RES
1 threshold[1] *1193:A 13.17 
*END

*D_NET *33 0.00091193
*CONN
*P threshold[2] I
*I *1194:A I *D sky130_fd_sc_hd__buf_1
*CAP
1 threshold[2] 0.000455965
2 *1194:A 0.000455965
3 *1194:A *1218:A 0
*RES
1 threshold[2] *1194:A 8.88697 
*END

*D_NET *34 0.00189365
*CONN
*P threshold[3] I
*I *1195:A I *D sky130_fd_sc_hd__buf_1
*CAP
1 threshold[3] 0.00093627
2 *1195:A 0.00093627
3 sideband_out[3] *1195:A 2.11084e-05
*RES
1 threshold[3] *1195:A 19.425 
*END

*D_NET *35 0.000933131
*CONN
*P threshold[4] I
*I *1196:A I *D sky130_fd_sc_hd__buf_1
*CAP
1 threshold[4] 0.000452804
2 *1196:A 0.000452804
3 *1196:A *293:24 2.75229e-05
*RES
1 threshold[4] *1196:A 11.625 
*END

*D_NET *36 0.00106784
*CONN
*P threshold[5] I
*I *1198:A I *D sky130_fd_sc_hd__buf_1
*CAP
1 threshold[5] 0.000489841
2 *1198:A 0.000489841
3 *1198:A *1120:C1 6.77501e-05
4 *1198:A *171:12 2.04101e-05
*RES
1 threshold[5] *1198:A 12.525 
*END

*D_NET *37 0.00104255
*CONN
*P threshold[6] I
*I *1199:A I *D sky130_fd_sc_hd__buf_1
*CAP
1 threshold[6] 0.000484926
2 *1199:A 0.000484926
3 *1199:A *332:10 7.27003e-05
*RES
1 threshold[6] *1199:A 12.045 
*END

*D_NET *38 0.000497124
*CONN
*P threshold[7] I
*I *1200:A I *D sky130_fd_sc_hd__dlymetal6s2s_1
*CAP
1 threshold[7] 0.000236621
2 *1200:A 0.000236621
3 *1200:A *297:16 2.38825e-05
*RES
1 threshold[7] *1200:A 5.35677 
*END

*D_NET *39 0.00106713
*CONN
*P valid_in I
*I *1201:A I *D sky130_fd_sc_hd__buf_1
*CAP
1 valid_in 0.000533566
2 *1201:A 0.000533566
3 *1205:A *1201:A 0
*RES
1 valid_in *1201:A 6.63097 
*END

*D_NET *40 0.000671586
*CONN
*P valid_out O
*I *1223:X O *D sky130_fd_sc_hd__clkbuf_4
*CAP
1 valid_out 0.000305448
2 *1223:X 0.000305448
3 valid_out *291:12 6.06899e-05
*RES
1 *1223:X valid_out 6.04157 
*END

*D_NET *41 0.000475107
*CONN
*I *1156:D I *D sky130_fd_sc_hd__dfrtp_1
*I *957:X O *D sky130_fd_sc_hd__o21ba_1
*CAP
1 *1156:D 0.000124797
2 *957:X 0.000124797
3 *1156:D *956:A 4.66108e-05
4 *1156:D *957:A2 1.16854e-05
5 *1156:D *957:B1_N 2.10152e-05
6 *1156:D *232:47 9.22308e-05
7 *1156:D *294:14 5.39718e-05
*RES
1 *957:X *1156:D 9.465 
*END

*D_NET *42 0.000585598
*CONN
*I *1158:D I *D sky130_fd_sc_hd__dfrtp_1
*I *1130:X O *D sky130_fd_sc_hd__a22o_1
*CAP
1 *1158:D 0.000160818
2 *1130:X 0.000160818
3 *1158:D *232:47 0.000122801
4 *1158:D *232:66 0.00014116
5 *1158:D *294:14 0
*RES
1 *1130:X *1158:D 9.81 
*END

*D_NET *43 0.00050024
*CONN
*I *1159:D I *D sky130_fd_sc_hd__dfrtp_1
*I *1133:X O *D sky130_fd_sc_hd__a22o_1
*CAP
1 *1159:D 0.000123235
2 *1133:X 0.000123235
3 *1159:D *1132:A3 6.97034e-05
4 *1159:D *315:134 0.000118527
5 *1159:D *327:20 6.55406e-05
*RES
1 *1133:X *1159:D 10.065 
*END

*D_NET *44 0.000758142
*CONN
*I *1160:D I *D sky130_fd_sc_hd__dfrtp_1
*I *1137:X O *D sky130_fd_sc_hd__a22o_1
*CAP
1 *1160:D 0.000224062
2 *1137:X 0.000224062
3 *1160:D *1138:A 0.000123955
4 *1160:D *1139:B1 7.11235e-06
5 *1160:D *1139:B2 0.000162769
6 *1160:D *1161:CLK 1.61831e-05
7 *1160:D *1161:D 0
*RES
1 *1137:X *1160:D 10.755 
*END

*D_NET *45 0.000711692
*CONN
*I *1161:D I *D sky130_fd_sc_hd__dfrtp_1
*I *1139:X O *D sky130_fd_sc_hd__a22o_1
*CAP
1 *1161:D 0.000195868
2 *1139:X 0.000195868
3 *1161:D *1139:B1 0.000319956
4 *1161:D *1139:B2 0
5 *1161:D *1160:CLK 0
6 *1160:D *1161:D 0
*RES
1 *1139:X *1161:D 11.625 
*END

*D_NET *46 0.000384415
*CONN
*I *1162:D I *D sky130_fd_sc_hd__dfrtp_1
*I *1141:X O *D sky130_fd_sc_hd__a31o_1
*CAP
1 *1162:D 9.58852e-05
2 *1141:X 9.58852e-05
3 *1162:D *1152:B 7.03276e-05
4 *1162:D *1162:CLK 2.69217e-05
5 *1162:D *1162:RESET_B 4.89395e-05
6 *1162:D *1184:A 4.64561e-05
*RES
1 *1141:X *1162:D 9.54 
*END

*D_NET *47 0.000474241
*CONN
*I *1163:D I *D sky130_fd_sc_hd__dfrtp_1
*I *1143:X O *D sky130_fd_sc_hd__a31o_1
*CAP
1 *1163:D 9.39977e-05
2 *1143:X 9.39977e-05
3 *1163:D *1143:A1 4.92062e-05
4 *1163:D *1145:A1 0.00011852
5 *1163:D *1147:A3 0.00011852
*RES
1 *1143:X *1163:D 9.375 
*END

*D_NET *48 0.000283268
*CONN
*I *1164:D I *D sky130_fd_sc_hd__dfrtp_1
*I *1145:X O *D sky130_fd_sc_hd__a31o_1
*CAP
1 *1164:D 9.55057e-05
2 *1145:X 9.55057e-05
3 *1164:D *1166:CLK 0
4 *1164:D *268:101 9.22565e-05
*RES
1 *1145:X *1164:D 8.775 
*END

*D_NET *49 0.000420654
*CONN
*I *1165:D I *D sky130_fd_sc_hd__dfrtp_1
*I *1147:X O *D sky130_fd_sc_hd__a31o_1
*CAP
1 *1165:D 0.000107903
2 *1147:X 0.000107903
3 *1165:D *1147:A2 1.56428e-05
4 *1165:D *1147:A3 9.37731e-05
5 *1165:D *1159:CLK 9.5433e-05
*RES
1 *1147:X *1165:D 9.225 
*END

*D_NET *50 0.000543353
*CONN
*I *1166:D I *D sky130_fd_sc_hd__dfrtp_1
*I *1149:X O *D sky130_fd_sc_hd__a31o_1
*CAP
1 *1166:D 0.000190895
2 *1149:X 0.000190895
3 *1166:D *230:79 0.000119222
4 *1166:D *232:118 4.23417e-05
*RES
1 *1149:X *1166:D 11.1 
*END

*D_NET *51 0.000348553
*CONN
*I *1167:D I *D sky130_fd_sc_hd__dfrtp_1
*I *1151:X O *D sky130_fd_sc_hd__a31o_1
*CAP
1 *1167:D 0.000109687
2 *1151:X 0.000109687
3 *1167:D *956:B 5.29835e-05
4 *1167:D *1151:A2 9.09788e-06
5 *1167:D *1155:A1 4.93318e-05
6 *1167:D *283:14 1.77665e-05
*RES
1 *1151:X *1167:D 9.54 
*END

*D_NET *52 0.000819558
*CONN
*I *1168:D I *D sky130_fd_sc_hd__dfrtp_1
*I *1153:X O *D sky130_fd_sc_hd__a31o_1
*CAP
1 *1168:D 0.000201745
2 *1153:X 0.000201745
3 *1168:D *1155:A2 0.000151346
4 *1168:D *1168:CLK 0.000237085
5 *1168:D *281:33 2.76356e-05
*RES
1 *1153:X *1168:D 11.16 
*END

*D_NET *53 0.000583992
*CONN
*I *1169:D I *D sky130_fd_sc_hd__dfrtp_1
*I *1155:X O *D sky130_fd_sc_hd__a31o_1
*CAP
1 *1169:D 0.000228052
2 *1155:X 0.000228052
3 *1169:D *1155:A3 4.89362e-05
4 *1169:D *1162:RESET_B 8.62445e-06
5 *1169:D *1168:CLK 7.03276e-05
*RES
1 *1155:X *1169:D 10.62 
*END

*D_NET *54 0.000304749
*CONN
*I *970:C I *D sky130_fd_sc_hd__or4b_1
*I *968:X O *D sky130_fd_sc_hd__o21a_1
*CAP
1 *970:C 8.07828e-05
2 *968:X 8.07828e-05
3 *970:C *970:A 4.82863e-05
4 *970:C *271:126 4.82863e-05
5 *970:C *332:81 4.66108e-05
*RES
1 *968:X *970:C 4.685 
*END

*D_NET *55 0.000584869
*CONN
*I *970:D_N I *D sky130_fd_sc_hd__or4b_1
*I *969:X O *D sky130_fd_sc_hd__or3_1
*CAP
1 *970:D_N 0.000108253
2 *969:X 0.000108253
3 *970:D_N *967:A1 4.1977e-05
4 *970:D_N *970:A 0.000155497
5 *970:D_N *164:8 9.54469e-05
6 *970:D_N *241:138 2.88322e-05
7 *970:D_N *272:107 4.66108e-05
*RES
1 *969:X *970:D_N 9.81 
*END

*D_NET *56 0.00220532
*CONN
*I *1003:A2 I *D sky130_fd_sc_hd__o211a_1
*I *995:B1_N I *D sky130_fd_sc_hd__a21bo_1
*I *970:X O *D sky130_fd_sc_hd__or4b_1
*CAP
1 *1003:A2 0.000299724
2 *995:B1_N 0
3 *970:X 0.000220567
4 *56:12 0.000520291
5 *1003:A2 *995:A2 5.4606e-05
6 *1003:A2 *1002:B 4.89295e-05
7 *1003:A2 *1003:A1 0.000216517
8 *1003:A2 *1003:B1 3.7837e-05
9 *1003:A2 *270:16 0.000159156
10 *1003:A2 *285:34 0.000108853
11 *1003:A2 *316:22 7.34042e-05
12 *56:12 *968:A2 4.55864e-06
13 *56:12 *968:B1 0
14 *56:12 *995:A2 4.71087e-05
15 *56:12 *1001:B 6.331e-05
16 *56:12 *241:138 0.000265162
17 *56:12 *279:23 5.64643e-05
18 *56:12 *316:22 2.88321e-05
*RES
1 *970:X *56:12 10.58 
2 *56:12 *995:B1_N 1.6 
3 *56:12 *1003:A2 12.29 
*END

*D_NET *57 0.0135907
*CONN
*I *1002:A I *D sky130_fd_sc_hd__nand3_1
*I *995:A1 I *D sky130_fd_sc_hd__a21bo_1
*I *973:A1 I *D sky130_fd_sc_hd__a22o_1
*I *972:B I *D sky130_fd_sc_hd__nand2_1
*I *1073:A I *D sky130_fd_sc_hd__and4_1
*I *1069:A1 I *D sky130_fd_sc_hd__a22o_1
*I *1056:A I *D sky130_fd_sc_hd__nand4_1
*I *1009:A1 I *D sky130_fd_sc_hd__a22o_1
*I *977:A I *D sky130_fd_sc_hd__nand4_2
*I *1042:A I *D sky130_fd_sc_hd__and4_1
*I *971:X O *D sky130_fd_sc_hd__buf_2
*CAP
1 *1002:A 0.000123626
2 *995:A1 0
3 *973:A1 0.000275357
4 *972:B 0.00032536
5 *1073:A 0
6 *1069:A1 7.99877e-05
7 *1056:A 0
8 *1009:A1 0.000217618
9 *977:A 0
10 *1042:A 1.17698e-05
11 *971:X 0
12 *57:142 0.000233129
13 *57:121 0.000525403
14 *57:100 0.000749136
15 *57:87 0.000729212
16 *57:68 0.000705591
17 *57:33 0.000846028
18 *57:20 0.000805712
19 *57:8 0.000198122
20 *57:4 0.000212213
21 *972:B *967:A2 7.92445e-05
22 *972:B *241:123 7.23602e-05
23 *972:B *282:54 1.61831e-05
24 *972:B *305:45 0.000246639
25 *973:A1 *969:A 4.29734e-05
26 *973:A1 *969:C 4.82863e-05
27 *973:A1 *973:B1 4.66108e-05
28 *973:A1 *278:31 3.13354e-05
29 *973:A1 *316:26 6.83538e-05
30 *1002:A *995:A2 0.000267557
31 *1002:A *1001:B 0.000118358
32 *1002:A *1002:B 4.81525e-05
33 *1002:A *241:138 3.63576e-05
34 *1009:A1 *978:A 6.14709e-05
35 *1009:A1 *978:B 0
36 *1009:A1 *1009:A2 4.77769e-05
37 *1009:A1 *1009:B2 1.16261e-05
38 *1009:A1 *63:8 0.000134123
39 *1009:A1 *63:25 4.12767e-05
40 *1009:A1 *71:10 3.33763e-05
41 *1009:A1 *233:69 5.19006e-06
42 *1009:A1 *233:73 9.60616e-05
43 *1009:A1 *316:62 8.35157e-05
44 *1042:A *237:59 4.66108e-05
45 *1042:A *238:59 4.77807e-05
46 *1069:A1 *238:92 3.86814e-05
47 *1069:A1 *295:16 0.000156163
48 *1069:A1 *332:35 6.60042e-05
49 *57:8 *142:8 7.6376e-05
50 *57:8 *272:24 0.000123238
51 *57:20 *971:A 0.000136331
52 *57:20 *1057:A 0
53 *57:20 *237:59 0.000119873
54 *57:20 *238:59 0.000109613
55 *57:20 *286:18 6.1197e-05
56 *57:20 *293:24 0.000229403
57 *57:33 *974:A 0.00016758
58 *57:33 *1065:A_N 0.000136679
59 *57:33 *63:8 9.12494e-06
60 *57:33 *137:14 0.000181376
61 *57:33 *233:44 0
62 *57:33 *235:115 0.000131525
63 *57:33 *293:24 0.000650962
64 *57:33 *305:45 7.56618e-05
65 *57:68 *1059:A 0.000111392
66 *57:68 *1059:C 3.04436e-05
67 *57:68 *142:8 6.76978e-05
68 *57:68 *145:6 0.000124007
69 *57:68 *272:24 1.41114e-05
70 *57:68 *272:45 0.000391399
71 *57:87 *1062:C 4.66108e-05
72 *57:87 *1063:A 0.000118294
73 *57:87 *145:6 2.54431e-05
74 *57:87 *145:21 2.32688e-05
75 *57:87 *148:8 4.82863e-05
76 *57:87 *149:12 0.000177523
77 *57:87 *236:104 6.07446e-05
78 *57:100 *1071:B1 0.000214255
79 *57:100 *1072:A 6.12758e-05
80 *57:100 *1078:B1 6.89011e-05
81 *57:100 *149:12 0.000329118
82 *57:100 *164:8 2.92496e-05
83 *57:100 *236:104 1.21256e-05
84 *57:100 *316:32 0.000111887
85 *57:121 *164:8 0.000437103
86 *57:121 *272:107 0.000284969
87 *57:121 *316:32 7.71289e-05
88 *57:142 *995:A2 4.89395e-05
89 *57:142 *996:B 3.64998e-06
90 *57:142 *164:8 0.000201264
91 *57:142 *241:138 0.000121036
92 *57:142 *316:32 3.84331e-05
93 *57:142 *316:62 7.28642e-05
94 *1170:A *57:87 0
*RES
1 *971:X *57:4 1.6 
2 *57:4 *57:8 1.5 
3 *57:8 *57:20 8.605 
4 *57:20 *1042:A 2.05 
5 *57:20 *57:33 19.915 
6 *57:33 *977:A 1.6 
7 *57:33 *1009:A1 11.105 
8 *57:8 *1056:A 1.6 
9 *57:4 *57:68 5.64 
10 *57:68 *1069:A1 7.49 
11 *57:68 *57:87 9.965 
12 *57:87 *1073:A 3.6 
13 *57:87 *57:100 7.8 
14 *57:100 *972:B 12.4 
15 *57:100 *57:121 5.205 
16 *57:121 *973:A1 7.98 
17 *57:121 *57:142 5.54 
18 *57:142 *995:A1 1.6 
19 *57:142 *1002:A 5.17 
*END

*D_NET *58 0.000781883
*CONN
*I *973:B1 I *D sky130_fd_sc_hd__a22o_1
*I *972:Y O *D sky130_fd_sc_hd__nand2_1
*CAP
1 *973:B1 0.000131419
2 *972:Y 0.000131419
3 *973:B1 *958:A 0
4 *973:B1 *967:A2 7.95662e-05
5 *973:B1 *968:A2 0.000114352
6 *973:B1 *968:B1 0.000129455
7 *973:B1 *969:A 2.49909e-05
8 *973:B1 *190:30 0
9 *973:B1 *278:14 3.50033e-05
10 *973:B1 *279:23 8.90672e-05
11 *973:A1 *973:B1 4.66108e-05
*RES
1 *972:Y *973:B1 10.815 
*END

*D_NET *59 0.000790798
*CONN
*I *1001:A I *D sky130_fd_sc_hd__xnor2_1
*I *973:X O *D sky130_fd_sc_hd__a22o_1
*CAP
1 *1001:A 0.000230577
2 *973:X 0.000230577
3 *1001:A *1147:A1 0.000233736
4 *1001:A *1159:CLK 4.67041e-05
5 *1001:A *190:30 4.92039e-05
*RES
1 *973:X *1001:A 11.01 
*END

*D_NET *60 0.00138521
*CONN
*I *978:A I *D sky130_fd_sc_hd__and2_1
*I *1009:B1 I *D sky130_fd_sc_hd__a22o_1
*I *977:C I *D sky130_fd_sc_hd__nand4_2
*I *974:Y O *D sky130_fd_sc_hd__nand4_2
*CAP
1 *978:A 0.000109008
2 *1009:B1 0
3 *977:C 0
4 *974:Y 8.69103e-05
5 *60:23 0.000220758
6 *60:8 0.00019866
7 *978:A *978:B 7.84819e-06
8 *978:A *1009:A2 4.77769e-05
9 *978:A *1012:A2 8.46818e-05
10 *978:A *95:27 7.38779e-05
11 *60:8 *71:10 0.000136177
12 *60:8 *167:14 9.58582e-05
13 *60:8 *233:73 5.31158e-06
14 *60:23 *1021:B 7.27704e-06
15 *60:23 *167:14 0.000145672
16 *60:23 *233:73 0.000103924
17 *1009:A1 *978:A 6.14709e-05
*RES
1 *974:Y *60:8 5.745 
2 *60:8 *977:C 3.6 
3 *60:8 *60:23 5.21 
4 *60:23 *1009:B1 1.6 
5 *60:23 *978:A 4.135 
*END

*D_NET *61 0.00799244
*CONN
*I *1006:A1 I *D sky130_fd_sc_hd__a22o_1
*I *976:A1 I *D sky130_fd_sc_hd__a22o_1
*I *1007:B I *D sky130_fd_sc_hd__nand4_1
*I *1026:B I *D sky130_fd_sc_hd__nand4_1
*I *980:A1 I *D sky130_fd_sc_hd__a22o_1
*I *979:B I *D sky130_fd_sc_hd__nand4_2
*I *1040:B I *D sky130_fd_sc_hd__nand4_1
*I *1034:A1 I *D sky130_fd_sc_hd__a22o_1
*I *1041:A1 I *D sky130_fd_sc_hd__a22o_1
*I *1035:B I *D sky130_fd_sc_hd__nand4_1
*I *975:X O *D sky130_fd_sc_hd__buf_2
*CAP
1 *1006:A1 0.000102744
2 *976:A1 0.000126005
3 *1007:B 0.000171598
4 *1026:B 0.00022573
5 *980:A1 0
6 *979:B 0.000108321
7 *1040:B 4.13842e-05
8 *1034:A1 0.000227309
9 *1041:A1 5.05495e-05
10 *1035:B 0.000122399
11 *975:X 3.69588e-05
12 *61:97 0.000297603
13 *61:95 0.000169295
14 *61:64 0.000108321
15 *61:29 0.000277858
16 *61:16 0.000248132
17 *61:14 0.000267799
18 *61:12 0.000144987
19 *61:10 0.000701423
20 *61:8 0.000534898
21 *976:A1 *1007:C 0.000121072
22 *976:A1 *234:6 1.08105e-05
23 *979:B *979:A 8.41384e-05
24 *979:B *979:C 5.02729e-06
25 *979:B *979:D 2.26102e-05
26 *979:B *980:B1 0.000114339
27 *979:B *66:10 0.000156778
28 *979:B *121:27 6.73157e-05
29 *1006:A1 *1006:A2 2.04101e-05
30 *1006:A1 *91:29 1.17309e-05
31 *1006:A1 *269:36 3.4222e-05
32 *1007:B *1007:C 0.000193136
33 *1007:B *1007:D 1.91597e-05
34 *1026:B *1026:A 6.25581e-05
35 *1026:B *1026:D 0.00019455
36 *1026:B *305:45 7.40446e-05
37 *1034:A1 *926:A 0.000154987
38 *1034:A1 *1041:A2 0.000253364
39 *1034:A1 *294:20 8.33414e-05
40 *1035:B *1040:D 1.64141e-05
41 *1035:B *234:39 6.04361e-05
42 *1035:B *237:10 7.03219e-05
43 *1035:B *237:40 8.65905e-05
44 *1035:B *283:18 4.59022e-06
45 *1040:B *1034:A2 3.62258e-06
46 *1040:B *126:12 2.65814e-06
47 *1040:B *286:18 2.63208e-06
48 *1041:A1 *1041:A2 3.60484e-05
49 *1041:A1 *237:10 4.77769e-05
50 *61:8 *234:6 4.66108e-05
51 *61:10 *975:A 0.000155489
52 *61:10 *1025:B1 0.000364755
53 *61:10 *1034:A2 2.23407e-05
54 *61:10 *234:35 0.000110535
55 *61:10 *235:20 5.42475e-05
56 *61:10 *272:14 0.000134248
57 *61:10 *272:18 0
58 *61:12 *980:A2 9.50342e-06
59 *61:12 *1034:A2 7.45538e-05
60 *61:12 *234:35 3.50033e-05
61 *61:12 *234:37 2.42236e-05
62 *61:14 *980:A2 0.000299005
63 *61:14 *1034:A2 0.000294342
64 *61:16 *980:A2 8.33066e-06
65 *61:16 *1034:A2 5.20193e-05
66 *61:16 *1040:D 9.48581e-05
67 *61:16 *234:39 0.000128471
68 *61:95 *975:A 6.06948e-05
69 *61:95 *167:14 0
70 *61:95 *235:20 1.25098e-05
71 *61:95 *235:48 1.16208e-05
72 *61:95 *269:36 2.10731e-05
*RES
1 *975:X *61:8 4.05 
2 *61:8 *61:10 10.305 
3 *61:10 *61:12 1.38 
4 *61:12 *61:14 3.675 
5 *61:14 *61:16 2.91 
6 *61:16 *1035:B 5.775 
7 *61:16 *61:29 2 
8 *61:29 *1041:A1 2.755 
9 *61:29 *1034:A1 10.625 
10 *61:14 *1040:B 4.05 
11 *61:12 *61:64 2 
12 *61:64 *979:B 4.84 
13 *61:64 *980:A1 1.6 
14 *61:10 *1026:B 7.53 
15 *61:8 *61:95 1.38 
16 *61:95 *61:97 2 
17 *61:97 *1007:B 3.775 
18 *61:97 *976:A1 3.445 
19 *61:95 *1006:A1 5.28 
*END

*D_NET *62 0.000646644
*CONN
*I *1009:B2 I *D sky130_fd_sc_hd__a22o_1
*I *977:D I *D sky130_fd_sc_hd__nand4_2
*I *976:X O *D sky130_fd_sc_hd__a22o_1
*CAP
1 *1009:B2 4.65362e-05
2 *977:D 4.1896e-05
3 *976:X 7.04386e-05
4 *62:6 0.000158871
5 *977:D *167:14 0.00013475
6 *977:D *234:19 0.00013475
7 *1009:B2 *976:A2 0
8 *62:6 *234:19 4.77769e-05
9 *1009:A1 *1009:B2 1.16261e-05
*RES
1 *976:X *62:6 2.395 
2 *62:6 *977:D 7.235 
3 *62:6 *1009:B2 2.47 
*END

*D_NET *63 0.00232397
*CONN
*I *1012:A1 I *D sky130_fd_sc_hd__a21o_1
*I *1010:A I *D sky130_fd_sc_hd__nand3_1
*I *1011:A I *D sky130_fd_sc_hd__and3_1
*I *978:B I *D sky130_fd_sc_hd__and2_1
*I *977:Y O *D sky130_fd_sc_hd__nand4_2
*CAP
1 *1012:A1 0.000163507
2 *1010:A 6.2513e-05
3 *1011:A 0
4 *978:B 0.000123731
5 *977:Y 5.71021e-05
6 *63:27 6.2513e-05
7 *63:25 0.000367434
8 *63:8 0.00038476
9 *978:B *95:27 7.5687e-06
10 *1010:A *1006:A2 5.83958e-05
11 *1010:A *1010:B 0.000124007
12 *1010:A *1011:C 0.000110683
13 *1010:A *94:16 2.96426e-05
14 *1012:A1 *1012:A2 2.49909e-05
15 *1012:A1 *1021:B 0.000260449
16 *1012:A1 *1031:A2 3.9442e-05
17 *1012:A1 *293:24 3.54201e-05
18 *63:8 *293:24 5.5057e-05
19 *63:25 *1021:B 7.0936e-05
20 *63:25 *233:73 6.12338e-06
21 *63:25 *293:24 8.7323e-05
22 *978:A *978:B 7.84819e-06
23 *1009:A1 *978:B 0
24 *1009:A1 *63:8 0.000134123
25 *1009:A1 *63:25 4.12767e-05
26 *57:33 *63:8 9.12494e-06
*RES
1 *977:Y *63:8 5.235 
2 *63:8 *978:B 5.265 
3 *63:8 *63:25 3.3 
4 *63:25 *63:27 2 
5 *63:27 *1011:A 1.6 
6 *63:27 *1010:A 3.79 
7 *63:25 *1012:A1 7.215 
*END

*D_NET *64 0.000611401
*CONN
*I *984:A_N I *D sky130_fd_sc_hd__and2b_1
*I *986:B I *D sky130_fd_sc_hd__xnor2_1
*I *978:X O *D sky130_fd_sc_hd__and2_1
*CAP
1 *984:A_N 7.66046e-05
2 *986:B 0
3 *978:X 0.000117677
4 *64:6 0.000194282
5 *984:A_N *984:B 3.68999e-05
6 *984:A_N *986:A 0.000119242
7 *64:6 *986:A 4.89295e-05
8 *64:6 *95:27 1.77665e-05
*RES
1 *978:X *64:6 3.43 
2 *64:6 *986:B 1.6 
3 *64:6 *984:A_N 3.085 
*END

*D_NET *65 0.00341144
*CONN
*I *982:A1 I *D sky130_fd_sc_hd__a21o_1
*I *989:A1 I *D sky130_fd_sc_hd__a211oi_1
*I *990:B1 I *D sky130_fd_sc_hd__o211a_1
*I *981:B I *D sky130_fd_sc_hd__nand3_1
*I *979:Y O *D sky130_fd_sc_hd__nand4_2
*CAP
1 *982:A1 5.35452e-05
2 *989:A1 0.000122475
3 *990:B1 1.95311e-05
4 *981:B 1.70173e-05
5 *979:Y 0.000399725
6 *65:29 0.000405624
7 *65:20 0.000292595
8 *65:18 0.000465232
9 *981:B *67:8 4.9253e-06
10 *989:A1 *961:D 7.24418e-07
11 *989:A1 *989:A2 5.39718e-05
12 *989:A1 *989:C1 5.57814e-05
13 *989:A1 *990:A2 1.85674e-05
14 *989:A1 *69:12 0
15 *989:A1 *74:8 4.43871e-06
16 *990:B1 *961:D 2.87865e-05
17 *990:B1 *990:A2 1.85674e-05
18 *990:B1 *67:17 9.53428e-06
19 *65:18 *959:A 1.51628e-05
20 *65:18 *979:C 4.60808e-05
21 *65:18 *979:D 2.96437e-05
22 *65:18 *981:C 0.000216217
23 *65:18 *1051:A 0.000100139
24 *65:18 *66:10 0.000192989
25 *65:18 *137:14 0.000234685
26 *65:18 *233:44 1.35114e-05
27 *65:18 *233:69 0.000204365
28 *65:29 *961:D 1.12578e-05
29 *65:29 *983:B 0.000122976
30 *65:29 *67:8 0.000109705
31 *65:29 *67:17 9.53743e-05
32 *65:29 *69:12 4.82919e-05
*RES
1 *979:Y *65:18 15.455 
2 *65:18 *65:20 0.36 
3 *65:20 *981:B 2.05 
4 *65:20 *65:29 5.625 
5 *65:29 *990:B1 2.39125 
6 *65:29 *989:A1 7.79 
7 *65:18 *982:A1 2.395 
*END

*D_NET *66 0.0030947
*CONN
*I *981:C I *D sky130_fd_sc_hd__nand3_1
*I *982:A2 I *D sky130_fd_sc_hd__a21o_1
*I *980:X O *D sky130_fd_sc_hd__a22o_1
*CAP
1 *981:C 0.000123974
2 *982:A2 0.00015228
3 *980:X 0.000222613
4 *66:10 0.000498867
5 *981:C *974:A 0.000160651
6 *981:C *1051:A 8.53113e-06
7 *982:A2 *981:A 9.50342e-06
8 *982:A2 *982:B1 3.60024e-06
9 *982:A2 *1157:D 0.000307049
10 *982:A2 *282:54 0.000308208
11 *982:A2 *293:24 8.42161e-05
12 *66:10 *959:A 7.50287e-05
13 *66:10 *974:A 0.000243585
14 *66:10 *979:D 2.37467e-05
15 *66:10 *271:10 0.000306867
16 *979:B *66:10 0.000156778
17 *65:18 *981:C 0.000216217
18 *65:18 *66:10 0.000192989
*RES
1 *980:X *66:10 10.41 
2 *66:10 *982:A2 12.355 
3 *66:10 *981:C 6.975 
*END

*D_NET *67 0.00130559
*CONN
*I *990:C1 I *D sky130_fd_sc_hd__o211a_1
*I *989:A2 I *D sky130_fd_sc_hd__a211oi_1
*I *983:A I *D sky130_fd_sc_hd__and2_1
*I *981:Y O *D sky130_fd_sc_hd__nand3_1
*CAP
1 *990:C1 0
2 *989:A2 0.000112409
3 *983:A 0
4 *981:Y 0.000253928
5 *67:17 0.000165004
6 *67:8 0.000306524
7 *989:A2 *69:12 0
8 *989:A2 *74:8 0
9 *67:8 *983:B 7.08971e-05
10 *67:17 *961:D 0.000123319
11 *981:B *67:8 4.9253e-06
12 *989:A1 *989:A2 5.39718e-05
13 *990:B1 *67:17 9.53428e-06
14 *65:29 *67:8 0.000109705
15 *65:29 *67:17 9.53743e-05
*RES
1 *981:Y *67:8 5.86 
2 *67:8 *983:A 1.6 
3 *67:8 *67:17 1.845 
4 *67:17 *989:A2 7.235 
5 *67:17 *990:C1 1.6 
*END

*D_NET *68 0.000246484
*CONN
*I *983:B I *D sky130_fd_sc_hd__and2_1
*I *982:X O *D sky130_fd_sc_hd__a21o_1
*CAP
1 *983:B 2.63054e-05
2 *982:X 2.63054e-05
3 *65:29 *983:B 0.000122976
4 *67:8 *983:B 7.08971e-05
*RES
1 *982:X *983:B 4.34 
*END

*D_NET *69 0.0021935
*CONN
*I *984:B I *D sky130_fd_sc_hd__and2b_1
*I *986:A I *D sky130_fd_sc_hd__xnor2_1
*I *983:X O *D sky130_fd_sc_hd__and2_1
*CAP
1 *984:B 0.000131404
2 *986:A 6.87591e-05
3 *983:X 0.000375512
4 *69:12 0.000575675
5 *984:B *72:8 5.83121e-06
6 *986:A *72:8 2.49909e-05
7 *69:12 *962:B 0.000226409
8 *69:12 *987:C 0.000220842
9 *69:12 *131:14 9.37731e-05
10 *69:12 *139:14 0.000138791
11 *69:12 *139:39 7.81462e-05
12 *69:12 *270:28 0
13 *69:12 *293:24 0
14 *984:A_N *984:B 3.68999e-05
15 *984:A_N *986:A 0.000119242
16 *989:A1 *69:12 0
17 *989:A2 *69:12 0
18 *64:6 *986:A 4.89295e-05
19 *65:29 *69:12 4.82919e-05
*RES
1 *983:X *69:12 13.805 
2 *69:12 *986:A 3.085 
3 *69:12 *984:B 3.805 
*END

*D_NET *70 0.000743196
*CONN
*I *993:A1 I *D sky130_fd_sc_hd__o21ai_2
*I *1016:B I *D sky130_fd_sc_hd__or3_1
*I *984:X O *D sky130_fd_sc_hd__and2b_1
*CAP
1 *993:A1 9.49503e-05
2 *1016:B 1.95061e-05
3 *984:X 0.000108109
4 *70:6 0.000222565
5 *993:A1 *993:A2 0.000155277
6 *993:A1 *73:14 1.08758e-05
7 *993:A1 *235:16 8.53011e-05
8 *70:6 *73:14 4.66108e-05
*RES
1 *984:X *70:6 3.085 
2 *70:6 *1016:B 1.96 
3 *70:6 *993:A1 3.79 
*END

*D_NET *71 0.0118142
*CONN
*I *994:A2 I *D sky130_fd_sc_hd__a31o_1
*I *1064:A I *D sky130_fd_sc_hd__nand2_1
*I *1045:A1 I *D sky130_fd_sc_hd__a31o_1
*I *1073:B I *D sky130_fd_sc_hd__and4_1
*I *1070:C I *D sky130_fd_sc_hd__and4b_1
*I *1060:A I *D sky130_fd_sc_hd__nand2_1
*I *987:B I *D sky130_fd_sc_hd__and3_1
*I *1081:A1 I *D sky130_fd_sc_hd__a31o_1
*I *1052:A1 I *D sky130_fd_sc_hd__a22o_1
*I *1051:A I *D sky130_fd_sc_hd__nand4_1
*I *985:X O *D sky130_fd_sc_hd__buf_2
*CAP
1 *994:A2 2.70077e-05
2 *1064:A 3.43921e-05
3 *1045:A1 0.00062562
4 *1073:B 0.000218247
5 *1070:C 1.54149e-05
6 *1060:A 1.8664e-05
7 *987:B 0.000305503
8 *1081:A1 0.000214531
9 *1052:A1 0
10 *1051:A 0.000162911
11 *985:X 0
12 *71:123 0.00069459
13 *71:89 0.000375056
14 *71:76 0.000316491
15 *71:68 0.000731812
16 *71:64 0.00119946
17 *71:12 0.000192188
18 *71:10 0.000611838
19 *71:4 0.00130519
20 *987:B *1021:A 7.21318e-05
21 *987:B *293:24 2.3228e-05
22 *987:B *316:62 0.000342551
23 *994:A2 *994:A3 4.77807e-05
24 *994:A2 *241:138 8.41384e-05
25 *1045:A1 *964:A 7.20893e-06
26 *1045:A1 *964:B 1.82559e-05
27 *1045:A1 *964:D 2.68464e-05
28 *1045:A1 *1066:A 0.000197776
29 *1045:A1 *129:10 8.0901e-06
30 *1045:A1 *131:14 1.23408e-05
31 *1045:A1 *152:8 6.97608e-05
32 *1051:A *974:A 8.26536e-05
33 *1051:A *137:14 4.21973e-05
34 *1051:A *233:69 0
35 *1070:C *1062:B 1.82571e-05
36 *1070:C *1075:A 5.00903e-05
37 *1070:C *236:36 5.31158e-06
38 *1073:B *1071:A2 4.66108e-05
39 *1073:B *1071:B1 8.23457e-05
40 *1073:B *1075:A 4.87939e-05
41 *1073:B *236:18 0.00031059
42 *1073:B *236:36 4.66108e-05
43 *1073:B *238:92 7.58098e-05
44 *1081:A1 *1052:A2 0.000197264
45 *1081:A1 *1081:A2 5.17188e-05
46 *1081:A1 *1081:B1 3.26889e-05
47 *1081:A1 *136:6 9.60582e-07
48 *1081:A1 *136:23 3.82323e-06
49 *1081:A1 *167:14 4.82919e-05
50 *71:10 *974:A 9.09611e-05
51 *71:10 *985:A 2.69217e-05
52 *71:10 *167:14 4.15056e-05
53 *71:10 *233:69 4.77807e-05
54 *71:10 *285:34 2.0187e-05
55 *71:10 *316:62 3.81745e-05
56 *71:12 *974:A 2.78732e-05
57 *71:64 *987:A 0.000119873
58 *71:64 *987:C 5.50531e-05
59 *71:64 *992:B 3.72007e-05
60 *71:64 *77:10 3.54295e-05
61 *71:64 *80:14 7.03219e-05
62 *71:64 *285:34 0.000533368
63 *71:68 *962:A 0
64 *71:68 *965:B 3.72149e-05
65 *71:68 *989:B1 8.71001e-05
66 *71:68 *991:B 0.000116158
67 *71:68 *77:10 5.76922e-05
68 *71:68 *235:99 0.00017765
69 *71:68 *271:109 3.68769e-05
70 *71:68 *276:14 0.000239072
71 *71:68 *277:12 0
72 *71:68 *295:16 0.000114933
73 *71:68 *316:62 0
74 *71:68 *332:54 0
75 *71:68 *332:103 0
76 *71:76 *147:6 1.56428e-05
77 *71:76 *154:8 3.33763e-05
78 *71:76 *295:16 7.03219e-05
79 *71:89 *1060:B 4.77769e-05
80 *71:89 *1062:B 2.03643e-05
81 *71:89 *1068:B1 1.30228e-05
82 *71:89 *1075:A 0.00015356
83 *71:89 *154:8 2.50267e-05
84 *71:123 *152:8 1.56428e-05
85 *981:C *1051:A 8.53113e-06
86 *1009:A1 *71:10 3.33763e-05
87 *1170:A *1073:B 2.68037e-05
88 *1170:A *71:68 0
89 *60:8 *71:10 0.000136177
90 *65:18 *1051:A 0.000100139
*RES
1 *985:X *71:4 1.6 
2 *71:4 *71:10 8.375 
3 *71:10 *71:12 0.615 
4 *71:12 *1051:A 6.975 
5 *71:12 *1052:A1 3.6 
6 *71:10 *1081:A1 7.545 
7 *71:4 *987:B 10.19 
8 *71:4 *71:64 11.33 
9 *71:64 *71:68 11.61 
10 *71:68 *71:76 4.715 
11 *71:76 *1060:A 1.96 
12 *71:76 *71:89 5.03 
13 *71:89 *1070:C 4.215 
14 *71:89 *1073:B 12.34 
15 *71:68 *71:123 2.45 
16 *71:123 *1045:A1 9.22 
17 *71:123 *1064:A 2.215 
18 *71:64 *994:A2 4.395 
*END

*D_NET *72 0.0017887
*CONN
*I *1014:B I *D sky130_fd_sc_hd__xnor2_1
*I *987:C I *D sky130_fd_sc_hd__and3_1
*I *986:Y O *D sky130_fd_sc_hd__xnor2_1
*CAP
1 *1014:B 0.000151637
2 *987:C 0.000155551
3 *986:Y 4.09399e-05
4 *72:8 0.000348129
5 *987:C *139:39 0.000213117
6 *987:C *270:28 0
7 *987:C *285:34 0.000137811
8 *987:C *316:62 8.23457e-05
9 *1014:B *1021:A 0
10 *1014:B *97:14 6.72143e-05
11 *1014:B *139:39 0.000285239
12 *1014:B *270:28 0
13 *984:B *72:8 5.83121e-06
14 *986:A *72:8 2.49909e-05
15 *69:12 *987:C 0.000220842
16 *71:64 *987:C 5.50531e-05
*RES
1 *986:Y *72:8 4.05 
2 *72:8 *987:C 12.175 
3 *72:8 *1014:B 7.02 
*END

*D_NET *73 0.00142097
*CONN
*I *993:A2 I *D sky130_fd_sc_hd__o21ai_2
*I *1016:C I *D sky130_fd_sc_hd__or3_1
*I *987:X O *D sky130_fd_sc_hd__and3_1
*CAP
1 *993:A2 9.1022e-05
2 *1016:C 1.38454e-05
3 *987:X 0.000214851
4 *73:14 0.000319718
5 *993:A2 *993:B1 0.000189787
6 *993:A2 *235:16 3.0933e-05
7 *1016:C *993:B1 5.19006e-06
8 *73:14 *141:16 0.000109843
9 *73:14 *270:28 3.57851e-05
10 *73:14 *316:62 0.00019723
11 *993:A1 *993:A2 0.000155277
12 *993:A1 *73:14 1.08758e-05
13 *70:6 *73:14 4.66108e-05
*RES
1 *987:X *73:14 9.26 
2 *73:14 *1016:C 1.96 
3 *73:14 *993:A2 4.585 
*END

*D_NET *74 0.000879293
*CONN
*I *989:C1 I *D sky130_fd_sc_hd__a211oi_1
*I *990:A2 I *D sky130_fd_sc_hd__o211a_1
*I *988:Y O *D sky130_fd_sc_hd__a21oi_1
*CAP
1 *989:C1 4.40183e-05
2 *990:A2 6.2818e-05
3 *988:Y 9.47149e-05
4 *74:8 0.000201551
5 *989:C1 *295:16 0.000113797
6 *990:A2 *961:D 1.17309e-05
7 *990:A2 *990:A1 5.83121e-06
8 *74:8 *271:86 6.95739e-05
9 *74:8 *295:16 0.000177903
10 *989:A1 *989:C1 5.57814e-05
11 *989:A1 *990:A2 1.85674e-05
12 *989:A1 *74:8 4.43871e-06
13 *989:A2 *74:8 0
14 *990:B1 *990:A2 1.85674e-05
*RES
1 *988:Y *74:8 5.745 
2 *74:8 *990:A2 4.665 
3 *74:8 *989:C1 4.98 
*END

*D_NET *75 0.000780571
*CONN
*I *994:B1 I *D sky130_fd_sc_hd__a31o_1
*I *991:A I *D sky130_fd_sc_hd__nor2_1
*I *989:Y O *D sky130_fd_sc_hd__a211oi_1
*CAP
1 *994:B1 7.05609e-05
2 *991:A 0.000164082
3 *989:Y 0
4 *75:4 0.000234643
5 *991:A *989:B1 5.36849e-05
6 *991:A *77:10 7.22354e-05
7 *991:A *274:42 7.10957e-05
8 *994:B1 *295:16 0.000114269
*RES
1 *989:Y *75:4 1.6 
2 *75:4 *991:A 5.095 
3 *75:4 *994:B1 6.98 
*END

*D_NET *76 0.00042038
*CONN
*I *991:B I *D sky130_fd_sc_hd__nor2_1
*I *990:X O *D sky130_fd_sc_hd__o211a_1
*CAP
1 *991:B 0.000127508
2 *990:X 0.000127508
3 *991:B *962:A 0
4 *991:B *277:27 4.92062e-05
5 *71:68 *991:B 0.000116158
*RES
1 *990:X *991:B 9.375 
*END

*D_NET *77 0.00155329
*CONN
*I *992:B I *D sky130_fd_sc_hd__xnor2_1
*I *994:A3 I *D sky130_fd_sc_hd__a31o_1
*I *991:Y O *D sky130_fd_sc_hd__nor2_1
*CAP
1 *992:B 0.00012008
2 *994:A3 5.66817e-05
3 *991:Y 0.000179302
4 *77:10 0.000356064
5 *992:B *78:12 4.77807e-05
6 *992:B *270:18 0.000194295
7 *992:B *295:16 6.30801e-05
8 *992:B *316:62 0.000118813
9 *77:10 *295:16 0.000166859
10 *991:A *77:10 7.22354e-05
11 *994:A2 *994:A3 4.77807e-05
12 *71:64 *992:B 3.72007e-05
13 *71:64 *77:10 3.54295e-05
14 *71:68 *77:10 5.76922e-05
*RES
1 *991:Y *77:10 6.885 
2 *77:10 *994:A3 4.665 
3 *77:10 *992:B 7.065 
*END

*D_NET *78 0.001199
*CONN
*I *993:B1 I *D sky130_fd_sc_hd__o21ai_2
*I *1016:A I *D sky130_fd_sc_hd__or3_1
*I *992:Y O *D sky130_fd_sc_hd__xnor2_1
*CAP
1 *993:B1 0.000131565
2 *1016:A 0
3 *992:Y 0.000106798
4 *78:12 0.000238362
5 *993:B1 *1017:B 0.0001615
6 *993:B1 *79:6 4.89395e-05
7 *993:B1 *235:16 3.20857e-05
8 *78:12 *235:16 3.89692e-05
9 *78:12 *295:16 0.000151417
10 *78:12 *316:62 4.66108e-05
11 *992:B *78:12 4.77807e-05
12 *993:A2 *993:B1 0.000189787
13 *1016:C *993:B1 5.19006e-06
*RES
1 *992:Y *78:12 7.94 
2 *78:12 *1016:A 1.6 
3 *78:12 *993:B1 5.17 
*END

*D_NET *79 0.00185876
*CONN
*I *1000:A1 I *D sky130_fd_sc_hd__o21a_1
*I *1109:A I *D sky130_fd_sc_hd__nand2_1
*I *1108:A I *D sky130_fd_sc_hd__or2_1
*I *1017:A I *D sky130_fd_sc_hd__and2_1
*I *993:Y O *D sky130_fd_sc_hd__o21ai_2
*CAP
1 *1000:A1 3.73188e-05
2 *1109:A 1.96901e-05
3 *1108:A 0
4 *1017:A 2.78608e-05
5 *993:Y 5.80164e-05
6 *79:25 0.000186363
7 *79:10 0.000318502
8 *79:6 0.000219303
9 *1000:A1 *235:16 3.0933e-05
10 *1017:A *1006:A2 9.66021e-05
11 *1017:A *1105:A 3.66286e-05
12 *1017:A *141:16 0.00012657
13 *1109:A *1108:B 4.99619e-05
14 *1109:A *1112:A2 4.35432e-05
15 *1109:A *315:38 0.000114024
16 *79:6 *235:16 6.65733e-05
17 *79:10 *1017:B 0
18 *79:10 *164:8 0
19 *79:25 *1112:A2 2.75145e-05
20 *79:25 *1112:B1 5.83121e-06
21 *79:25 *141:24 0.00018305
22 *79:25 *164:23 0
23 *79:25 *315:38 0.000161529
24 *993:B1 *79:6 4.89395e-05
*RES
1 *993:Y *79:6 3.085 
2 *79:6 *79:10 3.89 
3 *79:10 *1017:A 5.085 
4 *79:10 *79:25 5.885 
5 *79:25 *1108:A 1.6 
6 *79:25 *1109:A 2.74 
7 *79:6 *1000:A1 2.395 
*END

*D_NET *80 0.00179784
*CONN
*I *998:A I *D sky130_fd_sc_hd__or2_1
*I *997:A I *D sky130_fd_sc_hd__nand2_1
*I *994:X O *D sky130_fd_sc_hd__a31o_1
*CAP
1 *998:A 0
2 *997:A 0.000121521
3 *994:X 0.000408688
4 *80:14 0.000530209
5 *997:A *997:B 5.25073e-05
6 *997:A *285:34 6.39912e-05
7 *80:14 *285:34 0.0005506
8 *71:64 *80:14 7.03219e-05
*RES
1 *994:X *80:14 11.765 
2 *80:14 *997:A 7.205 
3 *80:14 *998:A 1.6 
*END

*D_NET *81 0.000537987
*CONN
*I *996:B I *D sky130_fd_sc_hd__xor2_1
*I *995:X O *D sky130_fd_sc_hd__a21bo_1
*CAP
1 *996:B 0.000184966
2 *995:X 0.000184966
3 *996:B *241:138 3.14534e-05
4 *996:B *316:62 0.000132951
5 *57:142 *996:B 3.64998e-06
*RES
1 *995:X *996:B 9.975 
*END

*D_NET *82 0.000734991
*CONN
*I *997:B I *D sky130_fd_sc_hd__nand2_1
*I *998:B I *D sky130_fd_sc_hd__or2_1
*I *996:X O *D sky130_fd_sc_hd__xor2_1
*CAP
1 *997:B 6.67442e-05
2 *998:B 1.44619e-05
3 *996:X 1.19504e-05
4 *82:6 9.31565e-05
5 *997:B *270:16 0.00027174
6 *997:B *285:34 0.000140612
7 *998:B *285:34 9.12671e-06
8 *82:6 *270:16 4.77769e-05
9 *82:6 *285:34 2.69153e-05
10 *997:A *997:B 5.25073e-05
*RES
1 *996:X *82:6 2.05 
2 *82:6 *998:B 1.96 
3 *82:6 *997:B 4.48 
*END

*D_NET *83 0.000693145
*CONN
*I *1000:B1 I *D sky130_fd_sc_hd__o21a_1
*I *999:A I *D sky130_fd_sc_hd__nand2_1
*I *997:Y O *D sky130_fd_sc_hd__nand2_1
*CAP
1 *1000:B1 0.000139046
2 *999:A 0
3 *997:Y 5.22674e-05
4 *83:10 0.000191313
5 *1000:B1 *1000:A2 3.0933e-05
6 *1000:B1 *1001:B 6.52347e-05
7 *83:10 *999:B 4.33166e-05
8 *83:10 *1001:B 0.000112589
9 *83:10 *85:17 5.0096e-05
10 *83:10 *316:22 8.34904e-06
*RES
1 *997:Y *83:10 7.235 
2 *83:10 *999:A 1.6 
3 *83:10 *1000:B1 4.15 
*END

*D_NET *84 0.000256937
*CONN
*I *999:B I *D sky130_fd_sc_hd__nand2_1
*I *998:X O *D sky130_fd_sc_hd__or2_1
*CAP
1 *999:B 8.17625e-05
2 *998:X 8.17625e-05
3 *999:B *85:17 5.0096e-05
4 *83:10 *999:B 4.33166e-05
*RES
1 *998:X *999:B 8.835 
*END

*D_NET *85 0.00142805
*CONN
*I *1108:B I *D sky130_fd_sc_hd__or2_1
*I *1109:B I *D sky130_fd_sc_hd__nand2_1
*I *1000:A2 I *D sky130_fd_sc_hd__o21a_1
*I *999:Y O *D sky130_fd_sc_hd__nand2_1
*CAP
1 *1108:B 6.27657e-05
2 *1109:B 0
3 *1000:A2 6.2447e-05
4 *999:Y 0
5 *85:17 0.00035127
6 *85:4 0.000350951
7 *1000:A2 *1001:B 8.35118e-05
8 *1000:A2 *235:16 0.000232985
9 *1108:B *1112:A2 4.99619e-05
10 *1108:B *1133:B1 9.53428e-06
11 *1108:B *315:38 4.35348e-05
12 *85:17 *164:8 0
13 *85:17 *164:23 0
14 *85:17 *316:22 0
15 *999:B *85:17 5.0096e-05
16 *1000:B1 *1000:A2 3.0933e-05
17 *1109:A *1108:B 4.99619e-05
18 *83:10 *85:17 5.0096e-05
*RES
1 *999:Y *85:4 1.6 
2 *85:4 *1000:A2 3.775 
3 *85:4 *85:17 8.695 
4 *85:17 *1109:B 1.6 
5 *85:17 *1108:B 3.1 
*END

*D_NET *86 0.0021233
*CONN
*I *1001:B I *D sky130_fd_sc_hd__xnor2_1
*I *1000:X O *D sky130_fd_sc_hd__o21a_1
*CAP
1 *1001:B 0.000578135
2 *1000:X 0.000578135
3 *1001:B *958:A 0.000121033
4 *1001:B *1002:B 1.41594e-05
5 *1001:B *1003:C1 1.52352e-05
6 *1001:B *235:16 3.93467e-05
7 *1001:B *270:6 6.99772e-05
8 *1001:B *316:22 0.000264273
9 *1000:A2 *1001:B 8.35118e-05
10 *1000:B1 *1001:B 6.52347e-05
11 *1002:A *1001:B 0.000118358
12 *56:12 *1001:B 6.331e-05
13 *83:10 *1001:B 0.000112589
*RES
1 *1000:X *1001:B 18.555 
*END

*D_NET *87 0.000567583
*CONN
*I *1003:B1 I *D sky130_fd_sc_hd__o211a_1
*I *1001:Y O *D sky130_fd_sc_hd__xnor2_1
*CAP
1 *1003:B1 0.000107913
2 *1001:Y 0.000107913
3 *1003:B1 *1003:A1 1.52352e-05
4 *1003:B1 *1129:B2 4.75977e-05
5 *1003:B1 *1159:CLK 9.05535e-05
6 *1003:B1 *90:24 2.65814e-06
7 *1003:B1 *285:34 0.000157875
8 *1003:A2 *1003:B1 3.7837e-05
*RES
1 *1001:Y *1003:B1 10.17 
*END

*D_NET *88 0.000526322
*CONN
*I *1003:C1 I *D sky130_fd_sc_hd__o211a_1
*I *1002:Y O *D sky130_fd_sc_hd__nand3_1
*CAP
1 *1003:C1 0.000157426
2 *1002:Y 0.000157426
3 *1003:C1 *190:30 0.00011272
4 *1003:C1 *270:6 8.35157e-05
5 *1001:B *1003:C1 1.52352e-05
*RES
1 *1002:Y *1003:C1 9.72 
*END

*D_NET *89 0.000117294
*CONN
*I *1004:A I *D sky130_fd_sc_hd__inv_2
*I *1003:X O *D sky130_fd_sc_hd__o211a_1
*CAP
1 *1004:A 3.44836e-05
2 *1003:X 3.44836e-05
3 *1004:A *1003:A1 3.50152e-06
4 *1004:A *90:24 1.79098e-05
5 *1004:A *285:34 2.69153e-05
*RES
1 *1003:X *1004:A 4.01 
*END

*D_NET *90 0.00435315
*CONN
*I *1124:A1 I *D sky130_fd_sc_hd__o211ai_2
*I *1114:A I *D sky130_fd_sc_hd__nand2_2
*I *1126:C1 I *D sky130_fd_sc_hd__o311ai_4
*I *1004:Y O *D sky130_fd_sc_hd__inv_2
*CAP
1 *1124:A1 0
2 *1114:A 3.85772e-05
3 *1126:C1 0.000135895
4 *1004:Y 0.00051628
5 *90:34 0.000406631
6 *90:24 0.000748438
7 *1114:A *1126:A3 0.000154488
8 *1114:A *1126:B1 1.26626e-05
9 *1114:A *200:10 0.000141599
10 *1126:C1 *1113:C 0
11 *1126:C1 *1138:A 4.82863e-05
12 *1126:C1 *212:10 0.000109947
13 *90:24 *1106:A 3.44125e-05
14 *90:24 *1129:B2 4.58691e-05
15 *90:24 *1131:A 0.000232403
16 *90:24 *1132:B1 0.000228508
17 *90:24 *1136:A2 3.74161e-05
18 *90:24 *1137:B2 0.000157875
19 *90:24 *1159:CLK 9.05535e-05
20 *90:24 *190:30 6.24727e-05
21 *90:24 *192:18 0.000405188
22 *90:24 *210:10 6.30071e-05
23 *90:24 *210:16 0
24 *90:24 *235:16 0.000161474
25 *90:24 *235:70 8.35068e-05
26 *90:24 *285:34 5.79099e-06
27 *90:34 *1126:A3 9.50342e-06
28 *90:34 *1136:B2 0.000150299
29 *90:34 *200:10 4.12825e-05
30 *90:34 *200:16 0
31 *90:34 *210:16 1.52184e-05
32 *90:34 *212:10 0.00016163
33 *90:34 *212:16 3.33651e-05
34 *1003:B1 *90:24 2.65814e-06
35 *1004:A *90:24 1.79098e-05
*RES
1 *1004:Y *90:24 22.545 
2 *90:24 *90:34 6.695 
3 *90:34 *1126:C1 6.495 
4 *90:34 *1114:A 5.49 
5 *90:24 *1124:A1 1.6 
*END

*D_NET *91 0.00228892
*CONN
*I *1023:B1 I *D sky130_fd_sc_hd__a21o_1
*I *1008:A1 I *D sky130_fd_sc_hd__a21bo_1
*I *1022:B I *D sky130_fd_sc_hd__nand3_1
*I *1005:X O *D sky130_fd_sc_hd__and2_1
*CAP
1 *1023:B1 0.000134149
2 *1008:A1 3.48647e-05
3 *1022:B 0.000308751
4 *1005:X 0
5 *91:29 0.000465269
6 *91:4 0.000605006
7 *1008:A1 *1022:A 0
8 *1008:A1 *1022:C 4.42802e-05
9 *1008:A1 *1023:A1 5.41181e-05
10 *1008:A1 *1023:A2 5.31756e-05
11 *1008:A1 *92:14 1.32064e-05
12 *1022:B *1005:A 1.18961e-06
13 *1022:B *1022:C 4.16337e-05
14 *1022:B *282:30 5.10008e-05
15 *1022:B *330:10 7.39901e-05
16 *1023:B1 *1130:B2 5.30673e-05
17 *1023:B1 *94:8 8.8266e-05
18 *91:29 *1006:A2 4.9253e-06
19 *91:29 *1006:B1 4.01778e-05
20 *91:29 *1006:B2 2.49909e-05
21 *91:29 *92:12 0.000162778
22 *91:29 *269:36 2.23485e-05
23 *1006:A1 *91:29 1.17309e-05
*RES
1 *1005:X *91:4 1.6 
2 *91:4 *1022:B 10.22 
3 *91:4 *91:29 6.77 
4 *91:29 *1008:A1 4.755 
5 *91:29 *1023:B1 5.535 
*END

*D_NET *92 0.00162962
*CONN
*I *1023:A2 I *D sky130_fd_sc_hd__a21o_1
*I *1008:A2 I *D sky130_fd_sc_hd__a21bo_1
*I *1022:C I *D sky130_fd_sc_hd__nand3_1
*I *1006:X O *D sky130_fd_sc_hd__a22o_1
*CAP
1 *1023:A2 4.61784e-05
2 *1008:A2 0
3 *1022:C 0.000172761
4 *1006:X 0.000125626
5 *92:14 0.000175179
6 *92:12 0.000174223
7 *1022:C *1022:A 2.39611e-05
8 *1022:C *1023:A1 5.41685e-05
9 *1022:C *1130:B2 0.00025633
10 *1023:A2 *1023:A1 9.80943e-06
11 *1023:A2 *1130:B2 8.46496e-05
12 *1023:A2 *94:8 4.99619e-05
13 *92:12 *1006:A2 2.66586e-05
14 *92:12 *269:36 0.00011379
15 *92:14 *1130:B2 1.24955e-06
16 *1008:A1 *1022:C 4.42802e-05
17 *1008:A1 *1023:A2 5.31756e-05
18 *1008:A1 *92:14 1.32064e-05
19 *1022:B *1022:C 4.16337e-05
20 *91:29 *92:12 0.000162778
*RES
1 *1006:X *92:12 8.12 
2 *92:12 *92:14 0.1275 
3 *92:14 *1022:C 5.8675 
4 *92:14 *1008:A2 1.6 
5 *92:12 *1023:A2 3.205 
*END

*D_NET *93 0.0016683
*CONN
*I *1023:A1 I *D sky130_fd_sc_hd__a21o_1
*I *1022:A I *D sky130_fd_sc_hd__nand3_1
*I *1008:B1_N I *D sky130_fd_sc_hd__a21bo_1
*I *1007:Y O *D sky130_fd_sc_hd__nand4_1
*CAP
1 *1023:A1 0.00022444
2 *1022:A 2.93118e-05
3 *1008:B1_N 0
4 *1007:Y 0.000156588
5 *93:21 0.000281417
6 *93:10 0.000184254
7 *1022:A *108:14 2.75878e-05
8 *1023:A1 *94:8 8.8266e-05
9 *1023:A1 *108:14 4.82919e-05
10 *93:10 *1006:B1 9.71067e-05
11 *93:10 *1006:B2 1.34361e-05
12 *93:10 *1130:B2 0.000249914
13 *93:10 *113:16 5.94326e-05
14 *93:10 *330:10 2.26364e-05
15 *93:21 *113:16 2.78732e-05
16 *93:21 *330:10 1.56908e-05
17 *1008:A1 *1022:A 0
18 *1008:A1 *1023:A1 5.41181e-05
19 *1022:C *1022:A 2.39611e-05
20 *1022:C *1023:A1 5.41685e-05
21 *1023:A2 *1023:A1 9.80943e-06
*RES
1 *1007:Y *93:10 7.47 
2 *93:10 *1008:B1_N 3.6 
3 *93:10 *93:21 2.615 
4 *93:21 *1022:A 2.545 
5 *93:21 *1023:A1 5.275 
*END

*D_NET *94 0.00193298
*CONN
*I *1012:B1 I *D sky130_fd_sc_hd__a21o_1
*I *1011:B I *D sky130_fd_sc_hd__and3_1
*I *1010:B I *D sky130_fd_sc_hd__nand3_1
*I *1008:X O *D sky130_fd_sc_hd__a21bo_1
*CAP
1 *1012:B1 0
2 *1011:B 0
3 *1010:B 0.000100812
4 *1008:X 0.000165697
5 *94:16 0.000311065
6 *94:8 0.00037595
7 *1010:B *1011:C 2.05056e-05
8 *1010:B *97:14 8.49205e-05
9 *94:8 *1130:B2 8.57907e-05
10 *94:8 *98:6 4.80285e-05
11 *94:8 *109:10 0.000122325
12 *94:16 *1006:A2 2.53185e-05
13 *94:16 *1012:A2 0.000136884
14 *94:16 *167:14 7.55391e-05
15 *1010:A *1010:B 0.000124007
16 *1010:A *94:16 2.96426e-05
17 *1023:A1 *94:8 8.8266e-05
18 *1023:A2 *94:8 4.99619e-05
19 *1023:B1 *94:8 8.8266e-05
*RES
1 *1008:X *94:8 5.86 
2 *94:8 *94:16 7.465 
3 *94:16 *1010:B 4.06 
4 *94:16 *1011:B 1.6 
5 *94:8 *1012:B1 1.6 
*END

*D_NET *95 0.00233868
*CONN
*I *1010:C I *D sky130_fd_sc_hd__nand3_1
*I *1011:C I *D sky130_fd_sc_hd__and3_1
*I *1012:A2 I *D sky130_fd_sc_hd__a21o_1
*I *1009:X O *D sky130_fd_sc_hd__a22o_1
*CAP
1 *1010:C 1.22256e-05
2 *1011:C 4.423e-05
3 *1012:A2 0.000195478
4 *1009:X 0
5 *95:27 0.000332593
6 *95:4 0.000471615
7 *1010:C *1006:A2 3.68999e-05
8 *1010:C *97:14 1.77665e-05
9 *1011:C *1006:A2 0.000182271
10 *1011:C *97:14 1.19928e-05
11 *1012:A2 *1021:B 0.000310417
12 *1012:A2 *98:6 8.23457e-05
13 *1012:A2 *167:14 7.24866e-05
14 *95:27 *1021:A 9.14049e-05
15 *978:A *1012:A2 8.46818e-05
16 *978:A *95:27 7.38779e-05
17 *978:B *95:27 7.5687e-06
18 *1010:A *1011:C 0.000110683
19 *1010:B *1011:C 2.05056e-05
20 *1012:A1 *1012:A2 2.49909e-05
21 *64:6 *95:27 1.77665e-05
22 *94:16 *1012:A2 0.000136884
*RES
1 *1009:X *95:4 1.6 
2 *95:4 *1012:A2 10.865 
3 *95:4 *95:27 7.645 
4 *95:27 *1011:C 3.31 
5 *95:27 *1010:C 2.05 
*END

*D_NET *96 0.00136203
*CONN
*I *1015:A1 I *D sky130_fd_sc_hd__a21boi_2
*I *1031:A1 I *D sky130_fd_sc_hd__a21bo_1
*I *1010:Y O *D sky130_fd_sc_hd__nand3_1
*CAP
1 *1015:A1 7.32796e-05
2 *1031:A1 2.18567e-05
3 *1010:Y 9.92521e-05
4 *96:10 0.000194388
5 *1015:A1 *1019:C_N 4.77757e-05
6 *1015:A1 *1137:B2 0.00021316
7 *1015:A1 *1138:A 0.000125238
8 *1031:A1 *1137:B2 8.49205e-05
9 *1031:A1 *1138:A 4.80285e-05
10 *96:10 *1021:A 0.000289016
11 *96:10 *293:24 0.000165115
*RES
1 *1010:Y *96:10 9.02 
2 *96:10 *1031:A1 2.395 
3 *96:10 *1015:A1 4.585 
*END

*D_NET *97 0.00251462
*CONN
*I *1019:B I *D sky130_fd_sc_hd__or3b_1
*I *1013:B I *D sky130_fd_sc_hd__or3b_2
*I *1011:X O *D sky130_fd_sc_hd__and3_1
*CAP
1 *1019:B 0.000394899
2 *1013:B 8.76576e-05
3 *1011:X 0.000246155
4 *97:14 0.000728712
5 *1013:B *1130:B2 0.00012208
6 *1019:B *1130:B2 0.000341386
7 *1019:B *100:12 8.84382e-05
8 *1019:B *139:39 0
9 *1019:B *270:28 7.06347e-05
10 *1019:B *295:16 0
11 *1019:B *315:38 0.000199725
12 *97:14 *1006:A2 4.21621e-05
13 *97:14 *1021:A 0
14 *97:14 *139:39 1.08758e-05
15 *1010:B *97:14 8.49205e-05
16 *1010:C *97:14 1.77665e-05
17 *1011:C *97:14 1.19928e-05
18 *1014:B *97:14 6.72143e-05
*RES
1 *1011:X *97:14 9.695 
2 *97:14 *1013:B 2.74 
3 *97:14 *1019:B 12.23 
*END

*D_NET *98 0.00105631
*CONN
*I *1013:C_N I *D sky130_fd_sc_hd__or3b_2
*I *1031:A2 I *D sky130_fd_sc_hd__a21bo_1
*I *1012:X O *D sky130_fd_sc_hd__a21o_1
*CAP
1 *1013:C_N 2.25544e-05
2 *1031:A2 6.84076e-05
3 *1012:X 8.99644e-05
4 *98:6 0.000180926
5 *1013:C_N *1130:B2 3.66286e-05
6 *1031:A2 *1021:B 3.75492e-05
7 *1031:A2 *293:24 0.00018262
8 *98:6 *1130:B2 0.000267846
9 *1012:A1 *1031:A2 3.9442e-05
10 *1012:A2 *98:6 8.23457e-05
11 *94:8 *98:6 4.80285e-05
*RES
1 *1012:X *98:6 4.12 
2 *98:6 *1031:A2 7.745 
3 *98:6 *1013:C_N 2.05 
*END

*D_NET *99 0.00285503
*CONN
*I *1032:A I *D sky130_fd_sc_hd__and3_2
*I *1087:A1 I *D sky130_fd_sc_hd__a21oi_1
*I *1019:C_N I *D sky130_fd_sc_hd__or3b_1
*I *1015:A2 I *D sky130_fd_sc_hd__a21boi_2
*I *1013:X O *D sky130_fd_sc_hd__or3b_2
*CAP
1 *1032:A 7.8721e-05
2 *1087:A1 0
3 *1019:C_N 0.000162172
4 *1015:A2 0
5 *1013:X 0.000281662
6 *99:34 0.000350867
7 *99:12 0.000162172
8 *99:10 0.000553808
9 *1019:C_N *1015:B1_N 4.88478e-05
10 *1019:C_N *1019:A 2.49909e-05
11 *1019:C_N *1020:B_N 2.26717e-05
12 *1019:C_N *1133:B1 4.80285e-05
13 *1019:C_N *1137:B2 0.000103453
14 *1019:C_N *1138:A 8.40269e-05
15 *1019:C_N *101:17 0.000381648
16 *1019:C_N *101:19 0
17 *1032:A *1087:A2 4.77757e-05
18 *1032:A *1087:B1 4.89295e-05
19 *1032:A *118:27 9.47267e-06
20 *99:10 *1013:A 2.68464e-05
21 *99:10 *1021:A 0
22 *99:10 *1031:B1_N 1.86541e-05
23 *99:10 *1130:B2 1.85044e-05
24 *99:10 *139:39 3.39463e-05
25 *99:10 *270:30 7.08554e-05
26 *99:34 *1020:B_N 3.4785e-05
27 *99:34 *1021:A 0
28 *99:34 *1087:A2 2.56017e-05
29 *99:34 *1138:A 8.89217e-05
30 *99:34 *118:27 9.76407e-06
31 *99:34 *139:39 7.01303e-05
32 *99:34 *293:24 0
33 *1015:A1 *1019:C_N 4.77757e-05
*RES
1 *1013:X *99:10 7.41 
2 *99:10 *99:12 2 
3 *99:12 *1015:A2 1.6 
4 *99:12 *1019:C_N 6.895 
5 *99:10 *99:34 6.665 
6 *99:34 *1087:A1 1.6 
7 *99:34 *1032:A 3.1 
*END

*D_NET *100 0.000685056
*CONN
*I *1019:A I *D sky130_fd_sc_hd__or3b_1
*I *1015:B1_N I *D sky130_fd_sc_hd__a21boi_2
*I *1014:Y O *D sky130_fd_sc_hd__xnor2_1
*CAP
1 *1019:A 3.70108e-05
2 *1015:B1_N 1.92141e-05
3 *1014:Y 0.000120418
4 *100:12 0.000176643
5 *1015:B1_N *1137:B2 8.49101e-05
6 *1019:A *1137:B2 3.57349e-05
7 *100:12 *139:39 0
8 *100:12 *270:28 4.88478e-05
9 *1019:B *100:12 8.84382e-05
10 *1019:C_N *1015:B1_N 4.88478e-05
11 *1019:C_N *1019:A 2.49909e-05
*RES
1 *1014:Y *100:12 7.52 
2 *100:12 *1015:B1_N 2.395 
3 *100:12 *1019:A 2.41 
*END

*D_NET *101 0.00262585
*CONN
*I *1111:A1 I *D sky130_fd_sc_hd__o211a_1
*I *1018:A I *D sky130_fd_sc_hd__xor2_1
*I *1110:A1 I *D sky130_fd_sc_hd__o21a_1
*I *1020:A I *D sky130_fd_sc_hd__or2b_1
*I *1015:Y O *D sky130_fd_sc_hd__a21boi_2
*CAP
1 *1111:A1 0.000149922
2 *1018:A 0
3 *1110:A1 6.70944e-05
4 *1020:A 3.36836e-05
5 *1015:Y 0
6 *101:19 9.67764e-05
7 *101:17 0.000464462
8 *101:4 0.000318542
9 *1020:A *1020:B_N 7.23602e-05
10 *1020:A *1138:A 1.15688e-05
11 *1020:A *139:39 9.03138e-05
12 *1110:A1 *1110:A2 0.000179987
13 *1110:A1 *103:8 1.70935e-05
14 *1110:A1 *103:19 8.44437e-05
15 *1111:A1 *1094:B1 4.9968e-05
16 *1111:A1 *1095:A 0.000116158
17 *1111:A1 *1110:A2 9.37731e-05
18 *1111:A1 *1111:A2 9.53428e-06
19 *1111:A1 *1133:B1 2.67275e-05
20 *1111:A1 *1138:A 4.66108e-05
21 *1111:A1 *141:24 8.09021e-06
22 *101:17 *1018:B 4.82919e-05
23 *101:17 *1020:B_N 0.000158536
24 *101:17 *1133:B1 8.65348e-05
25 *101:19 *1095:A 1.37328e-05
26 *101:19 *1112:C1 0
27 *1019:C_N *101:17 0.000381648
28 *1019:C_N *101:19 0
*RES
1 *1015:Y *101:4 1.6 
2 *101:4 *1020:A 6.725 
3 *101:4 *101:17 5.97 
4 *101:17 *101:19 0.615 
5 *101:19 *1110:A1 7.745 
6 *101:19 *1018:A 1.6 
7 *101:17 *1111:A1 8.84 
*END

*D_NET *102 0.000550737
*CONN
*I *1017:B I *D sky130_fd_sc_hd__and2_1
*I *1016:X O *D sky130_fd_sc_hd__or3_1
*CAP
1 *1017:B 0.000194618
2 *1016:X 0.000194618
3 *1017:B *295:16 0
4 *993:B1 *1017:B 0.0001615
5 *79:10 *1017:B 0
*RES
1 *1016:X *1017:B 10.065 
*END

*D_NET *103 0.00151197
*CONN
*I *1111:A2 I *D sky130_fd_sc_hd__o211a_1
*I *1018:B I *D sky130_fd_sc_hd__xor2_1
*I *1110:B1 I *D sky130_fd_sc_hd__o21a_1
*I *1017:X O *D sky130_fd_sc_hd__and2_1
*CAP
1 *1111:A2 0.000182833
2 *1018:B 1.17375e-05
3 *1110:B1 3.92205e-05
4 *1017:X 9.91908e-05
5 *103:19 0.000303045
6 *103:8 0.000246886
7 *1018:B *1133:B1 2.75229e-05
8 *1110:B1 *1130:B2 0.00011964
9 *1110:B1 *315:38 0.000196376
10 *1111:A2 *1094:B1 2.24992e-05
11 *1111:A2 *1110:A2 4.19967e-05
12 *1111:A2 *1111:B1 9.50342e-06
13 *1111:A2 *1111:C1 9.50342e-06
14 *1111:A2 *1138:A 3.45679e-05
15 *1111:A2 *295:16 0
16 *103:8 *141:24 0
17 *103:8 *295:16 0
18 *103:19 *1110:A2 8.08153e-06
19 *103:19 *295:16 0
20 *1110:A1 *103:8 1.70935e-05
21 *1110:A1 *103:19 8.44437e-05
22 *1111:A1 *1111:A2 9.53428e-06
23 *101:17 *1018:B 4.82919e-05
*RES
1 *1017:X *103:8 5.235 
2 *103:8 *1110:B1 5.43 
3 *103:8 *103:19 2.145 
4 *103:19 *1018:B 4.05 
5 *103:19 *1111:A2 7.26 
*END

*D_NET *104 0.000822106
*CONN
*I *1095:A I *D sky130_fd_sc_hd__xnor2_2
*I *1018:X O *D sky130_fd_sc_hd__xor2_1
*CAP
1 *1095:A 0.00017386
2 *1018:X 0.00017386
3 *1095:A *1094:B1 1.26626e-05
4 *1095:A *1112:C1 0.000131526
5 *1095:A *1133:B1 3.00381e-05
6 *1095:A *1138:A 0.000115779
7 *1095:A *141:24 5.44892e-05
8 *1111:A1 *1095:A 0.000116158
9 *101:19 *1095:A 1.37328e-05
*RES
1 *1018:X *1095:A 11.73 
*END

*D_NET *105 0.000784028
*CONN
*I *1020:B_N I *D sky130_fd_sc_hd__or2b_1
*I *1019:X O *D sky130_fd_sc_hd__or3b_1
*CAP
1 *1020:B_N 0.000193322
2 *1019:X 0.000193322
3 *1020:B_N *1138:A 7.4027e-05
4 *1020:B_N *139:39 3.50033e-05
5 *1019:C_N *1020:B_N 2.26717e-05
6 *1020:A *1020:B_N 7.23602e-05
7 *99:34 *1020:B_N 3.4785e-05
8 *101:17 *1020:B_N 0.000158536
*RES
1 *1019:X *1020:B_N 10.665 
*END

*D_NET *106 0.000362942
*CONN
*I *1093:A_N I *D sky130_fd_sc_hd__and2b_1
*I *1033:A I *D sky130_fd_sc_hd__xnor2_2
*I *1020:X O *D sky130_fd_sc_hd__or2b_1
*CAP
1 *1093:A_N 0
2 *1033:A 9.54658e-05
3 *1020:X 4.70507e-05
4 *106:8 0.000142516
5 *1033:A *1093:B 4.92121e-05
6 *1033:A *139:39 0
7 *106:8 *315:38 2.86975e-05
*RES
1 *1020:X *106:8 2.41 
2 *106:8 *1033:A 7.235 
3 *106:8 *1093:A_N 1.6 
*END

*D_NET *107 0.00191425
*CONN
*I *1079:B I *D sky130_fd_sc_hd__or3_1
*I *1082:B1 I *D sky130_fd_sc_hd__o21ai_1
*I *1030:A1 I *D sky130_fd_sc_hd__o21bai_1
*I *1021:Y O *D sky130_fd_sc_hd__nand2_1
*CAP
1 *1079:B 0
2 *1082:B1 0
3 *1030:A1 2.73833e-05
4 *1021:Y 0.000281607
5 *107:16 0.000292815
6 *107:12 0.000547039
7 *1030:A1 *1030:A2 4.00541e-06
8 *1030:A1 *114:16 5.37074e-05
9 *107:12 *1021:B 0.000134607
10 *107:12 *1029:B 1.16578e-05
11 *107:12 *1029:C 6.31594e-05
12 *107:12 *115:12 6.10014e-05
13 *107:12 *117:12 0
14 *107:12 *165:16 4.28112e-06
15 *107:12 *167:14 0.000100201
16 *107:12 *293:24 0
17 *107:12 *315:38 7.29419e-05
18 *107:16 *114:16 2.26018e-05
19 *107:16 *116:6 0.000237243
*RES
1 *1021:Y *107:12 11.03 
2 *107:12 *107:16 3.825 
3 *107:16 *1030:A1 2.41 
4 *107:16 *1082:B1 1.6 
5 *107:12 *1079:B 1.6 
*END

*D_NET *108 0.0022844
*CONN
*I *1029:A I *D sky130_fd_sc_hd__and3_1
*I *1028:A1 I *D sky130_fd_sc_hd__a21oi_1
*I *1022:Y O *D sky130_fd_sc_hd__nand3_1
*CAP
1 *1029:A 9.83812e-05
2 *1028:A1 7.54226e-05
3 *1022:Y 0.00024375
4 *108:14 0.000417554
5 *1028:A1 *1029:B 7.09999e-05
6 *1028:A1 *1137:A2 2.15594e-05
7 *1028:A1 *114:12 0.000114492
8 *1028:A1 *167:14 0
9 *1029:A *1029:B 0.000377909
10 *1029:A *1181:A 0.000203178
11 *1029:A *315:38 0.000112722
12 *108:14 *1029:B 0.000170033
13 *108:14 *1139:A1 0.000102411
14 *108:14 *1160:RESET_B 2.65337e-05
15 *108:14 *113:16 9.30787e-05
16 *108:14 *232:66 2.7881e-05
17 *108:14 *315:38 2.05056e-05
18 *108:14 *315:56 3.21052e-05
19 *1022:A *108:14 2.75878e-05
20 *1023:A1 *108:14 4.82919e-05
*RES
1 *1022:Y *108:14 11.3 
2 *108:14 *1028:A1 7.745 
3 *108:14 *1029:A 5.77 
*END

*D_NET *109 0.00191367
*CONN
*I *1029:C I *D sky130_fd_sc_hd__and3_1
*I *1028:A2 I *D sky130_fd_sc_hd__a21oi_1
*I *1023:X O *D sky130_fd_sc_hd__a21o_1
*CAP
1 *1029:C 0.000121109
2 *1028:A2 6.61663e-05
3 *1023:X 0.000158
4 *109:10 0.000345276
5 *1028:A2 *1137:A2 4.99619e-05
6 *1028:A2 *1137:B2 0.000390454
7 *1028:A2 *1138:A 0.00020087
8 *1029:C *1021:B 0
9 *1029:C *1029:B 1.34594e-05
10 *1029:C *167:14 0.000217923
11 *1029:C *315:38 5.28255e-05
12 *109:10 *1021:B 0
13 *109:10 *167:14 0.000112143
14 *94:8 *109:10 0.000122325
15 *107:12 *1029:C 6.31594e-05
*RES
1 *1023:X *109:10 6.12 
2 *109:10 *1028:A2 7.155 
3 *109:10 *1029:C 6.765 
*END

*D_NET *110 0.00182816
*CONN
*I *1027:A1 I *D sky130_fd_sc_hd__a21bo_1
*I *1048:B1 I *D sky130_fd_sc_hd__a21o_1
*I *1046:B I *D sky130_fd_sc_hd__nand3_1
*I *1024:X O *D sky130_fd_sc_hd__and2_1
*CAP
1 *1027:A1 4.36046e-05
2 *1048:B1 0.000129494
3 *1046:B 0.000151967
4 *1024:X 0
5 *110:23 0.000289424
6 *110:4 0.000268292
7 *1027:A1 *1024:B 8.25041e-05
8 *1027:A1 *111:22 0.000112284
9 *1046:B *1024:A 0.000110235
10 *1046:B *132:12 0.000228235
11 *1046:B *294:14 3.24046e-05
12 *1048:B1 *1024:B 7.06347e-05
13 *1048:B1 *111:22 0.000220587
14 *1048:B1 *112:10 5.18317e-06
15 *110:23 *132:12 8.33129e-05
*RES
1 *1024:X *110:4 1.6 
2 *110:4 *1046:B 8.75 
3 *110:4 *110:23 3.485 
4 *110:23 *1048:B1 6.255 
5 *110:23 *1027:A1 4.98 
*END

*D_NET *111 0.00270836
*CONN
*I *1027:A2 I *D sky130_fd_sc_hd__a21bo_1
*I *1048:A2 I *D sky130_fd_sc_hd__a21o_1
*I *1046:C I *D sky130_fd_sc_hd__nand3_1
*I *1025:X O *D sky130_fd_sc_hd__a22o_1
*CAP
1 *1027:A2 4.01593e-05
2 *1048:A2 0
3 *1046:C 0.000295623
4 *1025:X 0.000137639
5 *111:22 0.000602779
6 *111:10 0.000484954
7 *1027:A2 *962:B 3.18448e-05
8 *1027:A2 *1024:B 2.49909e-05
9 *1046:C *1024:A 3.56244e-06
10 *1046:C *1046:A 5.17773e-05
11 *1046:C *112:23 0.000122699
12 *1046:C *132:12 3.04704e-05
13 *1046:C *230:10 2.9289e-05
14 *1046:C *269:21 0.000112907
15 *1046:C *294:14 0
16 *111:10 *287:14 8.48377e-05
17 *111:22 *1080:B 2.60986e-05
18 *111:22 *112:10 6.95473e-06
19 *111:22 *112:23 2.92898e-05
20 *111:22 *133:8 3.09233e-05
21 *111:22 *133:23 2.61615e-05
22 *111:22 *134:19 0.000139245
23 *111:22 *288:81 5.16206e-05
24 *111:22 *316:123 1.16578e-05
25 *1027:A1 *111:22 0.000112284
26 *1048:B1 *111:22 0.000220587
*RES
1 *1025:X *111:10 5.52 
2 *111:10 *111:22 9.095 
3 *111:22 *1046:C 10.655 
4 *111:22 *1048:A2 1.6 
5 *111:10 *1027:A2 4.41 
*END

*D_NET *112 0.00202876
*CONN
*I *1027:B1_N I *D sky130_fd_sc_hd__a21bo_1
*I *1046:A I *D sky130_fd_sc_hd__nand3_1
*I *1048:A1 I *D sky130_fd_sc_hd__a21o_1
*I *1026:Y O *D sky130_fd_sc_hd__nand4_1
*CAP
1 *1027:B1_N 0.000118099
2 *1046:A 9.24044e-05
3 *1048:A1 0
4 *1026:Y 0.000141512
5 *112:23 0.000339053
6 *112:10 0.000270061
7 *1027:B1_N *962:B 2.61093e-05
8 *1027:B1_N *269:21 0.000217444
9 *1027:B1_N *282:21 0.000223152
10 *1027:B1_N *286:84 5.83121e-06
11 *1046:A *1024:B 1.08758e-05
12 *1046:A *132:12 6.21763e-05
13 *112:10 *230:10 0
14 *112:10 *282:21 5.36955e-05
15 *112:10 *316:123 5.68956e-05
16 *112:10 *316:135 2.99518e-06
17 *112:23 *269:21 9.71067e-05
18 *112:23 *282:21 9.54469e-05
19 *1046:C *1046:A 5.17773e-05
20 *1046:C *112:23 0.000122699
21 *1048:B1 *112:10 5.18317e-06
22 *111:22 *112:10 6.95473e-06
23 *111:22 *112:23 2.92898e-05
*RES
1 *1026:Y *112:10 8.51 
2 *112:10 *1048:A1 1.6 
3 *112:10 *112:23 4.97 
4 *112:23 *1046:A 5.46 
5 *112:23 *1027:B1_N 7.05 
*END

*D_NET *113 0.00361127
*CONN
*I *1029:B I *D sky130_fd_sc_hd__and3_1
*I *1028:B1 I *D sky130_fd_sc_hd__a21oi_1
*I *1027:X O *D sky130_fd_sc_hd__a21bo_1
*CAP
1 *1029:B 0.000382277
2 *1028:B1 0
3 *1027:X 0.000499309
4 *113:16 0.000881587
5 *1029:B *1133:B1 2.05571e-05
6 *1029:B *315:38 6.07575e-06
7 *113:16 *962:B 0.000120417
8 *113:16 *975:A 6.2969e-05
9 *113:16 *1006:B2 0.000175338
10 *113:16 *1025:B1 0.000109489
11 *113:16 *1133:B1 7.1301e-06
12 *113:16 *269:36 0.000296138
13 *113:16 *288:103 7.37829e-05
14 *113:16 *316:123 0.000151756
15 *1028:A1 *1029:B 7.09999e-05
16 *1029:A *1029:B 0.000377909
17 *1029:C *1029:B 1.34594e-05
18 *93:10 *113:16 5.94326e-05
19 *93:21 *113:16 2.78732e-05
20 *107:12 *1029:B 1.16578e-05
21 *108:14 *1029:B 0.000170033
22 *108:14 *113:16 9.30787e-05
*RES
1 *1027:X *113:16 15.03 
2 *113:16 *1028:B1 3.6 
3 *113:16 *1029:B 11.145 
*END

*D_NET *114 0.00168177
*CONN
*I *1082:A2 I *D sky130_fd_sc_hd__o21ai_1
*I *1079:C I *D sky130_fd_sc_hd__or3_1
*I *1030:A2 I *D sky130_fd_sc_hd__o21bai_1
*I *1028:Y O *D sky130_fd_sc_hd__a21oi_1
*CAP
1 *1082:A2 0
2 *1079:C 3.2988e-05
3 *1030:A2 1.17282e-05
4 *1028:Y 0.000253072
5 *114:16 0.000109866
6 *114:12 0.000318222
7 *1079:C *1030:B1_N 2.75145e-05
8 *1079:C *1082:A1 0.000170108
9 *1079:C *116:6 4.85494e-05
10 *114:12 *1137:A2 7.23602e-05
11 *114:12 *1138:A 0.000122337
12 *114:12 *1139:A1 0
13 *114:12 *1181:A 2.78732e-05
14 *114:12 *1212:A 5.57814e-05
15 *114:12 *167:14 0
16 *114:16 *1082:A1 0.000231634
17 *114:16 *116:6 4.9253e-06
18 *1028:A1 *114:12 0.000114492
19 *1030:A1 *1030:A2 4.00541e-06
20 *1030:A1 *114:16 5.37074e-05
21 *107:16 *114:16 2.26018e-05
*RES
1 *1028:Y *114:12 10.16 
2 *114:12 *114:16 2.19 
3 *114:16 *1030:A2 1.96 
4 *114:16 *1079:C 3.445 
5 *114:12 *1082:A2 1.6 
*END

*D_NET *115 0.00171532
*CONN
*I *1079:A I *D sky130_fd_sc_hd__or3_1
*I *1030:B1_N I *D sky130_fd_sc_hd__o21bai_1
*I *1082:A1 I *D sky130_fd_sc_hd__o21ai_1
*I *1029:X O *D sky130_fd_sc_hd__and3_1
*CAP
1 *1079:A 0
2 *1030:B1_N 4.08304e-05
3 *1082:A1 0.000372997
4 *1029:X 9.61693e-05
5 *115:12 0.000509997
6 *1030:B1_N *1087:B1 0
7 *1030:B1_N *116:6 0.000122331
8 *1082:A1 *1087:B1 0
9 *115:12 *116:6 4.21973e-05
10 *115:12 *117:12 4.05358e-05
11 *115:12 *293:24 0
12 *1079:C *1030:B1_N 2.75145e-05
13 *1079:C *1082:A1 0.000170108
14 *107:12 *115:12 6.10014e-05
15 *114:16 *1082:A1 0.000231634
*RES
1 *1029:X *115:12 7.775 
2 *115:12 *1082:A1 7.075 
3 *115:12 *1030:B1_N 3.1 
4 *115:12 *1079:A 1.6 
*END

*D_NET *116 0.00178783
*CONN
*I *1032:B I *D sky130_fd_sc_hd__and3_2
*I *1087:B1 I *D sky130_fd_sc_hd__a21oi_1
*I *1030:Y O *D sky130_fd_sc_hd__o21bai_1
*CAP
1 *1032:B 9.82318e-05
2 *1087:B1 0.000108507
3 *1030:Y 0.000156077
4 *116:6 0.000362816
5 *1032:B *118:8 8.40213e-05
6 *1032:B *118:27 5.37074e-05
7 *1087:B1 *1087:A2 3.00381e-05
8 *1087:B1 *117:12 0.000131311
9 *1087:B1 *118:8 0.000112198
10 *1087:B1 *118:27 0.000136398
11 *116:6 *117:12 1.03423e-05
12 *1030:B1_N *1087:B1 0
13 *1030:B1_N *116:6 0.000122331
14 *1032:A *1087:B1 4.89295e-05
15 *1079:C *116:6 4.85494e-05
16 *1082:A1 *1087:B1 0
17 *107:16 *116:6 0.000237243
18 *114:16 *116:6 4.9253e-06
19 *115:12 *116:6 4.21973e-05
*RES
1 *1030:Y *116:6 5.5 
2 *116:6 *1087:B1 5.455 
3 *116:6 *1032:B 3.445 
*END

*D_NET *117 0.00144968
*CONN
*I *1087:A2 I *D sky130_fd_sc_hd__a21oi_1
*I *1032:C I *D sky130_fd_sc_hd__and3_2
*I *1031:X O *D sky130_fd_sc_hd__a21bo_1
*CAP
1 *1087:A2 0.000198155
2 *1032:C 0
3 *1031:X 0.000243197
4 *117:12 0.000441352
5 *1087:A2 *118:27 4.8854e-05
6 *117:12 *1021:B 0.000139238
7 *117:12 *293:24 9.32739e-05
8 *1032:A *1087:A2 4.77757e-05
9 *1087:B1 *1087:A2 3.00381e-05
10 *1087:B1 *117:12 0.000131311
11 *99:34 *1087:A2 2.56017e-05
12 *107:12 *117:12 0
13 *115:12 *117:12 4.05358e-05
14 *116:6 *117:12 1.03423e-05
*RES
1 *1031:X *117:12 10.34 
2 *117:12 *1032:C 1.6 
3 *117:12 *1087:A2 8.6 
*END

*D_NET *118 0.00225178
*CONN
*I *1033:B I *D sky130_fd_sc_hd__xnor2_2
*I *1093:B I *D sky130_fd_sc_hd__and2b_1
*I *1088:A I *D sky130_fd_sc_hd__nor2_2
*I *1032:X O *D sky130_fd_sc_hd__and3_2
*CAP
1 *1033:B 0
2 *1093:B 7.935e-05
3 *1088:A 8.38536e-05
4 *1032:X 3.04756e-05
5 *118:27 0.000557129
6 *118:8 0.000592108
7 *1088:A *1088:B 2.59285e-05
8 *1088:A *139:39 0
9 *1088:A *293:24 0.000179974
10 *1093:B *295:16 0.000121152
11 *1093:B *315:38 2.92496e-05
12 *118:27 *1088:B 4.89295e-05
13 *118:27 *1111:C1 0
14 *1032:A *118:27 9.47267e-06
15 *1032:B *118:8 8.40213e-05
16 *1032:B *118:27 5.37074e-05
17 *1033:A *1093:B 4.92121e-05
18 *1087:A2 *118:27 4.8854e-05
19 *1087:B1 *118:8 0.000112198
20 *1087:B1 *118:27 0.000136398
21 *99:34 *118:27 9.76407e-06
*RES
1 *1032:X *118:8 2.755 
2 *118:8 *1088:A 7.745 
3 *118:8 *118:27 7.74 
4 *118:27 *1093:B 8 
5 *118:27 *1033:B 1.6 
*END

*D_NET *119 0.00198701
*CONN
*I *1098:A I *D sky130_fd_sc_hd__xnor2_1
*I *1094:A1 I *D sky130_fd_sc_hd__a21oi_1
*I *1111:B1 I *D sky130_fd_sc_hd__o211a_1
*I *1033:Y O *D sky130_fd_sc_hd__xnor2_2
*CAP
1 *1098:A 0.00032672
2 *1094:A1 0
3 *1111:B1 5.2801e-05
4 *1033:Y 9.75115e-05
5 *119:21 0.0004274
6 *119:6 0.000250992
7 *1098:A *1092:A1 0.000170679
8 *1098:A *1095:B 5.92908e-05
9 *1098:A *1096:A 5.88606e-05
10 *1098:A *1098:B 4.77807e-05
11 *1098:A *1111:C1 4.99619e-05
12 *1098:A *141:24 0.000181133
13 *1098:A *164:23 0
14 *1111:B1 *1094:B1 6.28765e-05
15 *1111:B1 *1111:C1 5.99925e-05
16 *119:6 *1111:C1 4.80285e-05
17 *119:21 *1094:B1 4.82863e-05
18 *119:21 *1111:C1 3.51968e-05
19 *1111:A2 *1111:B1 9.50342e-06
*RES
1 *1033:Y *119:6 2.74 
2 *119:6 *1111:B1 6.98 
3 *119:6 *119:21 1.5 
4 *119:21 *1094:A1 1.6 
5 *119:21 *1098:A 12.635 
*END

*D_NET *120 0.00109358
*CONN
*I *1047:A1 I *D sky130_fd_sc_hd__a21bo_1
*I *1037:A I *D sky130_fd_sc_hd__nand3_1
*I *1038:A1 I *D sky130_fd_sc_hd__a21o_1
*I *1034:X O *D sky130_fd_sc_hd__a22o_1
*CAP
1 *1047:A1 0
2 *1037:A 0
3 *1038:A1 5.7912e-05
4 *1034:X 4.70229e-05
5 *120:12 9.20509e-05
6 *120:10 8.11617e-05
7 *1038:A1 *1037:B 0.000201952
8 *1038:A1 *133:8 0.000138757
9 *1038:A1 *288:32 2.29568e-05
10 *120:10 *1034:A2 3.97492e-05
11 *120:10 *288:32 0.000112589
12 *120:12 *959:A 8.34281e-06
13 *120:12 *1047:A2 3.63576e-05
14 *120:12 *122:15 8.53011e-05
15 *120:12 *123:10 0.000158552
16 *120:12 *124:14 1.08758e-05
*RES
1 *1034:X *120:10 6.98 
2 *120:10 *120:12 1.485 
3 *120:12 *1038:A1 8 
4 *120:12 *1037:A 1.6 
5 *120:10 *1047:A1 1.6 
*END

*D_NET *121 0.00334452
*CONN
*I *1038:A2 I *D sky130_fd_sc_hd__a21o_1
*I *1037:B I *D sky130_fd_sc_hd__nand3_1
*I *1047:B1_N I *D sky130_fd_sc_hd__a21bo_1
*I *1035:Y O *D sky130_fd_sc_hd__nand4_1
*CAP
1 *1038:A2 0
2 *1037:B 7.82314e-05
3 *1047:B1_N 9.36289e-05
4 *1035:Y 0.000123779
5 *121:27 0.000483909
6 *121:8 0.000623086
7 *1037:B *316:135 7.03823e-05
8 *1047:B1_N *123:10 0.000118081
9 *121:8 *234:39 0.00040586
10 *121:8 *272:18 0.000315301
11 *121:8 *272:24 9.18556e-05
12 *121:27 *956:A 0
13 *121:27 *979:C 0
14 *121:27 *979:D 4.82919e-05
15 *121:27 *980:B1 1.19928e-05
16 *121:27 *980:B2 8.65961e-05
17 *121:27 *234:37 5.08127e-05
18 *121:27 *234:39 0.000187497
19 *121:27 *272:18 0.000236506
20 *121:27 *316:135 4.94474e-05
21 *979:B *121:27 6.73157e-05
22 *1038:A1 *1037:B 0.000201952
*RES
1 *1035:Y *121:8 8.55 
2 *121:8 *1047:B1_N 4.74 
3 *121:8 *121:27 9.875 
4 *121:27 *1037:B 8 
5 *121:27 *1038:A2 1.6 
*END

*D_NET *122 0.000999666
*CONN
*I *1047:A2 I *D sky130_fd_sc_hd__a21bo_1
*I *1038:B1 I *D sky130_fd_sc_hd__a21o_1
*I *1037:C I *D sky130_fd_sc_hd__nand3_1
*I *1036:X O *D sky130_fd_sc_hd__and2_1
*CAP
1 *1047:A2 1.93406e-05
2 *1038:B1 6.35648e-05
3 *1037:C 1.73252e-05
4 *1036:X 4.107e-05
5 *122:15 0.000180836
6 *122:6 0.000156326
7 *1037:C *926:A 9.13949e-06
8 *1038:B1 *124:14 1.77945e-05
9 *1038:B1 *133:8 0.000138757
10 *1038:B1 *288:32 9.12494e-06
11 *1038:B1 *288:55 0.000129632
12 *1047:A2 *959:A 5.83121e-06
13 *122:6 *926:A 1.43396e-05
14 *122:6 *1036:B 4.77719e-05
15 *122:15 *926:A 2.71527e-05
16 *120:12 *1047:A2 3.63576e-05
17 *120:12 *122:15 8.53011e-05
*RES
1 *1036:X *122:6 2.395 
2 *122:6 *1037:C 1.96 
3 *122:6 *122:15 1.83 
4 *122:15 *1038:B1 7.85 
5 *122:15 *1047:A2 2.05 
*END

*D_NET *123 0.0020704
*CONN
*I *1043:A1 I *D sky130_fd_sc_hd__a211o_1
*I *1044:B1 I *D sky130_fd_sc_hd__o211a_1
*I *1037:Y O *D sky130_fd_sc_hd__nand3_1
*CAP
1 *1043:A1 0
2 *1044:B1 0.00033859
3 *1037:Y 0.00031597
4 *123:10 0.00065456
5 *1044:B1 *959:A 2.88357e-05
6 *1044:B1 *1044:A2 5.41296e-05
7 *1044:B1 *1044:C1 3.21329e-05
8 *1044:B1 *233:44 2.42533e-05
9 *1044:B1 *233:106 3.24803e-05
10 *1044:B1 *271:12 3.99745e-05
11 *123:10 *926:A 0
12 *123:10 *1043:A2 9.12671e-06
13 *123:10 *1043:B1 3.12916e-05
14 *123:10 *1044:C1 2.10905e-05
15 *123:10 *124:14 0.000200461
16 *123:10 *125:14 1.08758e-05
17 *1047:B1_N *123:10 0.000118081
18 *120:12 *123:10 0.000158552
*RES
1 *1037:Y *123:10 7.6 
2 *123:10 *1044:B1 8.45933 
3 *123:10 *1043:A1 1.6 
*END

*D_NET *124 0.00147926
*CONN
*I *1044:C1 I *D sky130_fd_sc_hd__o211a_1
*I *1043:A2 I *D sky130_fd_sc_hd__a211o_1
*I *1038:X O *D sky130_fd_sc_hd__a21o_1
*CAP
1 *1044:C1 6.29068e-05
2 *1043:A2 1.44412e-05
3 *1038:X 0.000175088
4 *124:14 0.000252436
5 *1043:A2 *1043:B1 3.70718e-07
6 *1044:C1 *959:A 0.000196745
7 *1044:C1 *1043:B1 5.44308e-05
8 *1044:C1 *1044:A1 2.7334e-05
9 *1044:C1 *125:14 9.56017e-06
10 *124:14 *959:A 0.000261811
11 *124:14 *1034:A2 3.24721e-05
12 *124:14 *288:32 2.98587e-05
13 *124:14 *288:55 7.03276e-05
14 *1038:B1 *124:14 1.77945e-05
15 *1044:B1 *1044:C1 3.21329e-05
16 *120:12 *124:14 1.08758e-05
17 *123:10 *1043:A2 9.12671e-06
18 *123:10 *1044:C1 2.10905e-05
19 *123:10 *124:14 0.000200461
*RES
1 *1038:X *124:14 10.64 
2 *124:14 *1043:A2 1.96 
3 *124:14 *1044:C1 4.045 
*END

*D_NET *125 0.00167873
*CONN
*I *1044:A1 I *D sky130_fd_sc_hd__o211a_1
*I *1043:B1 I *D sky130_fd_sc_hd__a211o_1
*I *1039:X O *D sky130_fd_sc_hd__and4_1
*CAP
1 *1044:A1 0.000214044
2 *1043:B1 3.17965e-05
3 *1039:X 0.000221038
4 *125:14 0.000466878
5 *1044:A1 *959:A 6.61835e-06
6 *1044:A1 *1044:A2 0.000117751
7 *1044:A1 *129:10 4.40693e-06
8 *125:14 *980:A2 0.000175846
9 *125:14 *1039:D 3.112e-05
10 *125:14 *233:44 2.12175e-05
11 *125:14 *237:59 8.73389e-06
12 *125:14 *271:12 0.000112595
13 *125:14 *271:14 0.000132821
14 *1043:A2 *1043:B1 3.70718e-07
15 *1044:C1 *1043:B1 5.44308e-05
16 *1044:C1 *1044:A1 2.7334e-05
17 *1044:C1 *125:14 9.56017e-06
18 *123:10 *1043:B1 3.12916e-05
19 *123:10 *125:14 1.08758e-05
*RES
1 *1039:X *125:14 10.1 
2 *125:14 *1043:B1 2.785 
3 *125:14 *1044:A1 4.735 
*END

*D_NET *126 0.00232204
*CONN
*I *1042:C I *D sky130_fd_sc_hd__and4_1
*I *1058:B1 I *D sky130_fd_sc_hd__a22o_1
*I *1056:C I *D sky130_fd_sc_hd__nand4_1
*I *1040:Y O *D sky130_fd_sc_hd__nand4_1
*CAP
1 *1042:C 0
2 *1058:B1 7.49099e-05
3 *1056:C 2.42554e-05
4 *1040:Y 0.000284098
5 *126:16 0.000254904
6 *126:12 0.000439836
7 *1056:C *1056:D 7.03219e-05
8 *1056:C *293:24 7.03219e-05
9 *1058:B1 *236:42 7.48972e-05
10 *126:12 *980:A2 1.74678e-05
11 *126:12 *1040:A 0.000106512
12 *126:12 *128:8 2.69079e-05
13 *126:12 *235:115 5.56212e-05
14 *126:12 *236:48 9.12494e-06
15 *126:12 *237:59 2.39947e-05
16 *126:12 *238:59 5.00903e-05
17 *126:12 *286:18 0.000520121
18 *126:16 *127:8 3.01746e-05
19 *126:16 *127:17 3.02108e-05
20 *126:16 *236:42 0.000155608
21 *1040:B *126:12 2.65814e-06
*RES
1 *1040:Y *126:12 12.68 
2 *126:12 *126:16 2.19 
3 *126:16 *1056:C 6.47 
4 *126:16 *1058:B1 2.755 
5 *126:12 *1042:C 1.6 
*END

*D_NET *127 0.00205228
*CONN
*I *1058:B2 I *D sky130_fd_sc_hd__a22o_1
*I *1056:D I *D sky130_fd_sc_hd__nand4_1
*I *1042:D I *D sky130_fd_sc_hd__and4_1
*I *1041:X O *D sky130_fd_sc_hd__a22o_1
*CAP
1 *1058:B2 8.29323e-06
2 *1056:D 6.90555e-05
3 *1042:D 0
4 *1041:X 0.000378311
5 *127:17 0.000137825
6 *127:8 0.000438787
7 *1056:D *1056:B 4.94598e-05
8 *1056:D *235:115 0.000110785
9 *1056:D *293:24 2.0794e-05
10 *1058:B2 *236:42 3.69049e-05
11 *1058:B2 *238:59 4.77807e-05
12 *127:8 *1039:B 8.41384e-05
13 *127:8 *237:59 0.000204272
14 *127:17 *236:42 0.000119873
15 *127:17 *237:59 2.21649e-05
16 *127:17 *238:59 0.000193129
17 *1056:C *1056:D 7.03219e-05
18 *126:16 *127:8 3.01746e-05
19 *126:16 *127:17 3.02108e-05
*RES
1 *1041:X *127:8 6.205 
2 *127:8 *1042:D 1.6 
3 *127:8 *127:17 2.19 
4 *127:17 *1056:D 7.595 
5 *127:17 *1058:B2 2.05 
*END

*D_NET *128 0.000995889
*CONN
*I *1044:A2 I *D sky130_fd_sc_hd__o211a_1
*I *1043:C1 I *D sky130_fd_sc_hd__a211o_1
*I *1042:X O *D sky130_fd_sc_hd__and4_1
*CAP
1 *1044:A2 6.1199e-05
2 *1043:C1 6.25148e-05
3 *1042:X 0.000130077
4 *128:8 0.000253791
5 *1043:C1 *233:44 1.78882e-05
6 *1044:A2 *129:10 1.19028e-05
7 *128:8 *233:44 0.000250602
8 *128:8 *237:59 9.12494e-06
9 *1044:A1 *1044:A2 0.000117751
10 *1044:B1 *1044:A2 5.41296e-05
11 *126:12 *128:8 2.69079e-05
*RES
1 *1042:X *128:8 6.765 
2 *128:8 *1043:C1 4.41 
3 *128:8 *1044:A2 5.205 
*END

*D_NET *129 0.00206143
*CONN
*I *1045:A3 I *D sky130_fd_sc_hd__a31o_1
*I *1065:B I *D sky130_fd_sc_hd__and2b_1
*I *1043:X O *D sky130_fd_sc_hd__a211o_1
*CAP
1 *1045:A3 0
2 *1065:B 0.000105652
3 *1043:X 0.000587607
4 *129:10 0.000693259
5 *1065:B *235:115 0.000178569
6 *1065:B *293:24 8.34144e-06
7 *129:10 *959:A 0.000339654
8 *129:10 *1045:B1 2.49909e-05
9 *129:10 *1171:A 0
10 *129:10 *130:6 2.49909e-05
11 *129:10 *235:99 5.18694e-05
12 *129:10 *235:115 2.20948e-05
13 *1044:A1 *129:10 4.40693e-06
14 *1044:A2 *129:10 1.19028e-05
15 *1045:A1 *129:10 8.0901e-06
*RES
1 *1043:X *129:10 11.13 
2 *129:10 *1065:B 6 
3 *129:10 *1045:A3 3.6 
*END

*D_NET *130 0.000575415
*CONN
*I *1045:B1 I *D sky130_fd_sc_hd__a31o_1
*I *1065:A_N I *D sky130_fd_sc_hd__and2b_1
*I *1044:X O *D sky130_fd_sc_hd__o211a_1
*CAP
1 *1045:B1 2.37575e-05
2 *1065:A_N 7.42373e-05
3 *1044:X 2.8043e-05
4 *130:6 0.000126038
5 *1065:A_N *293:24 0.000136679
6 *57:33 *1065:A_N 0.000136679
7 *129:10 *1045:B1 2.49909e-05
8 *129:10 *130:6 2.49909e-05
*RES
1 *1044:X *130:6 2.05 
2 *130:6 *1065:A_N 7.85 
3 *130:6 *1045:B1 2.05 
*END

*D_NET *131 0.0023184
*CONN
*I *1054:B1 I *D sky130_fd_sc_hd__a21oi_1
*I *1053:A I *D sky130_fd_sc_hd__and3_2
*I *1045:X O *D sky130_fd_sc_hd__a31o_1
*CAP
1 *1054:B1 0
2 *1053:A 0.000228774
3 *1045:X 0.000556127
4 *131:14 0.000784901
5 *1053:A *1053:C 1.90686e-05
6 *1053:A *1054:A1 2.20014e-05
7 *1053:A *1054:A2 0.000138267
8 *1053:A *138:8 6.83025e-05
9 *1053:A *139:14 9.47267e-06
10 *1053:A *274:10 2.68526e-05
11 *131:14 *961:D 0
12 *131:14 *964:D 0
13 *131:14 *982:B1 1.8535e-05
14 *131:14 *1171:A 0.000168604
15 *131:14 *1172:A 9.08126e-05
16 *131:14 *233:125 0
17 *131:14 *274:10 8.05657e-05
18 *131:14 *293:24 0
19 *1045:A1 *131:14 1.23408e-05
20 *69:12 *131:14 9.37731e-05
*RES
1 *1045:X *131:14 14.78 
2 *131:14 *1053:A 5.74 
3 *131:14 *1054:B1 1.6 
*END

*D_NET *132 0.00190944
*CONN
*I *1080:A I *D sky130_fd_sc_hd__and3_1
*I *1049:A I *D sky130_fd_sc_hd__nand3_1
*I *1050:A1 I *D sky130_fd_sc_hd__a21o_1
*I *1046:Y O *D sky130_fd_sc_hd__nand3_1
*CAP
1 *1080:A 3.57472e-05
2 *1049:A 9.03371e-05
3 *1050:A1 0
4 *1046:Y 0.000218864
5 *132:19 0.000198744
6 *132:12 0.000291524
7 *1049:A *1049:B 1.16578e-05
8 *1049:A *1049:C 1.37328e-05
9 *1049:A *135:10 5.83121e-06
10 *1049:A *288:81 9.54399e-05
11 *1049:A *316:123 9.54399e-05
12 *1080:A *1080:C 4.41506e-05
13 *1080:A *136:6 4.66108e-05
14 *132:12 *1024:A 2.10152e-05
15 *132:12 *1024:B 0.000194891
16 *132:12 *1050:A2 5.63263e-05
17 *132:19 *1050:A2 5.83121e-06
18 *132:19 *1050:B1 4.66108e-05
19 *132:19 *1080:C 3.24882e-05
20 *1046:A *132:12 6.21763e-05
21 *1046:B *132:12 0.000228235
22 *1046:C *132:12 3.04704e-05
23 *110:23 *132:12 8.33129e-05
*RES
1 *1046:Y *132:12 7.27 
2 *132:12 *1050:A1 1.6 
3 *132:12 *132:19 1.14 
4 *132:19 *1049:A 7.895 
5 *132:19 *1080:A 2.395 
*END

*D_NET *133 0.00258618
*CONN
*I *1080:B I *D sky130_fd_sc_hd__and3_1
*I *1050:B1 I *D sky130_fd_sc_hd__a21o_1
*I *1049:B I *D sky130_fd_sc_hd__nand3_1
*I *1047:X O *D sky130_fd_sc_hd__a21bo_1
*CAP
1 *1080:B 0.00020215
2 *1050:B1 1.36534e-05
3 *1049:B 4.88354e-05
4 *1047:X 0.000188649
5 *133:23 0.00030613
6 *133:8 0.000327811
7 *1049:B *1049:C 4.82919e-05
8 *1049:B *316:123 6.71882e-05
9 *1050:B1 *1080:C 4.66108e-05
10 *1080:B *1080:C 0.000118372
11 *1080:B *134:19 2.14129e-05
12 *1080:B *288:81 7.30547e-05
13 *133:8 *288:66 9.23473e-05
14 *133:8 *288:81 9.1566e-05
15 *133:8 *316:123 0.000177619
16 *133:8 *316:135 7.23602e-05
17 *133:23 *134:19 0.000117832
18 *133:23 *288:81 0.000153327
19 *1038:A1 *133:8 0.000138757
20 *1038:B1 *133:8 0.000138757
21 *1049:A *1049:B 1.16578e-05
22 *111:22 *1080:B 2.60986e-05
23 *111:22 *133:8 3.09233e-05
24 *111:22 *133:23 2.61615e-05
25 *132:19 *1050:B1 4.66108e-05
*RES
1 *1047:X *133:8 9.315 
2 *133:8 *1049:B 4.74 
3 *133:8 *133:23 2.445 
4 *133:23 *1050:B1 4.05 
5 *133:23 *1080:B 6.645 
*END

*D_NET *134 0.0012245
*CONN
*I *1080:C I *D sky130_fd_sc_hd__and3_1
*I *1050:A2 I *D sky130_fd_sc_hd__a21o_1
*I *1049:C I *D sky130_fd_sc_hd__nand3_1
*I *1048:X O *D sky130_fd_sc_hd__a21o_1
*CAP
1 *1080:C 0.000130029
2 *1050:A2 4.48392e-05
3 *1049:C 4.04704e-05
4 *1048:X 0
5 *134:19 0.000217475
6 *134:4 8.30775e-05
7 *1080:C *1081:B1 0
8 *1080:C *136:6 6.43106e-05
9 *1049:A *1049:C 1.37328e-05
10 *1049:B *1049:C 4.82919e-05
11 *1050:B1 *1080:C 4.66108e-05
12 *1080:A *1080:C 4.41506e-05
13 *1080:B *1080:C 0.000118372
14 *1080:B *134:19 2.14129e-05
15 *111:22 *134:19 0.000139245
16 *132:12 *1050:A2 5.63263e-05
17 *132:19 *1050:A2 5.83121e-06
18 *132:19 *1080:C 3.24882e-05
19 *133:23 *134:19 0.000117832
*RES
1 *1048:X *134:4 1.6 
2 *134:4 *1049:C 2.41 
3 *134:4 *134:19 5.635 
4 *134:19 *1050:A2 2.41 
5 *134:19 *1080:C 4.9 
*END

*D_NET *135 0.00142183
*CONN
*I *1052:B1 I *D sky130_fd_sc_hd__a22o_1
*I *1051:C I *D sky130_fd_sc_hd__nand4_1
*I *1049:Y O *D sky130_fd_sc_hd__nand3_1
*CAP
1 *1052:B1 0.000170701
2 *1051:C 0
3 *1049:Y 0.000232569
4 *135:10 0.00040327
5 *1052:B1 *1052:A2 4.60584e-05
6 *1052:B1 *1052:B2 8.40269e-05
7 *1052:B1 *233:69 0.00013994
8 *1052:B1 *234:25 9.47454e-05
9 *1052:B1 *234:35 7.45087e-05
10 *135:10 *1051:D 9.53428e-06
11 *135:10 *234:35 0.000160641
12 *135:10 *316:123 0
13 *1049:A *135:10 5.83121e-06
*RES
1 *1049:Y *135:10 5.53 
2 *135:10 *1051:C 1.6 
3 *135:10 *1052:B1 9.515 
*END

*D_NET *136 0.0013667
*CONN
*I *1052:B2 I *D sky130_fd_sc_hd__a22o_1
*I *1081:A3 I *D sky130_fd_sc_hd__a31o_1
*I *1051:D I *D sky130_fd_sc_hd__nand4_1
*I *1050:X O *D sky130_fd_sc_hd__a21o_1
*CAP
1 *1052:B2 3.38282e-05
2 *1081:A3 0
3 *1051:D 6.54759e-05
4 *1050:X 0.000244284
5 *136:23 0.000131064
6 *136:6 0.000406995
7 *1051:D *234:25 3.31204e-05
8 *1051:D *234:35 5.53249e-06
9 *1051:D *272:18 7.23533e-05
10 *1052:B2 *1052:A2 7.40446e-05
11 *1052:B2 *1081:A2 4.82919e-05
12 *136:6 *1081:B1 2.77183e-05
13 *136:23 *1052:A2 0
14 *136:23 *1081:A2 1.47256e-05
15 *1052:B1 *1052:B2 8.40269e-05
16 *1080:A *136:6 4.66108e-05
17 *1080:C *136:6 6.43106e-05
18 *1081:A1 *136:6 9.60582e-07
19 *1081:A1 *136:23 3.82323e-06
20 *135:10 *1051:D 9.53428e-06
*RES
1 *1050:X *136:6 4.465 
2 *136:6 *1051:D 7.085 
3 *136:6 *136:23 1.41 
4 *136:23 *1081:A3 1.6 
5 *136:23 *1052:B2 2.74 
*END

*D_NET *137 0.00182341
*CONN
*I *1053:B I *D sky130_fd_sc_hd__and3_2
*I *1054:A1 I *D sky130_fd_sc_hd__a21oi_1
*I *1051:Y O *D sky130_fd_sc_hd__nand4_1
*CAP
1 *1053:B 0
2 *1054:A1 9.77931e-05
3 *1051:Y 0.000352702
4 *137:14 0.000450495
5 *1054:A1 *1053:C 0
6 *1054:A1 *1054:A2 0.000161003
7 *1054:A1 *138:8 2.53906e-05
8 *1054:A1 *139:14 0.000124471
9 *137:14 *974:A 0.000105841
10 *137:14 *138:8 2.54522e-05
11 *1051:A *137:14 4.21973e-05
12 *1053:A *1054:A1 2.20014e-05
13 *57:33 *137:14 0.000181376
14 *65:18 *137:14 0.000234685
*RES
1 *1051:Y *137:14 11.405 
2 *137:14 *1054:A1 4.405 
3 *137:14 *1053:B 1.6 
*END

*D_NET *138 0.000685246
*CONN
*I *1054:A2 I *D sky130_fd_sc_hd__a21oi_1
*I *1053:C I *D sky130_fd_sc_hd__and3_2
*I *1052:X O *D sky130_fd_sc_hd__a22o_1
*CAP
1 *1054:A2 2.70008e-05
2 *1053:C 1.32939e-05
3 *1052:X 7.43027e-05
4 *138:8 0.000114597
5 *138:8 *1052:A2 1.85674e-05
6 *1053:A *1053:C 1.90686e-05
7 *1053:A *1054:A2 0.000138267
8 *1053:A *138:8 6.83025e-05
9 *1054:A1 *1053:C 0
10 *1054:A1 *1054:A2 0.000161003
11 *1054:A1 *138:8 2.53906e-05
12 *137:14 *138:8 2.54522e-05
*RES
1 *1052:X *138:8 3.355 
2 *138:8 *1053:C 1.96 
3 *138:8 *1054:A2 3.085 
*END

*D_NET *139 0.00561992
*CONN
*I *1086:A I *D sky130_fd_sc_hd__xor2_2
*I *1119:A I *D sky130_fd_sc_hd__nand2_1
*I *1090:A1 I *D sky130_fd_sc_hd__a21o_1
*I *1055:A I *D sky130_fd_sc_hd__nor2_1
*I *1053:X O *D sky130_fd_sc_hd__and3_2
*CAP
1 *1086:A 0
2 *1119:A 0.00012801
3 *1090:A1 0
4 *1055:A 0
5 *1053:X 0.000229788
6 *139:56 0.000391811
7 *139:39 0.00138243
8 *139:14 0.00134842
9 *1119:A *1085:A 0
10 *1119:A *1118:B 2.97004e-06
11 *1119:A *171:12 5.53774e-05
12 *1119:A *171:16 4.4073e-05
13 *139:14 *987:A 2.34005e-05
14 *139:14 *1055:B 0.000114919
15 *139:14 *274:10 0.000123319
16 *139:14 *293:24 0
17 *139:39 *987:A 0.000130664
18 *139:39 *1006:A2 3.03775e-05
19 *139:39 *1021:A 0
20 *139:39 *270:28 0
21 *139:56 *1085:B_N 0.000173199
22 *139:56 *1097:A 4.66108e-05
23 *139:56 *169:29 0.000199088
24 *139:56 *183:12 0.000105953
25 *987:C *139:39 0.000213117
26 *1014:B *139:39 0.000285239
27 *1019:B *139:39 0
28 *1020:A *139:39 9.03138e-05
29 *1020:B_N *139:39 3.50033e-05
30 *1033:A *139:39 0
31 *1053:A *139:14 9.47267e-06
32 *1054:A1 *139:14 0.000124471
33 *1088:A *139:39 0
34 *69:12 *139:14 0.000138791
35 *69:12 *139:39 7.81462e-05
36 *97:14 *139:39 1.08758e-05
37 *99:10 *139:39 3.39463e-05
38 *99:34 *139:39 7.01303e-05
39 *100:12 *139:39 0
*RES
1 *1053:X *139:14 8.565 
2 *139:14 *1055:A 3.6 
3 *139:14 *139:39 24.745 
4 *139:39 *1090:A1 3.6 
5 *139:39 *139:56 7.985 
6 *139:56 *1119:A 8.045 
7 *139:56 *1086:A 1.6 
*END

*D_NET *140 0.000564379
*CONN
*I *1055:B I *D sky130_fd_sc_hd__nor2_1
*I *1054:Y O *D sky130_fd_sc_hd__a21oi_1
*CAP
1 *1055:B 0.000195568
2 *1054:Y 0.000195568
3 *1055:B *962:B 1.07285e-05
4 *1055:B *987:A 4.75959e-05
5 *1055:B *293:24 0
6 *139:14 *1055:B 0.000114919
*RES
1 *1054:Y *1055:B 10.185 
*END

*D_NET *141 0.00572524
*CONN
*I *1105:A I *D sky130_fd_sc_hd__xor2_1
*I *1092:A1 I *D sky130_fd_sc_hd__a41o_1
*I *1116:A I *D sky130_fd_sc_hd__and2_1
*I *1055:Y O *D sky130_fd_sc_hd__nor2_1
*CAP
1 *1105:A 9.41726e-05
2 *1092:A1 0.000103853
3 *1116:A 2.89741e-05
4 *1055:Y 0.000884593
5 *141:24 0.000628111
6 *141:16 0.00147405
7 *1092:A1 *1092:A2 5.83121e-06
8 *1092:A1 *1092:B1 4.89395e-05
9 *1092:A1 *178:12 0.000150616
10 *1092:A1 *202:8 6.54361e-06
11 *1092:A1 *202:21 1.10435e-05
12 *1105:A *1006:A2 4.7101e-05
13 *1116:A *164:23 2.49909e-05
14 *141:16 *962:B 0.000155608
15 *141:16 *987:A 0.000104949
16 *141:16 *1006:A2 0.000150736
17 *141:16 *270:28 0
18 *141:16 *295:16 0.000446332
19 *141:24 *1094:B1 5.00526e-05
20 *141:24 *1095:B 6.95422e-05
21 *141:24 *1110:A2 0
22 *141:24 *1112:B1 0.000113797
23 *141:24 *1112:C1 7.4027e-05
24 *141:24 *164:23 0
25 *141:24 *178:12 0.000180893
26 *1017:A *1105:A 3.66286e-05
27 *1017:A *141:16 0.00012657
28 *1095:A *141:24 5.44892e-05
29 *1098:A *1092:A1 0.000170679
30 *1098:A *141:24 0.000181133
31 *1111:A1 *141:24 8.09021e-06
32 *73:14 *141:16 0.000109843
33 *79:25 *141:24 0.00018305
34 *103:8 *141:24 0
*RES
1 *1055:Y *141:16 20.6 
2 *141:16 *141:24 12.605 
3 *141:24 *1116:A 4.05 
4 *141:24 *1092:A1 6.54 
5 *141:16 *1105:A 3.445 
*END

*D_NET *142 0.00217764
*CONN
*I *1059:A I *D sky130_fd_sc_hd__and3_1
*I *1061:A1 I *D sky130_fd_sc_hd__a21oi_1
*I *1056:Y O *D sky130_fd_sc_hd__nand4_1
*CAP
1 *1059:A 3.31135e-05
2 *1061:A1 0.00023593
3 *1056:Y 0.000152845
4 *142:8 0.000421888
5 *1059:A *1059:C 0.000150326
6 *1059:A *144:12 4.82919e-05
7 *1061:A1 *1059:B 0
8 *1061:A1 *1061:A2 0.000385815
9 *1061:A1 *1066:B 1.14192e-05
10 *1061:A1 *1171:A 0.000314708
11 *142:8 *1056:B 3.58381e-05
12 *142:8 *144:12 0.000119242
13 *142:8 *272:24 1.27575e-05
14 *57:8 *142:8 7.6376e-05
15 *57:68 *1059:A 0.000111392
16 *57:68 *142:8 6.76978e-05
*RES
1 *1056:Y *142:8 4.99 
2 *142:8 *1061:A1 11.375 
3 *142:8 *1059:A 3.43 
*END

*D_NET *143 0.00180748
*CONN
*I *1070:A_N I *D sky130_fd_sc_hd__and4b_1
*I *1061:B1 I *D sky130_fd_sc_hd__a21oi_1
*I *1059:B I *D sky130_fd_sc_hd__and3_1
*I *1057:X O *D sky130_fd_sc_hd__and4_1
*CAP
1 *1070:A_N 0.000352295
2 *1061:B1 7.84892e-05
3 *1059:B 0.000216896
4 *1057:X 0
5 *143:6 0.000295385
6 *143:4 0.000352295
7 *1059:B *1061:A2 0
8 *1059:B *1171:A 0
9 *1059:B *272:45 0.000190236
10 *1059:B *272:60 3.30399e-05
11 *1059:B *332:35 7.98007e-06
12 *1061:B1 *272:60 7.14511e-05
13 *1070:A_N *1070:B 3.97604e-06
14 *1070:A_N *236:36 1.77945e-05
15 *1070:A_N *237:72 0.000151665
16 *1070:A_N *237:85 3.59784e-05
17 *1061:A1 *1059:B 0
*RES
1 *1057:X *143:4 1.6 
2 *143:4 *143:6 2 
3 *143:6 *1059:B 7.575 
4 *143:6 *1061:B1 5.235 
5 *143:4 *1070:A_N 6.115 
*END

*D_NET *144 0.00187692
*CONN
*I *1059:C I *D sky130_fd_sc_hd__and3_1
*I *1061:A2 I *D sky130_fd_sc_hd__a21oi_1
*I *1058:X O *D sky130_fd_sc_hd__a22o_1
*CAP
1 *1059:C 0.000165933
2 *1061:A2 0.000206148
3 *1058:X 0.000151866
4 *144:12 0.000523946
5 *144:12 *971:A 2.47705e-05
6 *144:12 *1057:A 7.01359e-05
7 *1059:A *1059:C 0.000150326
8 *1059:A *144:12 4.82919e-05
9 *1059:B *1061:A2 0
10 *1061:A1 *1061:A2 0.000385815
11 *57:68 *1059:C 3.04436e-05
12 *142:8 *144:12 0.000119242
*RES
1 *1058:X *144:12 7.955 
2 *144:12 *1061:A2 10.07 
3 *144:12 *1059:C 3.835 
*END

*D_NET *145 0.00189517
*CONN
*I *1063:A I *D sky130_fd_sc_hd__or2b_1
*I *1062:A I *D sky130_fd_sc_hd__or3_1
*I *1068:A1 I *D sky130_fd_sc_hd__o21ai_1
*I *1059:X O *D sky130_fd_sc_hd__and3_1
*CAP
1 *1063:A 0.000105603
2 *1062:A 0
3 *1068:A1 0.000126952
4 *1059:X 0.00010864
5 *145:21 0.000191714
6 *145:6 0.000321703
7 *1068:A1 *1062:C 0.000301526
8 *1068:A1 *1068:B1 7.77167e-06
9 *1068:A1 *237:85 2.50049e-05
10 *1068:A1 *295:16 0.000387732
11 *145:21 *1062:C 2.75145e-05
12 *57:68 *145:6 0.000124007
13 *57:87 *1063:A 0.000118294
14 *57:87 *145:6 2.54431e-05
15 *57:87 *145:21 2.32688e-05
*RES
1 *1059:X *145:6 3.43 
2 *145:6 *1068:A1 10.295 
3 *145:6 *145:21 1.5 
4 *145:21 *1062:A 1.6 
5 *145:21 *1063:A 4.045 
*END

*D_NET *146 0.000965003
*CONN
*I *1068:B1 I *D sky130_fd_sc_hd__o21ai_1
*I *1062:B I *D sky130_fd_sc_hd__or3_1
*I *1060:Y O *D sky130_fd_sc_hd__nand2_1
*CAP
1 *1068:B1 5.90621e-05
2 *1062:B 0.000213008
3 *1060:Y 3.37765e-05
4 *146:8 0.000305847
5 *1062:B *1062:C 4.57899e-05
6 *1062:B *1063:B_N 2.08414e-05
7 *1062:B *148:19 1.78506e-05
8 *1062:B *236:36 4.11715e-05
9 *1062:B *237:85 0.000113182
10 *1068:B1 *1062:C 7.27704e-06
11 *146:8 *154:8 4.77807e-05
12 *1068:A1 *1068:B1 7.77167e-06
13 *1070:C *1062:B 1.82571e-05
14 *1170:A *1062:B 0
15 *71:89 *1062:B 2.03643e-05
16 *71:89 *1068:B1 1.30228e-05
*RES
1 *1060:Y *146:8 4.05 
2 *146:8 *1062:B 7.785 
3 *146:8 *1068:B1 4.77 
*END

*D_NET *147 0.00136035
*CONN
*I *1068:A2 I *D sky130_fd_sc_hd__o21ai_1
*I *1062:C I *D sky130_fd_sc_hd__or3_1
*I *1061:Y O *D sky130_fd_sc_hd__a21oi_1
*CAP
1 *1068:A2 0
2 *1062:C 0.000128563
3 *1061:Y 0.000253895
4 *147:6 0.000382458
5 *1062:C *237:85 0.000151068
6 *1062:B *1062:C 4.57899e-05
7 *1068:A1 *1062:C 0.000301526
8 *1068:B1 *1062:C 7.27704e-06
9 *57:87 *1062:C 4.66108e-05
10 *71:76 *147:6 1.56428e-05
11 *145:21 *1062:C 2.75145e-05
*RES
1 *1061:Y *147:6 4.81 
2 *147:6 *1062:C 9.725 
3 *147:6 *1068:A2 1.6 
*END

*D_NET *148 0.0014756
*CONN
*I *1075:A I *D sky130_fd_sc_hd__and3_1
*I *1071:A1 I *D sky130_fd_sc_hd__a21oi_1
*I *1063:B_N I *D sky130_fd_sc_hd__or2b_1
*I *1062:X O *D sky130_fd_sc_hd__or3_1
*CAP
1 *1075:A 0.000174534
2 *1071:A1 0.000149045
3 *1063:B_N 3.10229e-05
4 *1062:X 3.37037e-05
5 *148:19 0.000375147
6 *148:8 0.000116294
7 *1071:A1 *1070:D 6.90889e-06
8 *1071:A1 *236:18 1.56183e-05
9 *1071:A1 *236:36 8.73389e-06
10 *1071:A1 *238:92 8.35157e-05
11 *1075:A *1060:B 4.77807e-05
12 *1075:A *236:36 1.1465e-05
13 *1075:A *238:92 1.52828e-05
14 *148:19 *238:92 2.53191e-06
15 *1062:B *1063:B_N 2.08414e-05
16 *1062:B *148:19 1.78506e-05
17 *1070:C *1075:A 5.00903e-05
18 *1073:B *1075:A 4.87939e-05
19 *1170:A *1063:B_N 0
20 *1170:A *1075:A 6.45942e-05
21 *1170:A *148:19 0
22 *57:87 *148:8 4.82863e-05
23 *71:89 *1075:A 0.00015356
*RES
1 *1062:X *148:8 4.05 
2 *148:8 *1063:B_N 4.215 
3 *148:8 *148:19 0.87 
4 *148:19 *1071:A1 5.43 
5 *148:19 *1075:A 7.665 
*END

*D_NET *149 0.00237083
*CONN
*I *1067:A I *D sky130_fd_sc_hd__or2_1
*I *1099:A I *D sky130_fd_sc_hd__xnor2_1
*I *1077:A I *D sky130_fd_sc_hd__and2_1
*I *1063:X O *D sky130_fd_sc_hd__or2b_1
*CAP
1 *1067:A 6.64322e-05
2 *1099:A 2.57261e-05
3 *1077:A 5.43672e-05
4 *1063:X 0.000241364
5 *149:12 0.000387889
6 *1067:A *1067:B 0.000104662
7 *1067:A *1100:A 2.97339e-05
8 *1067:A *235:80 0.000294206
9 *1077:A *1077:B 9.12671e-06
10 *1077:A *152:8 2.88357e-05
11 *1077:A *152:17 7.4793e-05
12 *1077:A *235:80 0.000225586
13 *1099:A *1067:B 3.63576e-05
14 *1099:A *152:17 1.14192e-05
15 *149:12 *1071:A2 3.1191e-05
16 *149:12 *156:12 0.00015356
17 *149:12 *316:32 5.4419e-05
18 *1170:A *149:12 3.45159e-05
19 *57:87 *149:12 0.000177523
20 *57:100 *149:12 0.000329118
*RES
1 *1063:X *149:12 11.6 
2 *149:12 *1077:A 3.79 
3 *149:12 *1099:A 2.41 
4 *149:12 *1067:A 4.465 
*END

*D_NET *150 0.0012373
*CONN
*I *1066:A I *D sky130_fd_sc_hd__xnor2_1
*I *1064:Y O *D sky130_fd_sc_hd__nand2_1
*CAP
1 *1066:A 0.000264847
2 *1064:Y 0.000264847
3 *1066:A *964:D 4.99524e-05
4 *1066:A *152:8 0.000328357
5 *1066:A *272:60 1.04737e-05
6 *1066:A *276:14 0.000121043
7 *1045:A1 *1066:A 0.000197776
*RES
1 *1064:Y *1066:A 13.125 
*END

*D_NET *151 0.000605138
*CONN
*I *1066:B I *D sky130_fd_sc_hd__xnor2_1
*I *1065:X O *D sky130_fd_sc_hd__and2b_1
*CAP
1 *1066:B 0.000229608
2 *1065:X 0.000229608
3 *1066:B *1171:A 0.000134503
4 *1061:A1 *1066:B 1.14192e-05
*RES
1 *1065:X *1066:B 10.32 
*END

*D_NET *152 0.00215561
*CONN
*I *1067:B I *D sky130_fd_sc_hd__or2_1
*I *1099:B I *D sky130_fd_sc_hd__xnor2_1
*I *1077:B I *D sky130_fd_sc_hd__and2_1
*I *1066:Y O *D sky130_fd_sc_hd__xnor2_1
*CAP
1 *1067:B 7.74917e-05
2 *1099:B 0
3 *1077:B 1.80269e-05
4 *1066:Y 0.000283068
5 *152:17 0.000138041
6 *152:8 0.000361644
7 *1067:B *1078:B1 7.01132e-05
8 *1067:B *1100:A 8.41384e-05
9 *1067:B *235:80 1.22325e-05
10 *152:8 *964:A 1.22349e-05
11 *152:8 *964:B 9.78811e-06
12 *152:8 *964:D 4.66108e-05
13 *152:8 *1064:B 8.35118e-05
14 *152:8 *235:80 0.000208621
15 *152:8 *276:14 2.21074e-05
16 *152:17 *1078:B1 4.90291e-05
17 *1045:A1 *152:8 6.97608e-05
18 *1066:A *152:8 0.000328357
19 *1067:A *1067:B 0.000104662
20 *1077:A *1077:B 9.12671e-06
21 *1077:A *152:8 2.88357e-05
22 *1077:A *152:17 7.4793e-05
23 *1099:A *1067:B 3.63576e-05
24 *1099:A *152:17 1.14192e-05
25 *71:123 *152:8 1.56428e-05
*RES
1 *1066:Y *152:8 8.62 
2 *152:8 *1077:B 1.96 
3 *152:8 *152:17 1.485 
4 *152:17 *1099:B 1.6 
5 *152:17 *1067:B 4.135 
*END

*D_NET *153 0.000802969
*CONN
*I *1078:A1 I *D sky130_fd_sc_hd__a21o_1
*I *1067:X O *D sky130_fd_sc_hd__or2_1
*CAP
1 *1078:A1 0.000164756
2 *1067:X 0.000164756
3 *1078:A1 *1072:A 0.000138757
4 *1078:A1 *1100:A 0.000197239
5 *1078:A1 *241:123 0.000137461
*RES
1 *1067:X *1078:A1 10.665 
*END

*D_NET *154 0.00115249
*CONN
*I *1071:A2 I *D sky130_fd_sc_hd__a21oi_1
*I *1075:B I *D sky130_fd_sc_hd__and3_1
*I *1068:Y O *D sky130_fd_sc_hd__o21ai_1
*CAP
1 *1071:A2 0.000107228
2 *1075:B 0
3 *1068:Y 0.000193032
4 *154:8 0.00030026
5 *1071:A2 *1060:B 1.19928e-05
6 *1071:A2 *156:12 6.90254e-05
7 *1071:A2 *238:92 4.77807e-05
8 *154:8 *1060:B 0.00010946
9 *1073:B *1071:A2 4.66108e-05
10 *1170:A *1071:A2 0.00012972
11 *71:76 *154:8 3.33763e-05
12 *71:89 *154:8 2.50267e-05
13 *146:8 *154:8 4.77807e-05
14 *149:12 *1071:A2 3.1191e-05
*RES
1 *1068:Y *154:8 5.17 
2 *154:8 *1075:B 1.6 
3 *154:8 *1071:A2 8.135 
*END

*D_NET *155 0.000369519
*CONN
*I *1070:B I *D sky130_fd_sc_hd__and4b_1
*I *1069:X O *D sky130_fd_sc_hd__a22o_1
*CAP
1 *1070:B 0.000162514
2 *1069:X 0.000162514
3 *1070:B *236:36 1.55253e-05
4 *1070:B *237:85 2.49909e-05
5 *1070:A_N *1070:B 3.97604e-06
*RES
1 *1069:X *1070:B 5.03 
*END

*D_NET *156 0.00182957
*CONN
*I *1071:B1 I *D sky130_fd_sc_hd__a21oi_1
*I *1075:C I *D sky130_fd_sc_hd__and3_1
*I *1070:X O *D sky130_fd_sc_hd__and4b_1
*CAP
1 *1071:B1 0.000182393
2 *1075:C 4.50911e-05
3 *1070:X 0.000143519
4 *156:12 0.000371003
5 *1071:B1 *939:A 0.000107205
6 *1071:B1 *1072:A 8.80441e-05
7 *1071:B1 *236:104 4.87939e-05
8 *1071:B1 *238:92 5.5817e-05
9 *1075:C *939:A 4.66108e-05
10 *1075:C *1060:B 3.41812e-05
11 *156:12 *236:18 0.000120417
12 *156:12 *316:32 5.00903e-05
13 *1071:A2 *156:12 6.90254e-05
14 *1073:B *1071:B1 8.23457e-05
15 *1170:A *156:12 1.72184e-05
16 *57:100 *1071:B1 0.000214255
17 *149:12 *156:12 0.00015356
*RES
1 *1070:X *156:12 8.63 
2 *156:12 *1075:C 2.275 
3 *156:12 *1071:B1 10.19 
*END

*D_NET *157 0.00193957
*CONN
*I *1101:B I *D sky130_fd_sc_hd__or2_1
*I *1076:A1 I *D sky130_fd_sc_hd__o21bai_1
*I *1071:Y O *D sky130_fd_sc_hd__a21oi_1
*CAP
1 *1101:B 8.44055e-05
2 *1076:A1 6.07391e-05
3 *1071:Y 0.000465574
4 *157:6 0.000610719
5 *1076:A1 *1101:A 4.58691e-05
6 *1076:A1 *160:16 0.000132951
7 *1101:B *1074:A 3.12916e-05
8 *157:6 *1072:B 2.20014e-05
9 *157:6 *1074:A 7.00443e-05
10 *157:6 *1074:B 3.14997e-05
11 *157:6 *236:16 0.000266398
12 *157:6 *236:18 0.000118081
*RES
1 *1071:Y *157:6 7.57 
2 *157:6 *1076:A1 7.235 
3 *157:6 *1101:B 2.92 
*END

*D_NET *158 0.000279133
*CONN
*I *1074:A I *D sky130_fd_sc_hd__nand2_1
*I *1072:Y O *D sky130_fd_sc_hd__xnor2_1
*CAP
1 *1074:A 7.29103e-05
2 *1072:Y 7.29103e-05
3 *1074:A *1074:B 3.19761e-05
4 *1101:B *1074:A 3.12916e-05
5 *157:6 *1074:A 7.00443e-05
*RES
1 *1072:Y *1074:A 5.06 
*END

*D_NET *159 0.0005684
*CONN
*I *1074:B I *D sky130_fd_sc_hd__nand2_1
*I *1073:X O *D sky130_fd_sc_hd__and4_1
*CAP
1 *1074:B 0.000180362
2 *1073:X 0.000180362
3 *1074:B *1072:A 0.000122199
4 *1074:B *1072:B 2.20014e-05
5 *1074:A *1074:B 3.19761e-05
6 *157:6 *1074:B 3.14997e-05
*RES
1 *1073:X *1074:B 6.425 
*END

*D_NET *160 0.00137736
*CONN
*I *1076:A2 I *D sky130_fd_sc_hd__o21bai_1
*I *1103:A2 I *D sky130_fd_sc_hd__o21a_1
*I *1102:B I *D sky130_fd_sc_hd__nand2_1
*I *1074:Y O *D sky130_fd_sc_hd__nand2_1
*CAP
1 *1076:A2 0
2 *1103:A2 0
3 *1102:B 8.72806e-05
4 *1074:Y 0.000129488
5 *160:24 0.000231083
6 *160:16 0.000273291
7 *1102:B *1102:A 3.03989e-05
8 *1102:B *1147:A3 0.000114524
9 *160:16 *1076:B1_N 3.64998e-06
10 *160:16 *1101:A 8.34144e-06
11 *160:16 *1147:A2 0.000154052
12 *160:16 *161:6 4.28819e-05
13 *160:16 *162:14 8.64488e-05
14 *160:24 *1076:B1_N 2.68464e-05
15 *160:24 *1103:A1 4.77807e-05
16 *160:24 *236:14 8.34281e-06
17 *1076:A1 *160:16 0.000132951
*RES
1 *1074:Y *160:16 9.35 
2 *160:16 *160:24 5.935 
3 *160:24 *1102:B 7.595 
4 *160:24 *1103:A2 1.6 
5 *160:16 *1076:A2 1.6 
*END

*D_NET *161 0.00195045
*CONN
*I *1076:B1_N I *D sky130_fd_sc_hd__o21bai_1
*I *1101:A I *D sky130_fd_sc_hd__or2_1
*I *1075:X O *D sky130_fd_sc_hd__and3_1
*CAP
1 *1076:B1_N 3.43593e-05
2 *1101:A 0.000158723
3 *1075:X 0.000379221
4 *161:6 0.000572303
5 *1076:B1_N *162:14 1.06688e-05
6 *1076:B1_N *236:14 0.000110767
7 *1101:A *1102:A 2.92538e-05
8 *161:6 *939:A 0.000187143
9 *161:6 *236:14 0.000340418
10 *1076:A1 *1101:A 4.58691e-05
11 *160:16 *1076:B1_N 3.64998e-06
12 *160:16 *1101:A 8.34144e-06
13 *160:16 *161:6 4.28819e-05
14 *160:24 *1076:B1_N 2.68464e-05
*RES
1 *1075:X *161:6 8.605 
2 *161:6 *1101:A 7.94 
3 *161:6 *1076:B1_N 2.74 
*END

*D_NET *162 0.00174146
*CONN
*I *1100:B I *D sky130_fd_sc_hd__xnor2_1
*I *1078:A2 I *D sky130_fd_sc_hd__a21o_1
*I *1076:Y O *D sky130_fd_sc_hd__o21bai_1
*CAP
1 *1100:B 2.14893e-05
2 *1078:A2 0.000192152
3 *1076:Y 0.000245558
4 *162:14 0.000459199
5 *1078:A2 *1104:A 0
6 *1078:A2 *305:45 0.000424022
7 *1100:B *305:45 2.20403e-05
8 *162:14 *1100:A 3.89366e-05
9 *162:14 *1147:A2 0.000240943
10 *1076:B1_N *162:14 1.06688e-05
11 *160:16 *162:14 8.64488e-05
*RES
1 *1076:Y *162:14 10.265 
2 *162:14 *1078:A2 5.86 
3 *162:14 *1100:B 2.05 
*END

*D_NET *163 0.000702928
*CONN
*I *1078:B1 I *D sky130_fd_sc_hd__a21o_1
*I *1077:X O *D sky130_fd_sc_hd__and2_1
*CAP
1 *1078:B1 0.000188712
2 *1077:X 0.000188712
3 *1078:B1 *1072:A 0.000137461
4 *1067:B *1078:B1 7.01132e-05
5 *57:100 *1078:B1 6.89011e-05
6 *152:17 *1078:B1 4.90291e-05
*RES
1 *1077:X *1078:B1 10.665 
*END

*D_NET *164 0.00473069
*CONN
*I *1116:B I *D sky130_fd_sc_hd__and2_1
*I *1092:A2 I *D sky130_fd_sc_hd__a41o_1
*I *1105:B I *D sky130_fd_sc_hd__xor2_1
*I *1078:X O *D sky130_fd_sc_hd__a21o_1
*CAP
1 *1116:B 1.5099e-05
2 *1092:A2 0.000137324
3 *1105:B 0
4 *1078:X 0.000658405
5 *164:23 0.000939545
6 *164:8 0.00144553
7 *1092:A2 *1092:B1 8.34281e-06
8 *1092:A2 *1118:A 4.77769e-05
9 *1092:A2 *178:12 9.10613e-05
10 *1092:A2 *202:8 7.03219e-05
11 *164:8 *966:A 9.7872e-05
12 *164:8 *967:A1 3.05646e-05
13 *164:8 *1072:A 3.39064e-05
14 *164:8 *241:123 0
15 *164:8 *241:138 7.41895e-05
16 *164:8 *316:62 8.30069e-05
17 *164:23 *1095:B 8.47542e-05
18 *164:23 *1096:A 5.31158e-06
19 *164:23 *1112:A2 0.000113797
20 *164:23 *1115:A2 0
21 *164:23 *1133:B1 0
22 *164:23 *316:22 0
23 *970:D_N *164:8 9.54469e-05
24 *1092:A1 *1092:A2 5.83121e-06
25 *1098:A *164:23 0
26 *1116:A *164:23 2.49909e-05
27 *57:100 *164:8 2.92496e-05
28 *57:121 *164:8 0.000437103
29 *57:142 *164:8 0.000201264
30 *79:10 *164:8 0
31 *79:25 *164:23 0
32 *85:17 *164:8 0
33 *85:17 *164:23 0
34 *141:24 *164:23 0
*RES
1 *1078:X *164:8 17.73 
2 *164:8 *1105:B 3.6 
3 *164:8 *164:23 15.185 
4 *164:23 *1092:A2 7.97 
5 *164:23 *1116:B 1.96 
*END

*D_NET *165 0.000938724
*CONN
*I *1083:A I *D sky130_fd_sc_hd__and3_2
*I *1084:A1 I *D sky130_fd_sc_hd__a21o_1
*I *1079:X O *D sky130_fd_sc_hd__or3_1
*CAP
1 *1083:A 0
2 *1084:A1 0.000192582
3 *1079:X 0.000168689
4 *165:16 0.000361271
5 *1084:A1 *1084:B1 0.000117469
6 *1084:A1 *170:10 2.65814e-06
7 *165:16 *1083:B 3.56402e-05
8 *165:16 *1083:C 5.09431e-05
9 *165:16 *169:14 5.19006e-06
10 *107:12 *165:16 4.28112e-06
*RES
1 *1079:X *165:16 8.84 
2 *165:16 *1084:A1 8.21 
3 *165:16 *1083:A 1.6 
*END

*D_NET *166 0.000184202
*CONN
*I *1081:B1 I *D sky130_fd_sc_hd__a31o_1
*I *1080:X O *D sky130_fd_sc_hd__and3_1
*CAP
1 *1081:B1 6.18975e-05
2 *1080:X 6.18975e-05
3 *1080:C *1081:B1 0
4 *1081:A1 *1081:B1 3.26889e-05
5 *136:6 *1081:B1 2.77183e-05
*RES
1 *1080:X *1081:B1 4.355 
*END

*D_NET *167 0.00381164
*CONN
*I *1084:B1 I *D sky130_fd_sc_hd__a21o_1
*I *1083:B I *D sky130_fd_sc_hd__and3_2
*I *1081:X O *D sky130_fd_sc_hd__a31o_1
*CAP
1 *1084:B1 0.000165294
2 *1083:B 9.09966e-05
3 *1081:X 0.000913095
4 *167:14 0.00116939
5 *1083:B *1083:C 3.59538e-06
6 *167:14 *1021:B 0
7 *167:14 *1137:A2 0
8 *167:14 *1212:A 0
9 *167:14 *233:69 0.000242075
10 *167:14 *234:19 2.97178e-05
11 *167:14 *235:48 0
12 *977:D *167:14 0.00013475
13 *1012:A2 *167:14 7.24866e-05
14 *1028:A1 *167:14 0
15 *1029:C *167:14 0.000217923
16 *1081:A1 *167:14 4.82919e-05
17 *1084:A1 *1084:B1 0.000117469
18 *60:8 *167:14 9.58582e-05
19 *60:23 *167:14 0.000145672
20 *61:95 *167:14 0
21 *71:10 *167:14 4.15056e-05
22 *94:16 *167:14 7.55391e-05
23 *107:12 *167:14 0.000100201
24 *109:10 *167:14 0.000112143
25 *114:12 *167:14 0
26 *165:16 *1083:B 3.56402e-05
*RES
1 *1081:X *167:14 21.795 
2 *167:14 *1083:B 4.74 
3 *167:14 *1084:B1 6.705 
*END

*D_NET *168 0.00161279
*CONN
*I *1084:A2 I *D sky130_fd_sc_hd__a21o_1
*I *1083:C I *D sky130_fd_sc_hd__and3_2
*I *1082:Y O *D sky130_fd_sc_hd__o21ai_1
*CAP
1 *1084:A2 0.00020282
2 *1083:C 0.000369223
3 *1082:Y 8.10226e-05
4 *168:8 0.000653066
5 *1084:A2 *1212:A 9.18556e-05
6 *168:8 *1212:A 0.000160266
7 *1083:B *1083:C 3.59538e-06
8 *165:16 *1083:C 5.09431e-05
*RES
1 *1082:Y *168:8 5.49 
2 *168:8 *1083:C 7.86 
3 *168:8 *1084:A2 6.825 
*END

*D_NET *169 0.00247816
*CONN
*I *1090:B1 I *D sky130_fd_sc_hd__a21o_1
*I *1085:A I *D sky130_fd_sc_hd__nor2b_2
*I *1097:A I *D sky130_fd_sc_hd__xnor2_2
*I *1089:A I *D sky130_fd_sc_hd__xor2_1
*I *1083:X O *D sky130_fd_sc_hd__and3_2
*CAP
1 *1090:B1 3.85475e-05
2 *1085:A 0.000113919
3 *1097:A 0.000105471
4 *1089:A 2.11141e-05
5 *1083:X 0.000326176
6 *169:29 0.000340447
7 *169:25 0.000298767
8 *169:14 0.000486453
9 *1085:A *1085:B_N 8.05637e-05
10 *1085:A *171:12 4.77757e-05
11 *1085:A *171:16 0
12 *1089:A *170:10 2.68464e-05
13 *1090:B1 *1091:A 3.48341e-05
14 *169:14 *1088:B 4.89362e-05
15 *169:14 *174:8 6.47357e-05
16 *169:25 *1091:A 3.93101e-05
17 *169:25 *170:10 0.000142574
18 *169:29 *1085:B_N 1.08056e-05
19 *169:29 *1118:B 0
20 *1119:A *1085:A 0
21 *139:56 *1097:A 4.66108e-05
22 *139:56 *169:29 0.000199088
23 *165:16 *169:14 5.19006e-06
*RES
1 *1083:X *169:14 10.46 
2 *169:14 *1089:A 2.05 
3 *169:14 *169:25 2.535 
4 *169:25 *169:29 4.655 
5 *169:29 *1097:A 5.085 
6 *169:29 *1085:A 5.94 
7 *169:25 *1090:B1 2.41 
*END

*D_NET *170 0.00194624
*CONN
*I *1090:A2 I *D sky130_fd_sc_hd__a21o_1
*I *1085:B_N I *D sky130_fd_sc_hd__nor2b_2
*I *1084:X O *D sky130_fd_sc_hd__a21o_1
*CAP
1 *1090:A2 0
2 *1085:B_N 0.000271205
3 *1084:X 0.00035858
4 *170:10 0.000629785
5 *1085:B_N *1097:B 0
6 *1085:B_N *293:24 0
7 *170:10 *1091:A 0.000250019
8 *1084:A1 *170:10 2.65814e-06
9 *1085:A *1085:B_N 8.05637e-05
10 *1089:A *170:10 2.68464e-05
11 *139:56 *1085:B_N 0.000173199
12 *169:25 *170:10 0.000142574
13 *169:29 *1085:B_N 1.08056e-05
*RES
1 *1084:X *170:10 8.29 
2 *170:10 *1085:B_N 10.58 
3 *170:10 *1090:A2 1.6 
*END

*D_NET *171 0.00161515
*CONN
*I *1119:B I *D sky130_fd_sc_hd__nand2_1
*I *1086:B I *D sky130_fd_sc_hd__xor2_2
*I *1118:B I *D sky130_fd_sc_hd__nand2_1
*I *1085:Y O *D sky130_fd_sc_hd__nor2b_2
*CAP
1 *1119:B 0
2 *1086:B 0
3 *1118:B 0.000154139
4 *1085:Y 0.000282278
5 *171:16 0.000222702
6 *171:12 0.00035084
7 *1118:B *1092:A4 8.35157e-05
8 *1118:B *1118:A 5.19006e-06
9 *1118:B *295:16 0.000177408
10 *171:12 *1120:C1 4.82863e-05
11 *171:16 *1134:A1 0
12 *171:16 *295:16 0.000120186
13 *1085:A *171:12 4.77757e-05
14 *1085:A *171:16 0
15 *1119:A *1118:B 2.97004e-06
16 *1119:A *171:12 5.53774e-05
17 *1119:A *171:16 4.4073e-05
18 *1198:A *171:12 2.04101e-05
19 *169:29 *1118:B 0
*RES
1 *1085:Y *171:12 6.325 
2 *171:12 *171:16 3.89 
3 *171:16 *1118:B 6.9 
4 *171:16 *1086:B 2 
5 *171:12 *1119:B 1.6 
*END

*D_NET *172 0.00275825
*CONN
*I *1134:A2 I *D sky130_fd_sc_hd__o21a_1
*I *1096:A I *D sky130_fd_sc_hd__inv_2
*I *1117:B I *D sky130_fd_sc_hd__nor2_1
*I *1092:A3 I *D sky130_fd_sc_hd__a41o_1
*I *1086:X O *D sky130_fd_sc_hd__xor2_2
*CAP
1 *1134:A2 0.000239464
2 *1096:A 0.000268409
3 *1117:B 3.28706e-05
4 *1092:A3 0.000162757
5 *1086:X 0
6 *172:34 0.000743174
7 *172:6 0.00022531
8 *172:4 0.000264983
9 *1092:A3 *202:8 1.64067e-05
10 *1092:A3 *202:21 0.000101674
11 *1092:A3 *204:14 4.82919e-05
12 *1096:A *1120:C1 0
13 *1096:A *1122:A3 0
14 *1096:A *1134:B1 0
15 *1096:A *182:14 7.1624e-05
16 *1096:A *202:21 0
17 *1096:A *316:22 0
18 *1117:B *1120:A2 2.75145e-05
19 *1117:B *1120:B1 2.46087e-05
20 *1117:B *204:14 0.000110673
21 *1134:A2 *1120:C1 6.71882e-05
22 *1134:A2 *1134:B1 0
23 *1134:A2 *1135:B 7.75783e-05
24 *1134:A2 *316:22 0
25 *172:6 *1120:A2 0
26 *172:6 *204:14 0
27 *172:34 *1120:A1 1.08758e-05
28 *172:34 *1120:A2 0.000198046
29 *172:34 *183:12 2.63208e-06
30 *1098:A *1096:A 5.88606e-05
31 *1203:A *1134:A2 0
32 *164:23 *1096:A 5.31158e-06
*RES
1 *1086:X *172:4 1.6 
2 *172:4 *172:6 0.615 
3 *172:6 *1092:A3 8.705 
4 *172:6 *1117:B 3.1 
5 *172:4 *172:34 5.225 
6 *172:34 *1096:A 8.295 
7 *172:34 *1134:A2 7.86 
*END

*D_NET *173 0.000434331
*CONN
*I *1088:B I *D sky130_fd_sc_hd__nor2_2
*I *1087:Y O *D sky130_fd_sc_hd__a21oi_1
*CAP
1 *1088:B 0.000155269
2 *1087:Y 0.000155269
3 *1088:A *1088:B 2.59285e-05
4 *118:27 *1088:B 4.89295e-05
5 *169:14 *1088:B 4.89362e-05
*RES
1 *1087:Y *1088:B 9.84 
*END

*D_NET *174 0.00161355
*CONN
*I *1097:B I *D sky130_fd_sc_hd__xnor2_2
*I *1091:A I *D sky130_fd_sc_hd__and2_1
*I *1089:B I *D sky130_fd_sc_hd__xor2_1
*I *1088:Y O *D sky130_fd_sc_hd__nor2_2
*CAP
1 *1097:B 7.50964e-05
2 *1091:A 0.000261778
3 *1089:B 0
4 *1088:Y 5.31983e-05
5 *174:17 0.000367053
6 *174:8 8.33777e-05
7 *1091:A *1091:B 5.11793e-05
8 *1091:A *1092:A4 0.000211657
9 *1097:B *293:24 5.23658e-05
10 *174:8 *293:24 5.33142e-05
11 *174:17 *293:24 1.56261e-05
12 *1085:B_N *1097:B 0
13 *1090:B1 *1091:A 3.48341e-05
14 *169:14 *174:8 6.47357e-05
15 *169:25 *1091:A 3.93101e-05
16 *170:10 *1091:A 0.000250019
*RES
1 *1088:Y *174:8 5.235 
2 *174:8 *1089:B 3.6 
3 *174:8 *174:17 0.615 
4 *174:17 *1091:A 9.03 
5 *174:17 *1097:B 5.235 
*END

*D_NET *175 0.00141155
*CONN
*I *1092:A4 I *D sky130_fd_sc_hd__a41o_1
*I *1089:X O *D sky130_fd_sc_hd__xor2_1
*CAP
1 *1092:A4 0.000316373
2 *1089:X 0.000316373
3 *1092:A4 *1091:B 0.000123955
4 *1092:A4 *1092:B1 0.000324035
5 *1092:A4 *1118:A 3.56402e-05
6 *1091:A *1092:A4 0.000211657
7 *1118:B *1092:A4 8.35157e-05
*RES
1 *1089:X *1092:A4 10.22 
*END

*D_NET *176 0.000291893
*CONN
*I *1091:B I *D sky130_fd_sc_hd__and2_1
*I *1090:X O *D sky130_fd_sc_hd__a21o_1
*CAP
1 *1091:B 5.83793e-05
2 *1090:X 5.83793e-05
3 *1091:A *1091:B 5.11793e-05
4 *1092:A4 *1091:B 0.000123955
*RES
1 *1090:X *1091:B 4.7 
*END

*D_NET *177 0.00112657
*CONN
*I *1092:B1 I *D sky130_fd_sc_hd__a41o_1
*I *1091:X O *D sky130_fd_sc_hd__and2_1
*CAP
1 *1092:B1 0.000350654
2 *1091:X 0.000350654
3 *1092:B1 *1118:A 4.39425e-05
4 *1092:A1 *1092:B1 4.89395e-05
5 *1092:A2 *1092:B1 8.34281e-06
6 *1092:A4 *1092:B1 0.000324035
*RES
1 *1091:X *1092:B1 8.51 
*END

*D_NET *178 0.0018292
*CONN
*I *1098:B I *D sky130_fd_sc_hd__xnor2_1
*I *1094:A2 I *D sky130_fd_sc_hd__a21oi_1
*I *1111:C1 I *D sky130_fd_sc_hd__o211a_1
*I *1092:X O *D sky130_fd_sc_hd__a41o_1
*CAP
1 *1098:B 9.54897e-05
2 *1094:A2 0
3 *1111:C1 0.000175212
4 *1092:X 0
5 *178:12 0.000396001
6 *178:4 0.000316278
7 *1111:C1 *1094:B1 4.82863e-05
8 *1111:C1 *1095:B 0.000124895
9 *1111:C1 *295:16 0
10 *178:12 *295:16 0
11 *1092:A1 *178:12 0.000150616
12 *1092:A2 *178:12 9.10613e-05
13 *1098:A *1098:B 4.77807e-05
14 *1098:A *1111:C1 4.99619e-05
15 *1111:A2 *1111:C1 9.50342e-06
16 *1111:B1 *1111:C1 5.99925e-05
17 *118:27 *1111:C1 0
18 *119:6 *1111:C1 4.80285e-05
19 *119:21 *1111:C1 3.51968e-05
20 *141:24 *178:12 0.000180893
*RES
1 *1092:X *178:4 1.6 
2 *178:4 *178:12 8.47 
3 *178:12 *1111:C1 9.77 
4 *178:12 *1094:A2 1.6 
5 *178:4 *1098:B 3.265 
*END

*D_NET *179 0.00192563
*CONN
*I *1094:B1 I *D sky130_fd_sc_hd__a21oi_1
*I *1110:A2 I *D sky130_fd_sc_hd__o21a_1
*I *1093:X O *D sky130_fd_sc_hd__and2b_1
*CAP
1 *1094:B1 0.000123941
2 *1110:A2 0.000166633
3 *1093:X 0.000206914
4 *179:8 0.000497488
5 *179:8 *1138:A 0.000312182
6 *1095:A *1094:B1 1.26626e-05
7 *1110:A1 *1110:A2 0.000179987
8 *1111:A1 *1094:B1 4.9968e-05
9 *1111:A1 *1110:A2 9.37731e-05
10 *1111:A2 *1094:B1 2.24992e-05
11 *1111:A2 *1110:A2 4.19967e-05
12 *1111:B1 *1094:B1 6.28765e-05
13 *1111:C1 *1094:B1 4.82863e-05
14 *103:19 *1110:A2 8.08153e-06
15 *119:21 *1094:B1 4.82863e-05
16 *141:24 *1094:B1 5.00526e-05
17 *141:24 *1110:A2 0
*RES
1 *1093:X *179:8 6.465 
2 *179:8 *1110:A2 7.275 
3 *179:8 *1094:B1 6.45 
*END

*D_NET *180 0.00082025
*CONN
*I *1095:B I *D sky130_fd_sc_hd__xnor2_2
*I *1094:Y O *D sky130_fd_sc_hd__a21oi_1
*CAP
1 *1095:B 0.000240884
2 *1094:Y 0.000240884
3 *1098:A *1095:B 5.92908e-05
4 *1111:C1 *1095:B 0.000124895
5 *141:24 *1095:B 6.95422e-05
6 *164:23 *1095:B 8.47542e-05
*RES
1 *1094:Y *1095:B 12.48 
*END

*D_NET *181 0.00182456
*CONN
*I *1125:C_N I *D sky130_fd_sc_hd__or3b_2
*I *1113:A I *D sky130_fd_sc_hd__nand3_2
*I *1123:S I *D sky130_fd_sc_hd__mux2_1
*I *1115:A1 I *D sky130_fd_sc_hd__a21oi_2
*I *1095:Y O *D sky130_fd_sc_hd__xnor2_2
*CAP
1 *1125:C_N 0.000160383
2 *1113:A 2.474e-05
3 *1123:S 0
4 *1115:A1 0
5 *1095:Y 9.11885e-05
6 *181:32 0.000390178
7 *181:21 0.000340173
8 *181:8 0.000226307
9 *1113:A *1113:B 5.8069e-05
10 *1125:C_N *1126:A3 2.97522e-05
11 *1125:C_N *192:18 8.39647e-05
12 *1125:C_N *207:10 5.86833e-05
13 *181:8 *1138:A 4.40385e-05
14 *181:21 *1123:A0 1.0555e-05
15 *181:21 *1138:A 2.86975e-05
16 *181:21 *316:22 8.93475e-05
17 *181:32 *1113:B 3.81652e-05
18 *181:32 *1209:A 2.9296e-05
19 *181:32 *193:14 0.000121019
*RES
1 *1095:Y *181:8 3.1 
2 *181:8 *1115:A1 1.6 
3 *181:8 *181:21 6.595 
4 *181:21 *1123:S 1.6 
5 *181:21 *181:32 3.585 
6 *181:32 *1113:A 2.41 
7 *181:32 *1125:C_N 8.63 
*END

*D_NET *182 0.00116326
*CONN
*I *1107:A I *D sky130_fd_sc_hd__nor4_1
*I *1122:A1 I *D sky130_fd_sc_hd__o31a_1
*I *1096:Y O *D sky130_fd_sc_hd__inv_2
*CAP
1 *1107:A 4.02388e-05
2 *1122:A1 3.3912e-05
3 *1096:Y 0.00036304
4 *182:14 0.000437191
5 *1107:A *1107:C 5.06989e-05
6 *1122:A1 *1107:C 6.97771e-05
7 *1122:A1 *1122:B1 5.19006e-06
8 *182:14 *1107:C 2.50191e-05
9 *182:14 *184:8 6.65733e-05
10 *1096:A *182:14 7.1624e-05
*RES
1 *1096:Y *182:14 10.73 
2 *182:14 *1122:A1 3.205 
3 *182:14 *1107:A 2.395 
*END

*D_NET *183 0.00318136
*CONN
*I *1121:A I *D sky130_fd_sc_hd__xnor2_2
*I *1107:B I *D sky130_fd_sc_hd__nor4_1
*I *1122:A2 I *D sky130_fd_sc_hd__o31a_1
*I *1097:Y O *D sky130_fd_sc_hd__xnor2_2
*CAP
1 *1121:A 4.80242e-05
2 *1107:B 9.36814e-05
3 *1122:A2 0
4 *1097:Y 0.00079625
5 *183:22 0.000230615
6 *183:12 0.000981208
7 *1107:B *1107:C 0.00018695
8 *1121:A *1120:A1 5.4155e-06
9 *183:12 *1120:A1 4.34908e-05
10 *183:12 *1120:A2 1.19028e-05
11 *183:12 *1120:B1 0.000112561
12 *183:12 *1121:B 7.30505e-05
13 *183:12 *204:14 0.000316401
14 *183:22 *1107:C 8.35118e-05
15 *183:22 *1122:A3 3.72007e-05
16 *183:22 *184:8 5.25073e-05
17 *139:56 *183:12 0.000105953
18 *172:34 *183:12 2.63208e-06
*RES
1 *1097:Y *183:12 12.88 
2 *183:12 *183:22 6.37 
3 *183:22 *1122:A2 1.6 
4 *183:22 *1107:B 3.43 
5 *183:12 *1121:A 2.47 
*END

*D_NET *184 0.00088952
*CONN
*I *1107:C I *D sky130_fd_sc_hd__nor4_1
*I *1122:B1 I *D sky130_fd_sc_hd__o31a_1
*I *1098:Y O *D sky130_fd_sc_hd__xnor2_1
*CAP
1 *1107:C 8.4499e-05
2 *1122:B1 1.6906e-05
3 *1098:Y 7.32409e-05
4 *184:8 0.000174646
5 *1107:A *1107:C 5.06989e-05
6 *1107:B *1107:C 0.00018695
7 *1122:A1 *1107:C 6.97771e-05
8 *1122:A1 *1122:B1 5.19006e-06
9 *182:14 *1107:C 2.50191e-05
10 *182:14 *184:8 6.65733e-05
11 *183:22 *1107:C 8.35118e-05
12 *183:22 *184:8 5.25073e-05
*RES
1 *1098:Y *184:8 3.445 
2 *184:8 *1122:B1 1.96 
3 *184:8 *1107:C 4.465 
*END

*D_NET *185 0.00145932
*CONN
*I *1100:A I *D sky130_fd_sc_hd__xnor2_1
*I *1099:Y O *D sky130_fd_sc_hd__xnor2_1
*CAP
1 *1100:A 0.000345976
2 *1099:Y 0.000345976
3 *1100:A *1147:A2 2.60366e-05
4 *1100:A *235:80 0.000391282
5 *1067:A *1100:A 2.97339e-05
6 *1067:B *1100:A 8.41384e-05
7 *1078:A1 *1100:A 0.000197239
8 *162:14 *1100:A 3.89366e-05
*RES
1 *1099:Y *1100:A 14.835 
*END

*D_NET *186 0.000644661
*CONN
*I *1127:B1 I *D sky130_fd_sc_hd__a21oi_1
*I *1104:A I *D sky130_fd_sc_hd__and3_1
*I *1100:Y O *D sky130_fd_sc_hd__xnor2_1
*CAP
1 *1127:B1 3.94647e-05
2 *1104:A 4.47672e-05
3 *1100:Y 8.2542e-05
4 *186:8 0.000166774
5 *1104:A *305:45 9.69565e-05
6 *1127:B1 *1104:B 1.19928e-05
7 *1127:B1 *1104:C 7.2491e-05
8 *1127:B1 *1127:A1 1.19928e-05
9 *1127:B1 *1127:A2 3.57349e-05
10 *1127:B1 *190:24 4.66108e-05
11 *1127:B1 *305:45 6.66424e-06
12 *186:8 *1104:B 1.08758e-05
13 *186:8 *1127:A1 0
14 *186:8 *190:24 1.77945e-05
15 *1078:A2 *1104:A 0
*RES
1 *1100:Y *186:8 3.355 
2 *186:8 *1104:A 3.55 
3 *186:8 *1127:B1 2.74 
*END

*D_NET *187 0.00114386
*CONN
*I *1103:A1 I *D sky130_fd_sc_hd__o21a_1
*I *1102:A I *D sky130_fd_sc_hd__nand2_1
*I *1101:X O *D sky130_fd_sc_hd__or2_1
*CAP
1 *1103:A1 0.000151893
2 *1102:A 0.000152579
3 *1101:X 0
4 *187:4 0.000304472
5 *1102:A *1147:A3 0.000237718
6 *1103:A1 *1103:B1 5.19006e-06
7 *1103:A1 *1145:A1 6.90254e-05
8 *1103:A1 *1147:A3 9.05592e-05
9 *1103:A1 *236:14 2.49909e-05
10 *1101:A *1102:A 2.92538e-05
11 *1102:B *1102:A 3.03989e-05
12 *160:24 *1103:A1 4.77807e-05
*RES
1 *1101:X *187:4 1.6 
2 *187:4 *1102:A 9.125 
3 *187:4 *1103:A1 8.33 
*END

*D_NET *188 0.00103769
*CONN
*I *1127:A1 I *D sky130_fd_sc_hd__a21oi_1
*I *1104:B I *D sky130_fd_sc_hd__and3_1
*I *1102:Y O *D sky130_fd_sc_hd__nand2_1
*CAP
1 *1127:A1 0.000157458
2 *1104:B 4.05234e-05
3 *1102:Y 0.000146021
4 *188:12 0.000344002
5 *1127:A1 *1127:A2 1.93735e-05
6 *1127:A1 *190:24 6.12616e-05
7 *188:12 *1149:A1 2.69217e-05
8 *188:12 *189:10 6.90254e-05
9 *188:12 *235:70 6.90254e-05
10 *188:12 *235:80 6.92161e-05
11 *1127:B1 *1104:B 1.19928e-05
12 *1127:B1 *1127:A1 1.19928e-05
13 *186:8 *1104:B 1.08758e-05
14 *186:8 *1127:A1 0
*RES
1 *1102:Y *188:12 7.955 
2 *188:12 *1104:B 2.05 
3 *188:12 *1127:A1 3.955 
*END

*D_NET *189 0.00117603
*CONN
*I *1127:A2 I *D sky130_fd_sc_hd__a21oi_1
*I *1104:C I *D sky130_fd_sc_hd__and3_1
*I *1103:X O *D sky130_fd_sc_hd__o21a_1
*CAP
1 *1127:A2 6.7914e-05
2 *1104:C 1.44541e-05
3 *1103:X 0.000168083
4 *189:10 0.000250451
5 *1104:C *305:45 7.2491e-05
6 *1127:A2 *190:24 1.91597e-05
7 *1127:A2 *305:45 0.000158072
8 *189:10 *1128:B 6.88121e-05
9 *189:10 *232:150 9.38948e-05
10 *189:10 *235:70 6.60741e-05
11 *1127:A1 *1127:A2 1.93735e-05
12 *1127:B1 *1104:C 7.2491e-05
13 *1127:B1 *1127:A2 3.57349e-05
14 *188:12 *189:10 6.90254e-05
*RES
1 *1103:X *189:10 9.53 
2 *189:10 *1104:C 2.275 
3 *189:10 *1127:A2 3.445 
*END

*D_NET *190 0.00505549
*CONN
*I *1128:A I *D sky130_fd_sc_hd__nor2_1
*I *1131:A I *D sky130_fd_sc_hd__or2_1
*I *1106:A I *D sky130_fd_sc_hd__nand2_2
*I *1104:X O *D sky130_fd_sc_hd__and3_1
*CAP
1 *1128:A 0
2 *1131:A 0.000179191
3 *1106:A 0.000170413
4 *1104:X 0.000513102
5 *190:30 0.000892779
6 *190:24 0.00105628
7 *1106:A *1006:A2 2.12738e-05
8 *1106:A *192:18 1.77709e-05
9 *1131:A *1006:A2 0.000118321
10 *1131:A *235:16 2.01934e-05
11 *1131:A *235:70 6.04372e-05
12 *1131:A *327:20 7.03854e-05
13 *190:24 *1128:B 3.76132e-05
14 *190:24 *1147:A2 0
15 *190:24 *1147:A3 9.49878e-05
16 *190:24 *1157:CLK 4.77719e-05
17 *190:24 *232:150 3.93748e-05
18 *190:30 *958:A 0.000324022
19 *190:30 *967:A2 0
20 *190:30 *1147:A2 0.000386045
21 *190:30 *1157:CLK 3.75126e-05
22 *190:30 *1159:CLK 0
23 *190:30 *270:12 0.000173441
24 *190:30 *282:54 0.000158536
25 *973:B1 *190:30 0
26 *1001:A *190:30 4.92039e-05
27 *1003:C1 *190:30 0.00011272
28 *1127:A1 *190:24 6.12616e-05
29 *1127:A2 *190:24 1.91597e-05
30 *1127:B1 *190:24 4.66108e-05
31 *90:24 *1106:A 3.44125e-05
32 *90:24 *1131:A 0.000232403
33 *90:24 *190:30 6.24727e-05
34 *186:8 *190:24 1.77945e-05
*RES
1 *1104:X *190:24 10.9591 
2 *190:24 *190:30 14.5175 
3 *190:30 *1106:A 6.1575 
4 *190:30 *1131:A 8.67 
5 *190:24 *1128:A 1.6 
*END

*D_NET *191 0.00189393
*CONN
*I *1106:B I *D sky130_fd_sc_hd__nand2_2
*I *1131:B I *D sky130_fd_sc_hd__or2_1
*I *1105:X O *D sky130_fd_sc_hd__xor2_1
*CAP
1 *1106:B 0
2 *1131:B 0.000475597
3 *1105:X 0.000176479
4 *191:8 0.000652077
5 *1131:B *1129:B2 9.24256e-05
6 *1131:B *1132:A1 0.000110594
7 *1131:B *1132:A2 1.43396e-05
8 *1131:B *1132:A3 0.000179969
9 *1131:B *1132:B2 2.71912e-06
10 *1131:B *192:6 4.94474e-05
11 *1131:B *327:20 3.31771e-05
12 *191:8 *1006:A2 0.000107103
*RES
1 *1105:X *191:8 4.825 
2 *191:8 *1131:B 12.275 
3 *191:8 *1106:B 1.6 
*END

*D_NET *192 0.00571377
*CONN
*I *1132:A1 I *D sky130_fd_sc_hd__a32o_1
*I *1135:A I *D sky130_fd_sc_hd__xnor2_1
*I *1120:A1 I *D sky130_fd_sc_hd__o211a_1
*I *1122:A3 I *D sky130_fd_sc_hd__o31a_1
*I *1107:D I *D sky130_fd_sc_hd__nor4_1
*I *1106:Y O *D sky130_fd_sc_hd__nand2_2
*CAP
1 *1132:A1 3.40468e-05
2 *1135:A 0
3 *1120:A1 0.000222184
4 *1122:A3 0.000113457
5 *1107:D 0.000149012
6 *1106:Y 1.75832e-05
7 *192:35 0.000574644
8 *192:33 0.000431657
9 *192:18 0.00109899
10 *192:6 0.000808954
11 *1120:A1 *1120:A2 3.26889e-05
12 *1120:A1 *1121:B 7.60965e-05
13 *1122:A3 *316:22 0.000201428
14 *1132:A1 *1132:B1 2.20183e-05
15 *1132:A1 *1132:B2 2.68874e-05
16 *192:6 *1132:B2 2.65814e-06
17 *192:18 *1124:A2 0.000106735
18 *192:18 *1124:B1 0.000179987
19 *192:18 *1124:C1 1.15688e-05
20 *192:18 *1136:B2 0.000441329
21 *192:18 *207:10 9.50342e-06
22 *192:18 *210:16 0
23 *192:33 *1136:B2 0.000181657
24 *192:33 *207:10 0
25 *192:33 *327:20 0
26 *192:35 *1135:B 0.00012182
27 *192:35 *207:10 8.49205e-05
28 *1096:A *1122:A3 0
29 *1106:A *192:18 1.77709e-05
30 *1121:A *1120:A1 5.4155e-06
31 *1125:C_N *192:18 8.39647e-05
32 *1131:B *1132:A1 0.000110594
33 *1131:B *192:6 4.94474e-05
34 *90:24 *192:18 0.000405188
35 *172:34 *1120:A1 1.08758e-05
36 *183:12 *1120:A1 4.34908e-05
37 *183:22 *1122:A3 3.72007e-05
*RES
1 *1106:Y *192:6 2.05 
2 *192:6 *192:18 16.835 
3 *192:18 *1107:D 5.43 
4 *192:18 *192:33 5.795 
5 *192:33 *192:35 3.9 
6 *192:35 *1122:A3 8 
7 *192:35 *1120:A1 5.53 
8 *192:33 *1135:A 1.6 
9 *192:6 *1132:A1 2.74 
*END

*D_NET *193 0.00164592
*CONN
*I *1125:A I *D sky130_fd_sc_hd__or3b_2
*I *1123:A1 I *D sky130_fd_sc_hd__mux2_1
*I *1209:A I *D sky130_fd_sc_hd__buf_1
*I *1107:Y O *D sky130_fd_sc_hd__nor4_1
*CAP
1 *1125:A 0.000113469
2 *1123:A1 0
3 *1209:A 0.000125655
4 *1107:Y 3.70356e-05
5 *193:14 0.000265915
6 *193:8 0.000290765
7 *1125:A *1125:B 1.56428e-05
8 *1209:A *1113:B 0.000158441
9 *193:8 *207:10 7.1624e-05
10 *193:14 *1113:B 3.79793e-05
11 *193:14 *1123:A0 0.000158762
12 *193:14 *207:10 0.000220312
13 *193:14 *208:12 0
14 *181:32 *1209:A 2.9296e-05
15 *181:32 *193:14 0.000121019
*RES
1 *1107:Y *193:8 4.47 
2 *193:8 *193:14 5.795 
3 *193:14 *1209:A 4.135 
4 *193:14 *1123:A1 1.6 
5 *193:8 *1125:A 5.355 
*END

*D_NET *194 0.000264944
*CONN
*I *1112:A1 I *D sky130_fd_sc_hd__a211o_1
*I *1108:X O *D sky130_fd_sc_hd__or2_1
*CAP
1 *1112:A1 4.46299e-05
2 *1108:X 4.46299e-05
3 *1112:A1 *1112:A2 0.000115464
4 *1112:A1 *1112:B1 6.02202e-05
*RES
1 *1108:X *1112:A1 8.58 
*END

*D_NET *195 0.000653155
*CONN
*I *1112:A2 I *D sky130_fd_sc_hd__a211o_1
*I *1109:Y O *D sky130_fd_sc_hd__nand2_1
*CAP
1 *1112:A2 0.000151437
2 *1109:Y 0.000151437
3 *1108:B *1112:A2 4.99619e-05
4 *1109:A *1112:A2 4.35432e-05
5 *1112:A1 *1112:A2 0.000115464
6 *79:25 *1112:A2 2.75145e-05
7 *164:23 *1112:A2 0.000113797
*RES
1 *1109:Y *1112:A2 10.065 
*END

*D_NET *196 0.000366622
*CONN
*I *1112:B1 I *D sky130_fd_sc_hd__a211o_1
*I *1110:X O *D sky130_fd_sc_hd__o21a_1
*CAP
1 *1112:B1 8.73902e-05
2 *1110:X 8.73902e-05
3 *1112:B1 *315:38 1.19928e-05
4 *1112:A1 *1112:B1 6.02202e-05
5 *79:25 *1112:B1 5.83121e-06
6 *141:24 *1112:B1 0.000113797
*RES
1 *1110:X *1112:B1 9.03 
*END

*D_NET *197 0.000398524
*CONN
*I *1112:C1 I *D sky130_fd_sc_hd__a211o_1
*I *1111:X O *D sky130_fd_sc_hd__o211a_1
*CAP
1 *1112:C1 8.97607e-05
2 *1111:X 8.97607e-05
3 *1112:C1 *1133:B1 1.34503e-05
4 *1095:A *1112:C1 0.000131526
5 *101:19 *1112:C1 0
6 *141:24 *1112:C1 7.4027e-05
*RES
1 *1111:X *1112:C1 9.495 
*END

*D_NET *198 0.002297
*CONN
*I *1113:C I *D sky130_fd_sc_hd__nand3_2
*I *1115:B1 I *D sky130_fd_sc_hd__a21oi_2
*I *1112:X O *D sky130_fd_sc_hd__a211o_1
*CAP
1 *1113:C 0.000175092
2 *1115:B1 0
3 *1112:X 0.000428077
4 *198:12 0.000603169
5 *1113:C *1124:A2 0.00010899
6 *1113:C *1126:A2 2.45229e-05
7 *1113:C *1126:A3 6.9451e-05
8 *1113:C *1136:B2 0.000166346
9 *1113:C *1138:A 0.000338629
10 *1113:C *201:6 8.23457e-05
11 *198:12 *1124:C1 0.00015992
12 *198:12 *1133:B1 6.77062e-05
13 *198:12 *1137:B2 7.27495e-05
14 *1126:C1 *1113:C 0
*RES
1 *1112:X *198:12 11.57 
2 *198:12 *1115:B1 1.6 
3 *198:12 *1113:C 11.06 
*END

*D_NET *199 0.000835315
*CONN
*I *1114:B I *D sky130_fd_sc_hd__nand2_2
*I *1126:B1 I *D sky130_fd_sc_hd__o311ai_4
*I *1113:Y O *D sky130_fd_sc_hd__nand3_2
*CAP
1 *1114:B 0
2 *1126:B1 4.14521e-05
3 *1113:Y 0.000193826
4 *199:8 0.000235278
5 *1126:B1 *200:10 0.000141599
6 *1126:B1 *327:20 0.000166346
7 *199:8 *200:10 4.41506e-05
8 *1114:A *1126:B1 1.26626e-05
*RES
1 *1113:Y *199:8 4.48 
2 *199:8 *1126:B1 7.49 
3 *199:8 *1114:B 1.6 
*END

*D_NET *200 0.00973295
*CONN
*I *1138:A I *D sky130_fd_sc_hd__inv_2
*I *1136:A1 I *D sky130_fd_sc_hd__a22o_1
*I *1129:A1 I *D sky130_fd_sc_hd__a22o_1
*I *1132:B1 I *D sky130_fd_sc_hd__a32o_1
*I *1114:Y O *D sky130_fd_sc_hd__nand2_2
*CAP
1 *1138:A 0.00201667
2 *1136:A1 0
3 *1129:A1 0
4 *1132:B1 0.000139636
5 *1114:Y 0.000106484
6 *200:30 0.000409728
7 *200:16 0.000392184
8 *200:10 0.00224525
9 *1132:B1 *1132:B2 7.60181e-05
10 *1132:B1 *1133:B1 0.000122801
11 *1132:B1 *315:38 5.92499e-05
12 *1138:A *1137:A2 0.000344465
13 *1138:A *1137:B2 0.000136204
14 *1138:A *1139:B1 7.32745e-05
15 *1138:A *201:6 2.10152e-05
16 *1138:A *212:10 0.000161529
17 *1138:A *315:38 0.000345638
18 *200:10 *327:20 2.23485e-05
19 *200:16 *1136:B1 2.75229e-05
20 *200:16 *1136:B2 8.49205e-05
21 *200:16 *212:10 0
22 *200:16 *327:20 8.52172e-05
23 *200:30 *1129:B1 4.66108e-05
24 *200:30 *1133:A1 5.4155e-06
25 *200:30 *1133:B1 0.000207065
26 *200:30 *1133:B2 4.36438e-05
27 *200:30 *212:10 2.86623e-05
28 *200:30 *212:16 9.82856e-06
29 *200:30 *315:38 4.96505e-05
30 *200:30 *327:20 4.99341e-06
31 *1015:A1 *1138:A 0.000125238
32 *1019:C_N *1138:A 8.40269e-05
33 *1020:A *1138:A 1.15688e-05
34 *1020:B_N *1138:A 7.4027e-05
35 *1028:A2 *1138:A 0.00020087
36 *1031:A1 *1138:A 4.80285e-05
37 *1095:A *1138:A 0.000115779
38 *1111:A1 *1138:A 4.66108e-05
39 *1111:A2 *1138:A 3.45679e-05
40 *1113:C *1138:A 0.000338629
41 *1114:A *200:10 0.000141599
42 *1126:B1 *200:10 0.000141599
43 *1126:C1 *1138:A 4.82863e-05
44 *1132:A1 *1132:B1 2.20183e-05
45 *1160:D *1138:A 0.000123955
46 *90:24 *1132:B1 0.000228508
47 *90:34 *200:10 4.12825e-05
48 *90:34 *200:16 0
49 *99:34 *1138:A 8.89217e-05
50 *114:12 *1138:A 0.000122337
51 *179:8 *1138:A 0.000312182
52 *181:8 *1138:A 4.40385e-05
53 *181:21 *1138:A 2.86975e-05
54 *199:8 *200:10 4.41506e-05
*RES
1 *1114:Y *200:10 6.54 
2 *200:10 *200:16 4.685 
3 *200:16 *200:30 9.4 
4 *200:30 *1132:B1 9.5975 
5 *200:30 *1129:A1 1.6 
6 *200:16 *1136:A1 1.6 
7 *200:10 *1138:A 44.65 
*END

*D_NET *201 0.000904832
*CONN
*I *1124:A2 I *D sky130_fd_sc_hd__o211ai_2
*I *1126:A1 I *D sky130_fd_sc_hd__o311ai_4
*I *1115:Y O *D sky130_fd_sc_hd__a21oi_2
*CAP
1 *1124:A2 0.0001367
2 *1126:A1 0
3 *1115:Y 5.86494e-05
4 *201:6 0.000195349
5 *1124:A2 *1126:A2 0.000119866
6 *1124:A2 *1136:B2 5.91234e-05
7 *1124:A2 *210:16 5.18317e-06
8 *201:6 *1126:A2 1.08758e-05
9 *1113:C *1124:A2 0.00010899
10 *1113:C *201:6 8.23457e-05
11 *1138:A *201:6 2.10152e-05
12 *192:18 *1124:A2 0.000106735
*RES
1 *1115:Y *201:6 2.74 
2 *201:6 *1126:A1 1.6 
3 *201:6 *1124:A2 9.14 
*END

*D_NET *202 0.00133796
*CONN
*I *1134:A1 I *D sky130_fd_sc_hd__o21a_1
*I *1117:A I *D sky130_fd_sc_hd__nor2_1
*I *1118:A I *D sky130_fd_sc_hd__nand2_1
*I *1116:X O *D sky130_fd_sc_hd__and2_1
*CAP
1 *1134:A1 0.000135001
2 *1117:A 0
3 *1118:A 0.000110179
4 *1116:X 4.96446e-05
5 *202:21 0.000281458
6 *202:8 0.000306281
7 *1134:A1 *1134:B1 8.89751e-05
8 *1134:A1 *295:16 0
9 *202:21 *1134:B1 2.7881e-05
10 *202:21 *295:16 0
11 *1092:A1 *202:8 6.54361e-06
12 *1092:A1 *202:21 1.10435e-05
13 *1092:A2 *1118:A 4.77769e-05
14 *1092:A2 *202:8 7.03219e-05
15 *1092:A3 *202:8 1.64067e-05
16 *1092:A3 *202:21 0.000101674
17 *1092:A4 *1118:A 3.56402e-05
18 *1092:B1 *1118:A 4.39425e-05
19 *1096:A *202:21 0
20 *1118:B *1118:A 5.19006e-06
21 *171:16 *1134:A1 0
*RES
1 *1116:X *202:8 4.725 
2 *202:8 *1118:A 5.79 
3 *202:8 *202:21 2.655 
4 *202:21 *1117:A 3.6 
5 *202:21 *1134:A1 5.94 
*END

*D_NET *203 0.000439776
*CONN
*I *1120:A2 I *D sky130_fd_sc_hd__o211a_1
*I *1117:Y O *D sky130_fd_sc_hd__nor2_1
*CAP
1 *1120:A2 5.64945e-05
2 *1117:Y 5.64945e-05
3 *1120:A2 *1120:B1 5.66353e-05
4 *1117:B *1120:A2 2.75145e-05
5 *1120:A1 *1120:A2 3.26889e-05
6 *172:6 *1120:A2 0
7 *172:34 *1120:A2 0.000198046
8 *183:12 *1120:A2 1.19028e-05
*RES
1 *1117:Y *1120:A2 5.39 
*END

*D_NET *204 0.00176779
*CONN
*I *1120:B1 I *D sky130_fd_sc_hd__o211a_1
*I *1134:B1 I *D sky130_fd_sc_hd__o21a_1
*I *1118:Y O *D sky130_fd_sc_hd__nand2_1
*CAP
1 *1120:B1 4.92641e-05
2 *1134:B1 9.75039e-05
3 *1118:Y 0.000234639
4 *204:14 0.000381407
5 *1134:B1 *1120:C1 0.000136877
6 *204:14 *295:16 8.20694e-05
7 *1092:A3 *204:14 4.82919e-05
8 *1096:A *1134:B1 0
9 *1117:B *1120:B1 2.46087e-05
10 *1117:B *204:14 0.000110673
11 *1120:A2 *1120:B1 5.66353e-05
12 *1134:A1 *1134:B1 8.89751e-05
13 *1134:A2 *1134:B1 0
14 *172:6 *204:14 0
15 *183:12 *1120:B1 0.000112561
16 *183:12 *204:14 0.000316401
17 *202:21 *1134:B1 2.7881e-05
*RES
1 *1118:Y *204:14 10.715 
2 *204:14 *1134:B1 8 
3 *204:14 *1120:B1 3.355 
*END

*D_NET *205 0.00107663
*CONN
*I *1120:C1 I *D sky130_fd_sc_hd__o211a_1
*I *1119:Y O *D sky130_fd_sc_hd__nand2_1
*CAP
1 *1120:C1 0.000378263
2 *1119:Y 0.000378263
3 *1096:A *1120:C1 0
4 *1134:A2 *1120:C1 6.71882e-05
5 *1134:B1 *1120:C1 0.000136877
6 *1198:A *1120:C1 6.77501e-05
7 *171:12 *1120:C1 4.82863e-05
*RES
1 *1119:Y *1120:C1 13.425 
*END

*D_NET *206 0.000191831
*CONN
*I *1121:B I *D sky130_fd_sc_hd__xnor2_2
*I *1120:X O *D sky130_fd_sc_hd__o211a_1
*CAP
1 *1121:B 2.13419e-05
2 *1120:X 2.13419e-05
3 *1120:A1 *1121:B 7.60965e-05
4 *183:12 *1121:B 7.30505e-05
*RES
1 *1120:X *1121:B 4.34 
*END

*D_NET *207 0.00245306
*CONN
*I *1126:A2 I *D sky130_fd_sc_hd__o311ai_4
*I *1124:B1 I *D sky130_fd_sc_hd__o211ai_2
*I *1121:Y O *D sky130_fd_sc_hd__xnor2_2
*CAP
1 *1126:A2 0.00012566
2 *1124:B1 0.000124575
3 *1121:Y 0.000446291
4 *207:10 0.000696526
5 *1124:B1 *1124:C1 0.000182349
6 *1124:B1 *210:10 0
7 *207:10 *1123:A0 1.01155e-05
8 *207:10 *1124:C1 6.28498e-05
9 *207:10 *1135:B 2.43962e-05
10 *207:10 *316:22 0
11 *1113:C *1126:A2 2.45229e-05
12 *1124:A2 *1126:A2 0.000119866
13 *1125:C_N *207:10 5.86833e-05
14 *192:18 *1124:B1 0.000179987
15 *192:18 *207:10 9.50342e-06
16 *192:33 *207:10 0
17 *192:35 *207:10 8.49205e-05
18 *193:8 *207:10 7.1624e-05
19 *193:14 *207:10 0.000220312
20 *201:6 *1126:A2 1.08758e-05
*RES
1 *1121:Y *207:10 12.405 
2 *207:10 *1124:B1 6.615 
3 *207:10 *1126:A2 5.805 
*END

*D_NET *208 0.00104951
*CONN
*I *1125:B I *D sky130_fd_sc_hd__or3b_2
*I *1123:A0 I *D sky130_fd_sc_hd__mux2_1
*I *1122:X O *D sky130_fd_sc_hd__o31a_1
*CAP
1 *1125:B 7.12289e-05
2 *1123:A0 8.13331e-05
3 *1122:X 0.000215308
4 *208:12 0.00036787
5 *1123:A0 *1113:B 4.89295e-05
6 *1123:A0 *316:22 0
7 *208:12 *316:22 6.9766e-05
8 *1125:A *1125:B 1.56428e-05
9 *181:21 *1123:A0 1.0555e-05
10 *193:14 *1123:A0 0.000158762
11 *193:14 *208:12 0
12 *207:10 *1123:A0 1.01155e-05
*RES
1 *1122:X *208:12 8.885 
2 *208:12 *1123:A0 7.685 
3 *208:12 *1125:B 2.395 
*END

*D_NET *209 0.000966092
*CONN
*I *1124:C1 I *D sky130_fd_sc_hd__o211ai_2
*I *1123:X O *D sky130_fd_sc_hd__mux2_1
*CAP
1 *1124:C1 0.000216538
2 *1123:X 0.000216538
3 *1124:C1 *1113:B 8.33341e-05
4 *1124:C1 *1137:B2 3.29947e-05
5 *1124:B1 *1124:C1 0.000182349
6 *192:18 *1124:C1 1.15688e-05
7 *198:12 *1124:C1 0.00015992
8 *207:10 *1124:C1 6.28498e-05
*RES
1 *1123:X *1124:C1 11.955 
*END

*D_NET *210 0.00162147
*CONN
*I *1136:A2 I *D sky130_fd_sc_hd__a22o_1
*I *1129:A2 I *D sky130_fd_sc_hd__a22o_1
*I *1132:B2 I *D sky130_fd_sc_hd__a32o_1
*I *1124:Y O *D sky130_fd_sc_hd__o211ai_2
*CAP
1 *1136:A2 4.94091e-05
2 *1129:A2 0
3 *1132:B2 0.00024063
4 *1124:Y 8.21989e-05
5 *210:16 0.000400797
6 *210:10 0.000291775
7 *1132:B2 *1132:A2 4.72918e-05
8 *1136:A2 *1136:B1 2.75229e-05
9 *1136:A2 *1136:B2 0.000121437
10 *1136:A2 *1137:B2 2.16917e-05
11 *210:16 *1132:A2 8.53113e-06
12 *210:16 *212:10 4.24292e-06
13 *210:16 *212:16 9.68395e-05
14 *1124:A2 *210:16 5.18317e-06
15 *1124:B1 *210:10 0
16 *1131:B *1132:B2 2.71912e-06
17 *1132:A1 *1132:B2 2.68874e-05
18 *1132:B1 *1132:B2 7.60181e-05
19 *90:24 *1136:A2 3.74161e-05
20 *90:24 *210:10 6.30071e-05
21 *90:24 *210:16 0
22 *90:34 *210:16 1.52184e-05
23 *192:6 *1132:B2 2.65814e-06
24 *192:18 *210:16 0
*RES
1 *1124:Y *210:10 3.115 
2 *210:10 *210:16 4.685 
3 *210:16 *1132:B2 7.335 
4 *210:16 *1129:A2 3.6 
5 *210:10 *1136:A2 3.085 
*END

*D_NET *211 0.00109709
*CONN
*I *1126:A3 I *D sky130_fd_sc_hd__o311ai_4
*I *1125:X O *D sky130_fd_sc_hd__or3b_2
*CAP
1 *1126:A3 0.000416948
2 *1125:X 0.000416948
3 *1126:A3 *1136:B2 0
4 *1126:A3 *327:20 0
5 *1113:C *1126:A3 6.9451e-05
6 *1114:A *1126:A3 0.000154488
7 *1125:C_N *1126:A3 2.97522e-05
8 *90:34 *1126:A3 9.50342e-06
*RES
1 *1125:X *1126:A3 14.07 
*END

*D_NET *212 0.00272577
*CONN
*I *1136:B1 I *D sky130_fd_sc_hd__a22o_1
*I *1129:B1 I *D sky130_fd_sc_hd__a22o_1
*I *1132:A2 I *D sky130_fd_sc_hd__a32o_1
*I *1126:Y O *D sky130_fd_sc_hd__o311ai_4
*CAP
1 *1136:B1 0.000111316
2 *1129:B1 1.3714e-05
3 *1132:A2 0.000147765
4 *1126:Y 0.000418588
5 *212:16 0.000288363
6 *212:10 0.000656787
7 *1129:B1 *315:38 2.75145e-05
8 *1132:A2 *1129:B2 0.000176414
9 *1132:A2 *1132:A3 8.32866e-05
10 *1132:A2 *1133:B2 5.83121e-06
11 *1136:B1 *1136:B2 9.80032e-06
12 *212:16 *1129:B2 8.53113e-06
13 *1126:C1 *212:10 0.000109947
14 *1131:B *1132:A2 1.43396e-05
15 *1132:B2 *1132:A2 4.72918e-05
16 *1136:A2 *1136:B1 2.75229e-05
17 *1138:A *212:10 0.000161529
18 *90:34 *212:10 0.00016163
19 *90:34 *212:16 3.33651e-05
20 *200:16 *1136:B1 2.75229e-05
21 *200:16 *212:10 0
22 *200:30 *1129:B1 4.66108e-05
23 *200:30 *212:10 2.86623e-05
24 *200:30 *212:16 9.82856e-06
25 *210:16 *1132:A2 8.53113e-06
26 *210:16 *212:10 4.24292e-06
27 *210:16 *212:16 9.68395e-05
*RES
1 *1126:Y *212:10 9.99 
2 *212:10 *212:16 2.28 
3 *212:16 *1132:A2 7.245 
4 *212:16 *1129:B1 4.05 
5 *212:10 *1136:B1 5.1 
*END

*D_NET *213 0.00085598
*CONN
*I *1128:B I *D sky130_fd_sc_hd__nor2_1
*I *1127:Y O *D sky130_fd_sc_hd__a21oi_1
*CAP
1 *1128:B 0.000301242
2 *1127:Y 0.000301242
3 *1128:B *1157:CLK 1.83756e-05
4 *1128:B *1157:D 4.07945e-05
5 *1128:B *232:150 5.90216e-05
6 *1128:B *235:70 2.88783e-05
7 *189:10 *1128:B 6.88121e-05
8 *190:24 *1128:B 3.76132e-05
*RES
1 *1127:Y *1128:B 11.88 
*END

*D_NET *214 0.00301727
*CONN
*I *1129:B2 I *D sky130_fd_sc_hd__a22o_1
*I *1128:Y O *D sky130_fd_sc_hd__nor2_1
*CAP
1 *1129:B2 0.000539898
2 *1128:Y 0.000539898
3 *1129:B2 *1133:B2 0.000139245
4 *1129:B2 *1147:A3 0.000296088
5 *1129:B2 *1157:D 8.57024e-05
6 *1129:B2 *1159:CLK 0.000280446
7 *1129:B2 *235:70 0.000765161
8 *1129:B2 *327:20 0
9 *1003:B1 *1129:B2 4.75977e-05
10 *1131:B *1129:B2 9.24256e-05
11 *1132:A2 *1129:B2 0.000176414
12 *90:24 *1129:B2 4.58691e-05
13 *212:16 *1129:B2 8.53113e-06
*RES
1 *1128:Y *1129:B2 22.425 
*END

*D_NET *215 0.00707383
*CONN
*I *1130:B2 I *D sky130_fd_sc_hd__a22o_1
*I *1129:X O *D sky130_fd_sc_hd__a22o_1
*CAP
1 *1130:B2 0.00195596
2 *1129:X 0.00195596
3 *1130:B2 *921:A 0.000308416
4 *1130:B2 *1007:A 1.14192e-05
5 *1130:B2 *1007:D 5.19006e-06
6 *1130:B2 *1013:A 2.86975e-05
7 *1130:B2 *234:6 4.40419e-05
8 *1130:B2 *269:36 7.08281e-05
9 *1130:B2 *270:28 0.000129177
10 *1130:B2 *270:30 0.000127316
11 *1130:B2 *315:38 0.000663946
12 *1130:B2 *330:10 0.000135792
13 *1013:B *1130:B2 0.00012208
14 *1013:C_N *1130:B2 3.66286e-05
15 *1019:B *1130:B2 0.000341386
16 *1022:C *1130:B2 0.00025633
17 *1023:A2 *1130:B2 8.46496e-05
18 *1023:B1 *1130:B2 5.30673e-05
19 *1110:B1 *1130:B2 0.00011964
20 *92:14 *1130:B2 1.24955e-06
21 *93:10 *1130:B2 0.000249914
22 *94:8 *1130:B2 8.57907e-05
23 *98:6 *1130:B2 0.000267846
24 *99:10 *1130:B2 1.85044e-05
*RES
1 *1129:X *1130:B2 42.57 
*END

*D_NET *216 0.000928537
*CONN
*I *1132:A3 I *D sky130_fd_sc_hd__a32o_1
*I *1131:X O *D sky130_fd_sc_hd__or2_1
*CAP
1 *1132:A3 0.00019365
2 *1131:X 0.00019365
3 *1132:A3 *1133:B2 1.90662e-05
4 *1132:A3 *1157:RESET_B 9.54399e-05
5 *1132:A3 *327:20 9.37731e-05
6 *1131:B *1132:A3 0.000179969
7 *1132:A2 *1132:A3 8.32866e-05
8 *1159:D *1132:A3 6.97034e-05
*RES
1 *1131:X *1132:A3 12.12 
*END

*D_NET *217 0.000478661
*CONN
*I *1133:B2 I *D sky130_fd_sc_hd__a22o_1
*I *1132:X O *D sky130_fd_sc_hd__a32o_1
*CAP
1 *1133:B2 0.000135438
2 *1132:X 0.000135438
3 *1133:B2 *327:20 0
4 *1129:B2 *1133:B2 0.000139245
5 *1132:A2 *1133:B2 5.83121e-06
6 *1132:A3 *1133:B2 1.90662e-05
7 *200:30 *1133:B2 4.36438e-05
*RES
1 *1132:X *1133:B2 9.63 
*END

*D_NET *218 0.001599
*CONN
*I *1135:B I *D sky130_fd_sc_hd__xnor2_1
*I *1134:X O *D sky130_fd_sc_hd__o21a_1
*CAP
1 *1135:B 0.000643469
2 *1134:X 0.000643469
3 *1135:B *316:22 0
4 *1134:A2 *1135:B 7.75783e-05
5 *1203:A *1135:B 8.8266e-05
6 *192:35 *1135:B 0.00012182
7 *207:10 *1135:B 2.43962e-05
*RES
1 *1134:X *1135:B 17.25 
*END

*D_NET *219 0.00228843
*CONN
*I *1136:B2 I *D sky130_fd_sc_hd__a22o_1
*I *1135:Y O *D sky130_fd_sc_hd__xnor2_1
*CAP
1 *1136:B2 0.000536761
2 *1135:Y 0.000536761
3 *1136:B2 *327:20 0
4 *1113:C *1136:B2 0.000166346
5 *1124:A2 *1136:B2 5.91234e-05
6 *1126:A3 *1136:B2 0
7 *1136:A2 *1136:B2 0.000121437
8 *1136:B1 *1136:B2 9.80032e-06
9 *90:34 *1136:B2 0.000150299
10 *192:18 *1136:B2 0.000441329
11 *192:33 *1136:B2 0.000181657
12 *200:16 *1136:B2 8.49205e-05
*RES
1 *1135:Y *1136:B2 19.875 
*END

*D_NET *220 0.00662999
*CONN
*I *1137:B2 I *D sky130_fd_sc_hd__a22o_1
*I *1136:X O *D sky130_fd_sc_hd__a22o_1
*CAP
1 *1137:B2 0.00208743
2 *1136:X 0.00208743
3 *1137:B2 *1133:B1 0.000944491
4 *1137:B2 *1137:A2 0.000123414
5 *1137:B2 *269:42 5.30732e-05
6 *1015:A1 *1137:B2 0.00021316
7 *1015:B1_N *1137:B2 8.49101e-05
8 *1019:A *1137:B2 3.57349e-05
9 *1019:C_N *1137:B2 0.000103453
10 *1028:A2 *1137:B2 0.000390454
11 *1031:A1 *1137:B2 8.49205e-05
12 *1124:C1 *1137:B2 3.29947e-05
13 *1136:A2 *1137:B2 2.16917e-05
14 *1138:A *1137:B2 0.000136204
15 *90:24 *1137:B2 0.000157875
16 *198:12 *1137:B2 7.27495e-05
*RES
1 *1136:X *1137:B2 35.075 
*END

*D_NET *221 0.00147817
*CONN
*I *1139:B2 I *D sky130_fd_sc_hd__a22o_1
*I *1138:Y O *D sky130_fd_sc_hd__inv_2
*CAP
1 *1139:B2 0.000521643
2 *1138:Y 0.000521643
3 *1139:B2 *1139:A1 0.00013987
4 *1139:B2 *1139:A2 0
5 *1139:B2 *1139:B1 1.33293e-05
6 *1139:B2 *1160:CLK 9.14049e-05
7 *1139:B2 *1161:CLK 2.75145e-05
8 *1139:B2 *330:10 0
9 *1160:D *1139:B2 0.000162769
10 *1161:D *1139:B2 0
*RES
1 *1138:Y *1139:B2 16.695 
*END

*D_NET *222 0.00159953
*CONN
*I *1141:B1 I *D sky130_fd_sc_hd__a31o_1
*I *1140:X O *D sky130_fd_sc_hd__and2_1
*CAP
1 *1141:B1 0.000430388
2 *1140:X 0.000430388
3 *1141:B1 *927:B 1.10359e-05
4 *1141:B1 *927:C 5.83121e-06
5 *1141:B1 *980:A2 0.00028447
6 *1141:B1 *1141:A3 0.00012398
7 *1141:B1 *1153:A1 8.34281e-06
8 *1141:B1 *1184:A 0.000193129
9 *1141:B1 *281:33 0.000111969
*RES
1 *1140:X *1141:B1 15.825 
*END

*D_NET *223 0.000105481
*CONN
*I *1143:B1 I *D sky130_fd_sc_hd__a31o_1
*I *1142:X O *D sky130_fd_sc_hd__and2_1
*CAP
1 *1143:B1 5.27404e-05
2 *1142:X 5.27404e-05
*RES
1 *1142:X *1143:B1 3.995 
*END

*D_NET *224 0.00072309
*CONN
*I *1145:B1 I *D sky130_fd_sc_hd__a31o_1
*I *1144:X O *D sky130_fd_sc_hd__and2_1
*CAP
1 *1145:B1 0.000218786
2 *1144:X 0.000218786
3 *1145:B1 *1145:A1 0
4 *1145:B1 *1149:A3 0.000125236
5 *1145:B1 *232:118 0.000160282
*RES
1 *1144:X *1145:B1 12.12 
*END

*D_NET *225 0.000105481
*CONN
*I *1147:B1 I *D sky130_fd_sc_hd__a31o_1
*I *1146:X O *D sky130_fd_sc_hd__and2_1
*CAP
1 *1147:B1 5.27404e-05
2 *1146:X 5.27404e-05
*RES
1 *1146:X *1147:B1 3.995 
*END

*D_NET *226 0.000594188
*CONN
*I *1149:B1 I *D sky130_fd_sc_hd__a31o_1
*I *1148:X O *D sky130_fd_sc_hd__and2_1
*CAP
1 *1149:B1 0.000157616
2 *1148:X 0.000157616
3 *1149:B1 *1166:RESET_B 6.97275e-05
4 *1149:B1 *232:118 0.000160288
5 *1149:B1 *331:12 4.89395e-05
*RES
1 *1148:X *1149:B1 11.07 
*END

*D_NET *227 0.000312883
*CONN
*I *1151:B1 I *D sky130_fd_sc_hd__a31o_1
*I *1150:X O *D sky130_fd_sc_hd__and2_1
*CAP
1 *1151:B1 3.55313e-05
2 *1150:X 3.55313e-05
3 *1151:B1 *1150:A 9.30787e-05
4 *1151:B1 *231:31 3.09164e-05
5 *1151:B1 *288:10 0.000117825
*RES
1 *1150:X *1151:B1 8.58 
*END

*D_NET *228 0.000396543
*CONN
*I *1153:B1 I *D sky130_fd_sc_hd__a31o_1
*I *1152:X O *D sky130_fd_sc_hd__and2_1
*CAP
1 *1153:B1 7.15703e-05
2 *1152:X 7.15703e-05
3 *1153:B1 *1154:A 2.69153e-05
4 *1153:B1 *1155:A1 0.000113891
5 *1153:B1 *231:31 0.000112595
*RES
1 *1152:X *1153:B1 9.03 
*END

*D_NET *229 0.000267376
*CONN
*I *1155:B1 I *D sky130_fd_sc_hd__a31o_1
*I *1154:X O *D sky130_fd_sc_hd__and2_1
*CAP
1 *1155:B1 2.84706e-05
2 *1154:X 2.84706e-05
3 *1155:B1 *1155:A1 0.000121023
4 *1155:B1 *1155:A2 4.66108e-05
5 *1155:B1 *1162:RESET_B 4.2801e-05
*RES
1 *1154:X *1155:B1 4.34 
*END

*D_NET *230 0.0203735
*CONN
*I *957:A2 I *D sky130_fd_sc_hd__o21ba_1
*I *918:A I *D sky130_fd_sc_hd__inv_2
*I *1151:A2 I *D sky130_fd_sc_hd__a31o_1
*I *1149:A2 I *D sky130_fd_sc_hd__a31o_1
*I *1143:A2 I *D sky130_fd_sc_hd__a31o_1
*I *1147:A2 I *D sky130_fd_sc_hd__a31o_1
*I *1145:A2 I *D sky130_fd_sc_hd__a31o_1
*I *1141:A2 I *D sky130_fd_sc_hd__a31o_1
*I *1153:A2 I *D sky130_fd_sc_hd__a31o_1
*I *1155:A2 I *D sky130_fd_sc_hd__a31o_1
*I *917:X O *D sky130_fd_sc_hd__clkbuf_4
*CAP
1 *957:A2 0.000185334
2 *918:A 0
3 *1151:A2 0.000217282
4 *1149:A2 0.000188081
5 *1143:A2 6.97081e-05
6 *1147:A2 0.00133754
7 *1145:A2 0
8 *1141:A2 4.20745e-05
9 *1153:A2 3.09644e-05
10 *1155:A2 0.000185047
11 *917:X 0.00022258
12 *230:94 0.00153669
13 *230:83 0.000212476
14 *230:79 0.00259744
15 *230:46 0.00257003
16 *230:37 0.000348703
17 *230:20 0.000412231
18 *230:14 0.000357675
19 *230:12 0.000342599
20 *230:10 0.000721196
21 *957:A2 *957:B1_N 4.30166e-05
22 *957:A2 *269:8 4.66108e-05
23 *1141:A2 *1141:A1 7.03219e-05
24 *1143:A2 *1142:A 0
25 *1143:A2 *1142:B 0
26 *1143:A2 *1143:A1 1.19928e-05
27 *1143:A2 *1143:A3 5.83121e-06
28 *1147:A2 *939:A 0
29 *1147:A2 *1143:A3 1.91597e-05
30 *1147:A2 *1147:A1 0.000309017
31 *1147:A2 *1159:CLK 2.03321e-05
32 *1147:A2 *1163:CLK 0.000119263
33 *1147:A2 *241:123 0
34 *1147:A2 *268:95 0.000175964
35 *1147:A2 *282:58 6.4422e-05
36 *1149:A2 *1149:A3 0.000159905
37 *1151:A2 *1154:B 0.00020208
38 *1151:A2 *1155:A1 2.99532e-05
39 *1151:A2 *231:23 8.41307e-05
40 *1151:A2 *268:14 4.77719e-05
41 *1151:A2 *268:18 4.77757e-05
42 *1153:A2 *1153:A1 3.13354e-05
43 *1153:A2 *1153:A3 5.35313e-05
44 *1155:A2 *1154:B 0
45 *1155:A2 *1155:A1 1.91597e-05
46 *1155:A2 *1155:A3 0.000168811
47 *1155:A2 *1162:RESET_B 0.000120272
48 *1155:A2 *1168:CLK 3.68942e-05
49 *1155:A2 *268:24 2.84864e-05
50 *230:10 *956:B 5.08127e-05
51 *230:10 *232:14 2.305e-05
52 *230:10 *269:21 0.000287323
53 *230:10 *282:21 9.14049e-05
54 *230:10 *316:135 1.73877e-05
55 *230:12 *956:B 0.00119367
56 *230:12 *232:14 0.00113903
57 *230:12 *268:24 9.50342e-06
58 *230:12 *286:10 0
59 *230:14 *268:24 5.16418e-05
60 *230:14 *286:10 0
61 *230:20 *268:24 0.000116475
62 *230:20 *281:33 2.01565e-05
63 *230:20 *286:10 0
64 *230:37 *1153:A3 8.52883e-05
65 *230:37 *268:24 3.57349e-05
66 *230:37 *281:33 9.76407e-06
67 *230:46 *1153:A1 0.000227078
68 *230:46 *281:33 6.07575e-06
69 *230:79 *931:A 0.00030153
70 *230:79 *1153:A1 0.000296606
71 *230:79 *1162:CLK 0.00015844
72 *230:79 *1166:CLK 2.68526e-05
73 *230:79 *1183:A 4.31915e-05
74 *230:79 *1184:A 3.97492e-05
75 *230:79 *244:12 0.000199002
76 *230:79 *281:10 4.04632e-05
77 *230:79 *296:18 0.000250799
78 *230:83 *1145:A1 9.12494e-06
79 *230:94 *1145:A1 0.000490789
80 *230:94 *1166:CLK 0
81 *230:94 *268:101 0.000468919
82 *1046:C *230:10 2.9289e-05
83 *1100:A *1147:A2 2.60366e-05
84 *1155:B1 *1155:A2 4.66108e-05
85 *1156:D *957:A2 1.16854e-05
86 *1165:D *1147:A2 1.56428e-05
87 *1166:D *230:79 0.000119222
88 *1167:D *1151:A2 9.09788e-06
89 *1168:D *1155:A2 0.000151346
90 *112:10 *230:10 0
91 *160:16 *1147:A2 0.000154052
92 *162:14 *1147:A2 0.000240943
93 *190:24 *1147:A2 0
94 *190:30 *1147:A2 0.000386045
*RES
1 *917:X *230:10 8.325 
2 *230:10 *230:12 14.13 
3 *230:12 *230:14 0.615 
4 *230:14 *230:20 3.665 
5 *230:20 *1155:A2 10.265 
6 *230:20 *230:37 1.485 
7 *230:37 *1153:A2 2.47 
8 *230:37 *230:46 2.52 
9 *230:46 *1141:A2 6.47 
10 *230:46 *230:79 38.79 
11 *230:79 *230:83 1.065 
12 *230:83 *1145:A2 3.6 
13 *230:83 *230:94 7.715 
14 *230:94 *1147:A2 29.975 
15 *230:94 *1143:A2 2.665 
16 *230:79 *1149:A2 6.705 
17 *230:14 *1151:A2 11.095 
18 *230:12 *918:A 3.6 
19 *230:10 *957:A2 6.39 
*END

*D_NET *231 0.00354764
*CONN
*I *1150:A I *D sky130_fd_sc_hd__and2_1
*I *1152:A I *D sky130_fd_sc_hd__and2_1
*I *1154:A I *D sky130_fd_sc_hd__and2_1
*I *919:A I *D sky130_fd_sc_hd__clkbuf_4
*I *918:Y O *D sky130_fd_sc_hd__inv_2
*CAP
1 *1150:A 0.000122007
2 *1152:A 7.34331e-05
3 *1154:A 1.15855e-05
4 *919:A 0.000368366
5 *918:Y 0
6 *231:31 0.000247687
7 *231:23 0.000348148
8 *231:4 0.000431839
9 *919:A *1154:B 4.0843e-05
10 *919:A *1182:A 5.05437e-05
11 *919:A *232:6 5.31309e-05
12 *919:A *232:100 3.38341e-05
13 *919:A *268:18 1.08758e-05
14 *1150:A *926:A 6.0011e-05
15 *1150:A *1155:A1 0.000125885
16 *1150:A *1167:CLK 0.000160635
17 *1150:A *288:10 3.14025e-05
18 *1152:A *1152:B 4.24465e-05
19 *1152:A *1162:RESET_B 0.000122202
20 *1154:A *1162:RESET_B 1.54665e-05
21 *231:23 *1151:A1 5.83121e-06
22 *231:23 *232:100 0.000268146
23 *231:23 *268:14 6.07575e-06
24 *231:23 *268:18 7.93434e-05
25 *231:31 *1155:A1 0.000223825
26 *231:31 *288:10 0.000266443
27 *1151:A2 *231:23 8.41307e-05
28 *1151:B1 *1150:A 9.30787e-05
29 *1151:B1 *231:31 3.09164e-05
30 *1153:B1 *1154:A 2.69153e-05
31 *1153:B1 *231:31 0.000112595
*RES
1 *918:Y *231:4 1.6 
2 *231:4 *919:A 7.195 
3 *231:4 *231:23 4.52 
4 *231:23 *231:31 6.995 
5 *231:31 *1154:A 2.05 
6 *231:31 *1152:A 3.715 
7 *231:23 *1150:A 7.275 
*END

*D_NET *232 0.024486
*CONN
*I *1133:A1 I *D sky130_fd_sc_hd__a22o_1
*I *1146:A I *D sky130_fd_sc_hd__and2_1
*I *1142:A I *D sky130_fd_sc_hd__and2_1
*I *1144:A I *D sky130_fd_sc_hd__and2_1
*I *1148:A I *D sky130_fd_sc_hd__and2_1
*I *1140:A I *D sky130_fd_sc_hd__and2_1
*I *1139:A1 I *D sky130_fd_sc_hd__a22o_1
*I *1137:A1 I *D sky130_fd_sc_hd__a22o_1
*I *1130:A1 I *D sky130_fd_sc_hd__a22o_1
*I *956:A I *D sky130_fd_sc_hd__nor2_2
*I *919:X O *D sky130_fd_sc_hd__clkbuf_4
*CAP
1 *1133:A1 0.000517698
2 *1146:A 0
3 *1142:A 6.59527e-05
4 *1144:A 7.78452e-05
5 *1148:A 0
6 *1140:A 0
7 *1139:A1 0.00054199
8 *1137:A1 0
9 *1130:A1 0
10 *956:A 5.66402e-05
11 *919:X 0.000297102
12 *232:150 0.00132012
13 *232:131 0.000979763
14 *232:118 0.000537614
15 *232:107 0.00149369
16 *232:100 0.00210975
17 *232:66 0.00105675
18 *232:47 0.0012738
19 *232:14 0.00143822
20 *232:6 0.00188408
21 *956:A *957:B1_N 4.66108e-05
22 *956:A *269:8 2.8694e-05
23 *1133:A1 *1133:A2 0.000158965
24 *1133:A1 *1157:RESET_B 0.000663074
25 *1133:A1 *1218:A 0
26 *1133:A1 *308:8 0
27 *1133:A1 *315:8 4.66108e-05
28 *1133:A1 *315:38 0.000160635
29 *1133:A1 *315:134 0.000187759
30 *1133:A1 *327:20 9.82856e-06
31 *1139:A1 *1139:B1 8.40213e-05
32 *1139:A1 *330:10 0.000172
33 *1142:A *1142:B 3.45252e-05
34 *1144:A *1144:B 8.40269e-05
35 *232:6 *1182:A 5.07419e-05
36 *232:14 *269:21 2.84864e-05
37 *232:14 *286:10 0
38 *232:14 *294:14 0
39 *232:47 *1130:A2 0.000122189
40 *232:47 *1156:RESET_B 2.65337e-05
41 *232:47 *1157:D 0.000254376
42 *232:47 *269:21 9.3872e-05
43 *232:47 *286:63 0.000139851
44 *232:47 *286:84 8.67593e-05
45 *232:47 *294:14 0.000146598
46 *232:47 *315:68 0.000137309
47 *232:66 *1005:A 9.51046e-05
48 *232:66 *1130:B1 1.28269e-05
49 *232:66 *1139:B1 0.000343712
50 *232:66 *269:36 2.65814e-06
51 *232:66 *282:21 2.68721e-05
52 *232:66 *282:30 0.000175612
53 *232:66 *294:14 0
54 *232:66 *315:58 0
55 *232:66 *330:10 2.61115e-05
56 *232:100 *926:C 3.00355e-05
57 *232:100 *927:A 0.000523426
58 *232:100 *927:B 0.000244434
59 *232:100 *1151:A1 0.000182748
60 *232:100 *239:8 8.76655e-05
61 *232:100 *281:8 0.000118081
62 *232:100 *281:74 0.00010978
63 *232:107 *980:A2 4.42148e-05
64 *232:107 *1140:B 0.000233604
65 *232:107 *331:12 0.00137881
66 *232:118 *1145:A1 0
67 *232:118 *1148:B 4.77769e-05
68 *232:118 *1149:A1 0.000293025
69 *232:118 *1166:RESET_B 0
70 *232:118 *331:12 4.42148e-05
71 *232:131 *1145:A1 0
72 *232:131 *1149:A1 0.000182349
73 *232:150 *1145:A1 0
74 *232:150 *1149:A1 0.000728677
75 *232:150 *1157:RESET_B 0.00038901
76 *232:150 *235:70 0
77 *232:150 *284:24 0
78 *232:150 *308:8 0
79 *919:A *232:6 5.31309e-05
80 *919:A *232:100 3.38341e-05
81 *1128:B *232:150 5.90216e-05
82 *1139:B2 *1139:A1 0.00013987
83 *1143:A2 *1142:A 0
84 *1145:B1 *232:118 0.000160282
85 *1149:B1 *232:118 0.000160288
86 *1156:D *956:A 4.66108e-05
87 *1156:D *232:47 9.22308e-05
88 *1158:D *232:47 0.000122801
89 *1158:D *232:66 0.00014116
90 *1166:D *232:118 4.23417e-05
91 *108:14 *1139:A1 0.000102411
92 *108:14 *232:66 2.7881e-05
93 *114:12 *1139:A1 0
94 *121:27 *956:A 0
95 *189:10 *232:150 9.38948e-05
96 *190:24 *232:150 3.93748e-05
97 *200:30 *1133:A1 5.4155e-06
98 *230:10 *232:14 2.305e-05
99 *230:12 *232:14 0.00113903
100 *231:23 *232:100 0.000268146
*RES
1 *919:X *232:6 5.155 
2 *232:6 *232:14 16.685 
3 *232:14 *956:A 4.755 
4 *232:14 *232:47 23.565 
5 *232:47 *1130:A1 1.6 
6 *232:47 *232:66 15.825 
7 *232:66 *1137:A1 3.6 
8 *232:66 *1139:A1 13.5 
9 *232:6 *232:100 21.52 
10 *232:100 *1140:A 1.6 
11 *232:100 *232:107 24.6 
12 *232:107 *1148:A 1.6 
13 *232:107 *232:118 10.895 
14 *232:118 *1144:A 5.01 
15 *232:118 *232:131 2.145 
16 *232:131 *1142:A 4.77 
17 *232:131 *232:150 17.49 
18 *232:150 *1146:A 3.6 
19 *232:150 *1133:A1 16.65 
*END

*D_NET *233 0.0162425
*CONN
*I *929:A I *D sky130_fd_sc_hd__or3b_2
*I *961:D I *D sky130_fd_sc_hd__and4_1
*I *963:B1 I *D sky130_fd_sc_hd__a22o_1
*I *964:D I *D sky130_fd_sc_hd__nand4_1
*I *977:B I *D sky130_fd_sc_hd__nand4_2
*I *1021:B I *D sky130_fd_sc_hd__nand2_1
*I *1009:A2 I *D sky130_fd_sc_hd__a22o_1
*I *979:C I *D sky130_fd_sc_hd__nand4_2
*I *1153:A1 I *D sky130_fd_sc_hd__a31o_1
*I *931:A I *D sky130_fd_sc_hd__xor2_1
*I *920:X O *D sky130_fd_sc_hd__clkbuf_4
*CAP
1 *929:A 6.43521e-05
2 *961:D 0.00034886
3 *963:B1 7.15991e-05
4 *964:D 0.000141276
5 *977:B 0
6 *1021:B 0.000393313
7 *1009:A2 9.89864e-06
8 *979:C 1.66555e-05
9 *1153:A1 0.000223574
10 *931:A 0.000113113
11 *920:X 9.78923e-05
12 *233:125 0.000565192
13 *233:106 0.00127061
14 *233:73 0.000490173
15 *233:69 0.000604029
16 *233:44 0.00215323
17 *233:27 0.00107987
18 *233:25 0.000442085
19 *233:8 0.000367341
20 *929:A *930:B 3.47143e-05
21 *931:A *1183:A 0.000197836
22 *961:D *963:B2 0.000331505
23 *961:D *970:B 0.000119762
24 *961:D *990:A1 4.66826e-05
25 *961:D *271:109 0.000307043
26 *961:D *271:126 8.82995e-05
27 *961:D *272:69 0
28 *961:D *277:27 0.000127921
29 *963:B1 *963:B2 4.77757e-05
30 *963:B1 *282:54 2.20014e-05
31 *964:D *1171:A 0
32 *964:D *272:60 4.1652e-06
33 *964:D *272:69 0.000101556
34 *979:C *979:D 3.43704e-05
35 *1021:B *293:24 0
36 *1021:B *315:38 0.000122331
37 *1153:A1 *927:C 4.77807e-05
38 *1153:A1 *1184:A 1.91597e-05
39 *1153:A1 *281:33 0.000491761
40 *233:8 *1140:B 7.1624e-05
41 *233:25 *241:20 3.39927e-05
42 *233:27 *927:A 4.66108e-05
43 *233:27 *927:C 3.75203e-05
44 *233:27 *930:B 3.64998e-06
45 *233:27 *240:6 5.84147e-05
46 *233:44 *927:B 0.000178191
47 *233:44 *927:C 0.000197861
48 *233:44 *933:A2 0.000178314
49 *233:44 *959:A 0
50 *233:44 *979:A 2.28084e-05
51 *233:44 *980:A2 0.000299368
52 *233:44 *1039:D 4.04632e-05
53 *233:44 *235:115 0
54 *233:44 *235:126 7.81221e-05
55 *233:44 *237:59 3.18465e-05
56 *233:44 *238:36 0.000243591
57 *233:44 *239:21 0.000139238
58 *233:44 *271:12 4.13135e-05
59 *233:44 *293:24 0
60 *233:69 *234:19 0.000112087
61 *233:69 *234:21 0.000180549
62 *233:69 *234:25 1.7902e-05
63 *233:69 *234:35 2.42236e-05
64 *233:69 *272:18 0
65 *233:69 *316:62 7.51137e-05
66 *233:125 *272:69 4.99725e-05
67 *978:A *1009:A2 4.77769e-05
68 *979:B *979:C 5.02729e-06
69 *989:A1 *961:D 7.24418e-07
70 *990:A2 *961:D 1.17309e-05
71 *990:B1 *961:D 2.87865e-05
72 *1009:A1 *1009:A2 4.77769e-05
73 *1009:A1 *233:69 5.19006e-06
74 *1009:A1 *233:73 9.60616e-05
75 *1012:A1 *1021:B 0.000260449
76 *1012:A2 *1021:B 0.000310417
77 *1029:C *1021:B 0
78 *1031:A2 *1021:B 3.75492e-05
79 *1043:C1 *233:44 1.78882e-05
80 *1044:B1 *233:44 2.42533e-05
81 *1044:B1 *233:106 3.24803e-05
82 *1045:A1 *964:D 2.68464e-05
83 *1051:A *233:69 0
84 *1052:B1 *233:69 0.00013994
85 *1066:A *964:D 4.99524e-05
86 *1141:B1 *1153:A1 8.34281e-06
87 *1153:A2 *1153:A1 3.13354e-05
88 *57:33 *233:44 0
89 *60:8 *233:73 5.31158e-06
90 *60:23 *1021:B 7.27704e-06
91 *60:23 *233:73 0.000103924
92 *63:25 *1021:B 7.0936e-05
93 *63:25 *233:73 6.12338e-06
94 *65:18 *979:C 4.60808e-05
95 *65:18 *233:44 1.35114e-05
96 *65:18 *233:69 0.000204365
97 *65:29 *961:D 1.12578e-05
98 *67:17 *961:D 0.000123319
99 *71:10 *233:69 4.77807e-05
100 *107:12 *1021:B 0.000134607
101 *109:10 *1021:B 0
102 *117:12 *1021:B 0.000139238
103 *121:27 *979:C 0
104 *125:14 *233:44 2.12175e-05
105 *128:8 *233:44 0.000250602
106 *131:14 *961:D 0
107 *131:14 *964:D 0
108 *131:14 *233:125 0
109 *152:8 *964:D 4.66108e-05
110 *167:14 *1021:B 0
111 *167:14 *233:69 0.000242075
112 *230:46 *1153:A1 0.000227078
113 *230:79 *931:A 0.00030153
114 *230:79 *1153:A1 0.000296606
*RES
1 *920:X *233:8 5.235 
2 *233:8 *931:A 7.275 
3 *233:8 *233:25 4.4 
4 *233:25 *233:27 3.555 
5 *233:27 *1153:A1 8.275 
6 *233:27 *233:44 18.725 
7 *233:44 *979:C 4.41 
8 *233:44 *233:69 14.09 
9 *233:69 *233:73 4.4 
10 *233:73 *1009:A2 4.05 
11 *233:73 *1021:B 13.005 
12 *233:69 *977:B 1.6 
13 *233:44 *233:106 2.55293 
14 *233:106 *964:D 6.5775 
15 *233:106 *233:125 2.2575 
16 *233:125 *963:B1 4.755 
17 *233:125 *961:D 12.93 
18 *233:25 *929:A 2.755 
*END

*D_NET *234 0.0107581
*CONN
*I *974:C I *D sky130_fd_sc_hd__nand4_2
*I *1052:A2 I *D sky130_fd_sc_hd__a22o_1
*I *1081:A2 I *D sky130_fd_sc_hd__a31o_1
*I *1051:B I *D sky130_fd_sc_hd__nand4_1
*I *979:D I *D sky130_fd_sc_hd__nand4_2
*I *980:B1 I *D sky130_fd_sc_hd__a22o_1
*I *934:A I *D sky130_fd_sc_hd__xnor2_1
*I *927:A I *D sky130_fd_sc_hd__or3_1
*I *1151:A1 I *D sky130_fd_sc_hd__a31o_1
*I *976:A2 I *D sky130_fd_sc_hd__a22o_1
*I *921:X O *D sky130_fd_sc_hd__clkbuf_4
*CAP
1 *974:C 0
2 *1052:A2 8.46301e-05
3 *1081:A2 2.40478e-05
4 *1051:B 0
5 *979:D 0.000313835
6 *980:B1 0.00010431
7 *934:A 0
8 *927:A 0.000283944
9 *1151:A1 0.00011332
10 *976:A2 3.45191e-05
11 *921:X 0.00021147
12 *234:117 0.000108678
13 *234:45 0.000545814
14 *234:39 0.000516063
15 *234:37 0.000503485
16 *234:35 0.000584564
17 *234:25 0.00034382
18 *234:21 0.000202714
19 *234:19 0.00032843
20 *234:6 0.000476458
21 *927:A *926:A 9.53428e-06
22 *927:A *241:20 0
23 *927:A *241:46 0
24 *927:A *268:8 0.000234598
25 *927:A *281:74 1.91597e-05
26 *976:A2 *1007:C 5.19006e-06
27 *979:D *979:A 4.80285e-05
28 *1151:A1 *926:A 8.08554e-05
29 *1151:A1 *926:C 4.82863e-05
30 *1151:A1 *926:D 4.82919e-05
31 *1151:A1 *268:8 9.80943e-06
32 *1151:A1 *268:14 0.000120929
33 *234:6 *976:B2 0.000228248
34 *234:6 *1007:A 4.77769e-05
35 *234:6 *1007:C 2.86691e-05
36 *234:6 *1007:D 1.91597e-05
37 *234:6 *269:36 0.000303274
38 *234:19 *235:20 0
39 *234:21 *272:18 0
40 *234:25 *272:18 2.96383e-05
41 *234:35 *272:18 0.000180079
42 *234:37 *980:A2 4.2482e-05
43 *234:37 *272:18 2.23407e-05
44 *234:39 *926:B 0.000351108
45 *234:39 *934:B 7.4027e-05
46 *234:39 *980:A2 0.000256523
47 *234:39 *237:10 1.49811e-05
48 *234:39 *241:61 1.73877e-05
49 *234:39 *272:24 6.09816e-05
50 *234:45 *926:A 2.15594e-05
51 *234:45 *926:B 0.000140912
52 *234:45 *980:A2 0
53 *234:45 *1167:CLK 0
54 *976:A1 *234:6 1.08105e-05
55 *977:D *234:19 0.00013475
56 *979:B *979:D 2.26102e-05
57 *979:B *980:B1 0.000114339
58 *979:C *979:D 3.43704e-05
59 *1009:B2 *976:A2 0
60 *1035:B *234:39 6.04361e-05
61 *1051:D *234:25 3.31204e-05
62 *1051:D *234:35 5.53249e-06
63 *1052:B1 *1052:A2 4.60584e-05
64 *1052:B1 *234:25 9.47454e-05
65 *1052:B1 *234:35 7.45087e-05
66 *1052:B2 *1052:A2 7.40446e-05
67 *1052:B2 *1081:A2 4.82919e-05
68 *1081:A1 *1052:A2 0.000197264
69 *1081:A1 *1081:A2 5.17188e-05
70 *1130:B2 *234:6 4.40419e-05
71 *61:8 *234:6 4.66108e-05
72 *61:10 *234:35 0.000110535
73 *61:12 *234:35 3.50033e-05
74 *61:12 *234:37 2.42236e-05
75 *61:16 *234:39 0.000128471
76 *62:6 *234:19 4.77769e-05
77 *65:18 *979:D 2.96437e-05
78 *66:10 *979:D 2.37467e-05
79 *121:8 *234:39 0.00040586
80 *121:27 *979:D 4.82919e-05
81 *121:27 *980:B1 1.19928e-05
82 *121:27 *234:37 5.08127e-05
83 *121:27 *234:39 0.000187497
84 *135:10 *234:35 0.000160641
85 *136:23 *1052:A2 0
86 *136:23 *1081:A2 1.47256e-05
87 *138:8 *1052:A2 1.85674e-05
88 *167:14 *234:19 2.97178e-05
89 *231:23 *1151:A1 5.83121e-06
90 *232:100 *927:A 0.000523426
91 *232:100 *1151:A1 0.000182748
92 *233:27 *927:A 4.66108e-05
93 *233:69 *234:19 0.000112087
94 *233:69 *234:21 0.000180549
95 *233:69 *234:25 1.7902e-05
96 *233:69 *234:35 2.42236e-05
*RES
1 *921:X *234:6 6.88 
2 *234:6 *976:A2 2.215 
3 *234:6 *234:19 6.815 
4 *234:19 *234:21 2.145 
5 *234:21 *234:25 2.085 
6 *234:25 *234:35 10.12 
7 *234:35 *234:37 1.125 
8 *234:37 *234:39 11.835 
9 *234:39 *234:45 4.595 
10 *234:45 *1151:A1 5.62 
11 *234:45 *927:A 12.815 
12 *234:39 *934:A 3.6 
13 *234:37 *980:B1 5.355 
14 *234:35 *979:D 7.98 
15 *234:25 *1051:B 3.6 
16 *234:21 *234:117 2 
17 *234:117 *1081:A2 2.395 
18 *234:117 *1052:A2 4.135 
19 *234:19 *974:C 3.6 
*END

*D_NET *235 0.0234911
*CONN
*I *1149:A1 I *D sky130_fd_sc_hd__a31o_1
*I *1045:A2 I *D sky130_fd_sc_hd__a31o_1
*I *936:A I *D sky130_fd_sc_hd__xor2_1
*I *927:B I *D sky130_fd_sc_hd__or3_1
*I *933:A1 I *D sky130_fd_sc_hd__o21a_1
*I *1064:B I *D sky130_fd_sc_hd__nand2_1
*I *1007:C I *D sky130_fd_sc_hd__nand4_1
*I *976:B1 I *D sky130_fd_sc_hd__a22o_1
*I *974:D I *D sky130_fd_sc_hd__nand4_2
*I *1024:B I *D sky130_fd_sc_hd__and2_1
*I *922:X O *D sky130_fd_sc_hd__clkbuf_4
*CAP
1 *1149:A1 0.000768473
2 *1045:A2 0
3 *936:A 2.09671e-05
4 *927:B 0.000197195
5 *933:A1 5.36798e-05
6 *1064:B 3.74042e-05
7 *1007:C 9.0124e-05
8 *976:B1 0
9 *974:D 4.90761e-05
10 *1024:B 0.000507695
11 *922:X 0
12 *235:126 0.00031896
13 *235:115 0.00068546
14 *235:99 0.000988861
15 *235:80 0.0013361
16 *235:70 0.00235105
17 *235:48 0.000113119
18 *235:20 0.000751354
19 *235:16 0.00273388
20 *235:4 0.00325807
21 *927:B *927:C 6.54361e-06
22 *927:B *241:46 0
23 *933:A1 *933:A2 4.66108e-05
24 *933:A1 *238:36 2.67275e-05
25 *933:A1 *297:16 0.00015639
26 *936:A *935:B 8.49205e-05
27 *936:A *936:B 4.82863e-05
28 *936:A *247:6 1.34594e-05
29 *974:D *974:B 7.44252e-05
30 *974:D *272:14 4.66108e-05
31 *1007:C *975:A 8.35118e-05
32 *1007:C *976:B2 5.87688e-05
33 *1007:C *1007:D 4.66108e-05
34 *1024:B *962:B 0.000123419
35 *1024:B *272:14 3.61231e-05
36 *1149:A1 *1166:RESET_B 0
37 *1149:A1 *284:24 0
38 *1149:A1 *284:30 0
39 *235:16 *1006:A2 1.98474e-05
40 *235:20 *272:14 7.26302e-05
41 *235:20 *272:18 2.85623e-05
42 *235:70 *1147:A3 0.00016348
43 *235:70 *1157:RESET_B 0
44 *235:70 *285:34 7.51327e-05
45 *235:99 *271:69 0.000360648
46 *235:99 *293:24 7.94515e-05
47 *235:99 *305:45 0.00033806
48 *235:99 *332:54 0.000264606
49 *235:115 *236:48 7.24448e-05
50 *235:115 *238:36 0
51 *235:115 *286:18 0.000107546
52 *235:115 *293:24 0.000226419
53 *235:115 *297:16 0.000190633
54 *235:126 *937:B 0
55 *976:A1 *1007:C 0.000121072
56 *976:A2 *1007:C 5.19006e-06
57 *993:A1 *235:16 8.53011e-05
58 *993:A2 *235:16 3.0933e-05
59 *993:B1 *235:16 3.20857e-05
60 *1000:A1 *235:16 3.0933e-05
61 *1000:A2 *235:16 0.000232985
62 *1001:B *235:16 3.93467e-05
63 *1007:B *1007:C 0.000193136
64 *1027:A1 *1024:B 8.25041e-05
65 *1027:A2 *1024:B 2.49909e-05
66 *1046:A *1024:B 1.08758e-05
67 *1048:B1 *1024:B 7.06347e-05
68 *1056:D *235:115 0.000110785
69 *1065:B *235:115 0.000178569
70 *1067:A *235:80 0.000294206
71 *1067:B *235:80 1.22325e-05
72 *1077:A *235:80 0.000225586
73 *1100:A *235:80 0.000391282
74 *1128:B *235:70 2.88783e-05
75 *1129:B2 *235:70 0.000765161
76 *1131:A *235:16 2.01934e-05
77 *1131:A *235:70 6.04372e-05
78 *1141:B1 *927:B 1.10359e-05
79 *57:33 *235:115 0.000131525
80 *61:10 *235:20 5.42475e-05
81 *61:95 *235:20 1.25098e-05
82 *61:95 *235:48 1.16208e-05
83 *71:68 *235:99 0.00017765
84 *78:12 *235:16 3.89692e-05
85 *79:6 *235:16 6.65733e-05
86 *90:24 *235:16 0.000161474
87 *90:24 *235:70 8.35068e-05
88 *126:12 *235:115 5.56212e-05
89 *129:10 *235:99 5.18694e-05
90 *129:10 *235:115 2.20948e-05
91 *132:12 *1024:B 0.000194891
92 *152:8 *1064:B 8.35118e-05
93 *152:8 *235:80 0.000208621
94 *167:14 *235:48 0
95 *188:12 *1149:A1 2.69217e-05
96 *188:12 *235:70 6.90254e-05
97 *188:12 *235:80 6.92161e-05
98 *189:10 *235:70 6.60741e-05
99 *232:100 *927:B 0.000244434
100 *232:118 *1149:A1 0.000293025
101 *232:131 *1149:A1 0.000182349
102 *232:150 *1149:A1 0.000728677
103 *232:150 *235:70 0
104 *233:44 *927:B 0.000178191
105 *233:44 *235:115 0
106 *233:44 *235:126 7.81221e-05
107 *234:6 *1007:C 2.86691e-05
108 *234:19 *235:20 0
*RES
1 *922:X *235:4 1.6 
2 *235:4 *235:16 17.9779 
3 *235:16 *235:20 5.8025 
4 *235:20 *1024:B 14.525 
5 *235:20 *974:D 2.74 
6 *235:16 *235:48 2.4875 
7 *235:48 *976:B1 1.6 
8 *235:48 *1007:C 4.825 
9 *235:4 *235:70 19.45 
10 *235:70 *235:80 14.565 
11 *235:80 *1064:B 2.395 
12 *235:80 *235:99 18.075 
13 *235:99 *235:115 18.39 
14 *235:115 *933:A1 3.085 
15 *235:115 *235:126 3.89 
16 *235:126 *927:B 8.55 
17 *235:126 *936:A 4.395 
18 *235:99 *1045:A2 3.6 
19 *235:70 *1149:A1 22.265 
*END

*D_NET *236 0.0133812
*CONN
*I *1145:A1 I *D sky130_fd_sc_hd__a31o_1
*I *1072:B I *D sky130_fd_sc_hd__xnor2_1
*I *938:A1 I *D sky130_fd_sc_hd__o31a_1
*I *942:A I *D sky130_fd_sc_hd__xnor2_1
*I *1070:D I *D sky130_fd_sc_hd__and4b_1
*I *1058:A2 I *D sky130_fd_sc_hd__a22o_1
*I *1042:B I *D sky130_fd_sc_hd__and4_1
*I *1056:B I *D sky130_fd_sc_hd__nand4_1
*I *1035:C I *D sky130_fd_sc_hd__nand4_1
*I *926:B I *D sky130_fd_sc_hd__or4_1
*I *923:X O *D sky130_fd_sc_hd__clkbuf_4
*CAP
1 *1145:A1 0.000540672
2 *1072:B 2.94821e-05
3 *938:A1 0
4 *942:A 0.000321581
5 *1070:D 1.9113e-05
6 *1058:A2 0
7 *1042:B 0
8 *1056:B 0.000130374
9 *1035:C 0
10 *926:B 0.000152823
11 *923:X 0.000132727
12 *236:104 0.000506299
13 *236:50 0.000378807
14 *236:48 0.000441325
15 *236:42 0.000192696
16 *236:36 0.0011156
17 *236:18 0.00112944
18 *236:16 0.000352508
19 *236:14 0.000582986
20 *236:6 0.00116157
21 *926:B *926:A 0.000183738
22 *926:B *926:C 0.000164221
23 *926:B *237:10 4.43871e-06
24 *942:A *941:A1 9.97548e-05
25 *942:A *238:100 1.71013e-05
26 *942:A *238:108 1.73877e-05
27 *942:A *238:112 4.40899e-05
28 *942:A *241:91 3.03684e-05
29 *942:A *252:12 0
30 *942:A *255:14 8.65961e-05
31 *942:A *268:95 0
32 *942:A *281:74 0.000233786
33 *942:A *332:27 5.4155e-06
34 *1056:B *272:24 0.000105597
35 *1072:B *1072:A 1.14169e-05
36 *1145:A1 *1147:A3 0.00016697
37 *1145:A1 *268:101 2.42236e-05
38 *236:6 *1103:B1 9.51579e-05
39 *236:14 *939:A 4.76051e-05
40 *236:16 *1072:A 0.000124821
41 *236:16 *238:92 9.56017e-06
42 *236:36 *1057:A 4.61701e-06
43 *236:36 *238:92 0.000312521
44 *236:36 *286:18 1.83975e-05
45 *236:42 *1057:B 4.77757e-05
46 *236:42 *238:59 0.000132436
47 *236:48 *238:36 0
48 *236:48 *238:59 1.11025e-05
49 *236:50 *1035:A 8.49205e-05
50 *236:50 *237:40 0.000232116
51 *236:50 *272:24 0.00012817
52 *236:104 *941:A1 2.23407e-05
53 *236:104 *1072:A 5.00903e-05
54 *236:104 *1073:C 0.000272696
55 *236:104 *238:100 2.34345e-05
56 *236:104 *241:123 1.18673e-05
57 *1056:D *1056:B 4.94598e-05
58 *1058:B1 *236:42 7.48972e-05
59 *1058:B2 *236:42 3.69049e-05
60 *1062:B *236:36 4.11715e-05
61 *1070:A_N *236:36 1.77945e-05
62 *1070:B *236:36 1.55253e-05
63 *1070:C *236:36 5.31158e-06
64 *1071:A1 *1070:D 6.90889e-06
65 *1071:A1 *236:18 1.56183e-05
66 *1071:A1 *236:36 8.73389e-06
67 *1071:B1 *236:104 4.87939e-05
68 *1073:B *236:18 0.00031059
69 *1073:B *236:36 4.66108e-05
70 *1074:B *1072:B 2.20014e-05
71 *1075:A *236:36 1.1465e-05
72 *1076:B1_N *236:14 0.000110767
73 *1103:A1 *1145:A1 6.90254e-05
74 *1103:A1 *236:14 2.49909e-05
75 *1145:B1 *1145:A1 0
76 *1163:D *1145:A1 0.00011852
77 *1170:A *236:104 0
78 *57:87 *236:104 6.07446e-05
79 *57:100 *236:104 1.21256e-05
80 *126:12 *236:48 9.12494e-06
81 *126:16 *236:42 0.000155608
82 *127:17 *236:42 0.000119873
83 *142:8 *1056:B 3.58381e-05
84 *156:12 *236:18 0.000120417
85 *157:6 *1072:B 2.20014e-05
86 *157:6 *236:16 0.000266398
87 *157:6 *236:18 0.000118081
88 *160:24 *236:14 8.34281e-06
89 *161:6 *236:14 0.000340418
90 *230:83 *1145:A1 9.12494e-06
91 *230:94 *1145:A1 0.000490789
92 *232:118 *1145:A1 0
93 *232:131 *1145:A1 0
94 *232:150 *1145:A1 0
95 *234:39 *926:B 0.000351108
96 *234:45 *926:B 0.000140912
97 *235:115 *236:48 7.24448e-05
*RES
1 *923:X *236:6 3.43 
2 *236:6 *236:14 10.405 
3 *236:14 *236:16 2.52 
4 *236:16 *236:18 3.21 
5 *236:18 *236:36 8.6564 
6 *236:36 *236:42 3.33 
7 *236:42 *236:48 5.635 
8 *236:48 *236:50 4.935 
9 *236:50 *926:B 11.315 
10 *236:50 *1035:C 1.6 
11 *236:48 *1056:B 4.87 
12 *236:42 *1042:B 1.6 
13 *236:36 *1058:A2 1.6 
14 *236:18 *1070:D 2.15875 
15 *236:16 *236:104 6.695 
16 *236:104 *942:A 10.515 
17 *236:104 *938:A1 3.6 
18 *236:14 *1072:B 2.41 
19 *236:6 *1145:A1 17.435 
*END

*D_NET *237 0.0113877
*CONN
*I *1143:A1 I *D sky130_fd_sc_hd__a31o_1
*I *1073:C I *D sky130_fd_sc_hd__and4_1
*I *938:A2 I *D sky130_fd_sc_hd__o31a_1
*I *941:A1 I *D sky130_fd_sc_hd__o21a_1
*I *945:A I *D sky130_fd_sc_hd__xor2_1
*I *1069:A2 I *D sky130_fd_sc_hd__a22o_1
*I *1057:C I *D sky130_fd_sc_hd__and4_1
*I *1039:C I *D sky130_fd_sc_hd__and4_1
*I *1035:D I *D sky130_fd_sc_hd__nand4_1
*I *926:C I *D sky130_fd_sc_hd__or4_1
*I *924:X O *D sky130_fd_sc_hd__buf_2
*CAP
1 *1143:A1 0.000415975
2 *1073:C 6.3864e-05
3 *938:A2 0
4 *941:A1 0.000121421
5 *945:A 0.000403508
6 *1069:A2 0
7 *1057:C 2.84819e-05
8 *1039:C 0
9 *1035:D 0
10 *926:C 0.000179647
11 *924:X 0.000228918
12 *237:118 0.000524937
13 *237:111 6.90038e-05
14 *237:98 0.000443641
15 *237:85 0.000938085
16 *237:72 0.000378529
17 *237:59 0.000855012
18 *237:40 0.000864635
19 *237:25 0.00021117
20 *237:10 0.000439365
21 *926:C *926:A 0.000227543
22 *926:C *238:10 0.000397325
23 *926:C *283:18 7.53115e-05
24 *941:A1 *238:108 0.000138544
25 *941:A1 *241:104 1.82476e-05
26 *945:A *932:A 0
27 *945:A *932:B 5.53276e-05
28 *945:A *942:B 0
29 *945:A *955:B1 0
30 *945:A *295:16 0
31 *945:A *332:35 0
32 *1057:C *238:59 4.89295e-05
33 *1057:C *238:66 1.14169e-05
34 *1073:C *238:100 0.000272696
35 *1143:A1 *939:B 8.40269e-05
36 *1143:A1 *1143:A3 4.82919e-05
37 *1143:A1 *241:123 1.46744e-05
38 *1143:A1 *268:95 0.00049481
39 *237:10 *1041:A2 6.69327e-05
40 *237:10 *283:18 5.83825e-05
41 *237:40 *980:A2 0.000111703
42 *237:40 *1035:A 0.000111703
43 *237:59 *1039:D 0.000128204
44 *237:59 *1057:A 8.23457e-05
45 *237:59 *238:59 0.000239865
46 *237:72 *1069:B2 4.77807e-05
47 *237:72 *238:66 0.000116828
48 *237:85 *295:16 4.40643e-05
49 *237:98 *241:104 4.35432e-05
50 *237:98 *241:123 4.82863e-05
51 *237:111 *241:123 3.74161e-05
52 *237:118 *241:123 7.40446e-05
53 *926:B *926:C 0.000164221
54 *926:B *237:10 4.43871e-06
55 *942:A *941:A1 9.97548e-05
56 *1035:B *237:10 7.03219e-05
57 *1035:B *237:40 8.65905e-05
58 *1041:A1 *237:10 4.77769e-05
59 *1042:A *237:59 4.66108e-05
60 *1062:B *237:85 0.000113182
61 *1062:C *237:85 0.000151068
62 *1068:A1 *237:85 2.50049e-05
63 *1070:A_N *237:72 0.000151665
64 *1070:A_N *237:85 3.59784e-05
65 *1070:B *237:85 2.49909e-05
66 *1143:A2 *1143:A1 1.19928e-05
67 *1151:A1 *926:C 4.82863e-05
68 *1163:D *1143:A1 4.92062e-05
69 *1170:A *941:A1 0
70 *1170:A *945:A 0
71 *1170:A *237:85 0
72 *57:20 *237:59 0.000119873
73 *125:14 *237:59 8.73389e-06
74 *126:12 *237:59 2.39947e-05
75 *127:8 *237:59 0.000204272
76 *127:17 *237:59 2.21649e-05
77 *128:8 *237:59 9.12494e-06
78 *232:100 *926:C 3.00355e-05
79 *233:44 *237:59 3.18465e-05
80 *234:39 *237:10 1.49811e-05
81 *236:50 *237:40 0.000232116
82 *236:104 *941:A1 2.23407e-05
83 *236:104 *1073:C 0.000272696
*RES
1 *924:X *237:10 7.155 
2 *237:10 *926:C 10.275 
3 *237:10 *237:25 2.45 
4 *237:25 *1035:D 1.6 
5 *237:25 *237:40 8.26 
6 *237:40 *1039:C 1.6 
7 *237:40 *237:59 14.68 
8 *237:59 *1057:C 2.41 
9 *237:59 *237:72 3.57 
10 *237:72 *1069:A2 1.6 
11 *237:72 *237:85 7.265 
12 *237:85 *945:A 10.08 
13 *237:85 *237:98 6.245 
14 *237:98 *941:A1 8.255 
15 *237:98 *237:111 0.45 
16 *237:111 *938:A2 1.6 
17 *237:111 *237:118 0.795 
18 *237:118 *1073:C 8.765 
19 *237:118 *1143:A1 9.76 
*END

*D_NET *238 0.0113904
*CONN
*I *1069:B1 I *D sky130_fd_sc_hd__a22o_1
*I *1073:D I *D sky130_fd_sc_hd__and4_1
*I *938:A3 I *D sky130_fd_sc_hd__o31a_1
*I *941:A2 I *D sky130_fd_sc_hd__o21a_1
*I *946:A I *D sky130_fd_sc_hd__inv_2
*I *944:B I *D sky130_fd_sc_hd__nand2_1
*I *1057:D I *D sky130_fd_sc_hd__and4_1
*I *1039:D I *D sky130_fd_sc_hd__and4_1
*I *926:D I *D sky130_fd_sc_hd__or4_1
*I *1141:A1 I *D sky130_fd_sc_hd__a31o_1
*I *925:X O *D sky130_fd_sc_hd__buf_2
*CAP
1 *1069:B1 0
2 *1073:D 0
3 *938:A3 1.38229e-05
4 *941:A2 0
5 *946:A 0.000242052
6 *944:B 0.000102282
7 *1057:D 0
8 *1039:D 5.91643e-05
9 *926:D 7.76463e-06
10 *1141:A1 0.000115782
11 *925:X 0
12 *238:112 0.000508792
13 *238:108 0.000285855
14 *238:100 0.000321703
15 *238:92 0.000831914
16 *238:66 0.00079793
17 *238:59 0.000519281
18 *238:36 0.000840168
19 *238:10 0.000371486
20 *238:4 0.000662161
21 *926:D *268:14 4.99619e-05
22 *938:A3 *241:123 1.35397e-05
23 *944:B *258:10 0.000105376
24 *946:A *947:B1 9.12494e-06
25 *946:A *947:C1 3.9968e-05
26 *946:A *948:A 0.000241297
27 *946:A *948:B 0.000143827
28 *946:A *949:B1 0.0001615
29 *946:A *258:10 6.63221e-05
30 *946:A *290:12 5.13924e-05
31 *1141:A1 *1141:A3 0
32 *1141:A1 *281:10 0
33 *1141:A1 *288:10 8.17161e-05
34 *238:10 *926:A 2.23485e-05
35 *238:10 *1150:B 6.47516e-05
36 *238:10 *1155:A1 6.71882e-05
37 *238:10 *283:18 7.47215e-05
38 *238:10 *288:10 9.21065e-05
39 *238:36 *933:A2 4.66742e-05
40 *238:36 *1155:A1 8.69098e-05
41 *238:36 *297:16 2.10134e-05
42 *238:59 *1057:A 5.86036e-05
43 *238:59 *1057:B 0.000200649
44 *238:66 *1069:B2 4.77807e-05
45 *238:92 *1072:A 4.89395e-05
46 *238:92 *332:35 3.9922e-05
47 *238:100 *241:123 0.00042513
48 *238:108 *241:91 3.76596e-05
49 *238:108 *241:104 7.3753e-05
50 *238:108 *241:123 2.05056e-05
51 *238:112 *949:B1 0
52 *238:112 *241:91 0.000100544
53 *926:C *238:10 0.000397325
54 *933:A1 *238:36 2.67275e-05
55 *941:A1 *238:108 0.000138544
56 *942:A *238:100 1.71013e-05
57 *942:A *238:108 1.73877e-05
58 *942:A *238:112 4.40899e-05
59 *1042:A *238:59 4.77807e-05
60 *1057:C *238:59 4.89295e-05
61 *1057:C *238:66 1.14169e-05
62 *1058:B2 *238:59 4.77807e-05
63 *1069:A1 *238:92 3.86814e-05
64 *1071:A1 *238:92 8.35157e-05
65 *1071:A2 *238:92 4.77807e-05
66 *1071:B1 *238:92 5.5817e-05
67 *1073:B *238:92 7.58098e-05
68 *1073:C *238:100 0.000272696
69 *1075:A *238:92 1.52828e-05
70 *1141:A2 *1141:A1 7.03219e-05
71 *1151:A1 *926:D 4.82919e-05
72 *1170:A *238:92 3.76158e-05
73 *1170:A *238:112 2.95902e-05
74 *57:20 *238:59 0.000109613
75 *125:14 *1039:D 3.112e-05
76 *126:12 *238:59 5.00903e-05
77 *127:17 *238:59 0.000193129
78 *148:19 *238:92 2.53191e-06
79 *233:44 *1039:D 4.04632e-05
80 *233:44 *238:36 0.000243591
81 *235:115 *238:36 0
82 *236:16 *238:92 9.56017e-06
83 *236:36 *238:92 0.000312521
84 *236:42 *238:59 0.000132436
85 *236:48 *238:36 0
86 *236:48 *238:59 1.11025e-05
87 *236:104 *238:100 2.34345e-05
88 *237:59 *1039:D 0.000128204
89 *237:59 *238:59 0.000239865
90 *237:72 *238:66 0.000116828
*RES
1 *925:X *238:4 1.6 
2 *238:4 *238:10 8.345 
3 *238:10 *1141:A1 5.94 
4 *238:10 *926:D 4.05 
5 *238:4 *238:36 8.465 
6 *238:36 *1039:D 5.355 
7 *238:36 *238:59 11.045 
8 *238:59 *1057:D 1.6 
9 *238:59 *238:66 2.52 
10 *238:66 *238:92 11.2705 
11 *238:92 *238:100 9.415 
12 *238:100 *238:108 4.955 
13 *238:108 *238:112 5.165 
14 *238:112 *944:B 3.55 
15 *238:112 *946:A 11.885 
16 *238:108 *941:A2 3.6 
17 *238:100 *938:A3 1.96 
18 *238:92 *1073:D 1.6 
19 *238:66 *1069:B1 1.6 
*END

*D_NET *239 0.00289449
*CONN
*I *933:A2 I *D sky130_fd_sc_hd__o21a_1
*I *935:B I *D sky130_fd_sc_hd__nand2_1
*I *927:C I *D sky130_fd_sc_hd__or3_1
*I *926:X O *D sky130_fd_sc_hd__or4_1
*CAP
1 *933:A2 8.65398e-05
2 *935:B 9.74117e-05
3 *927:C 0.000106408
4 *926:X 0.000139751
5 *239:21 0.000222758
6 *239:8 0.000284965
7 *927:C *980:A2 0.000219389
8 *933:A2 *980:A2 0.000171172
9 *933:A2 *297:16 2.16833e-05
10 *935:B *934:B 0
11 *935:B *936:B 0.000113809
12 *935:B *241:46 5.4155e-06
13 *935:B *241:61 0.00032444
14 *935:B *247:6 8.73389e-06
15 *239:8 *281:8 8.23457e-05
16 *239:21 *980:A2 0.000130707
17 *927:B *927:C 6.54361e-06
18 *933:A1 *933:A2 4.66108e-05
19 *936:A *935:B 8.49205e-05
20 *1141:B1 *927:C 5.83121e-06
21 *1153:A1 *927:C 4.77807e-05
22 *232:100 *239:8 8.76655e-05
23 *233:27 *927:C 3.75203e-05
24 *233:44 *927:C 0.000197861
25 *233:44 *933:A2 0.000178314
26 *233:44 *239:21 0.000139238
27 *238:36 *933:A2 4.66742e-05
*RES
1 *926:X *239:8 5.43 
2 *239:8 *927:C 7.05 
3 *239:8 *239:21 1.635 
4 *239:21 *935:B 7.185 
5 *239:21 *933:A2 6.54 
*END

*D_NET *240 0.00088975
*CONN
*I *930:B I *D sky130_fd_sc_hd__nand2_1
*I *929:B I *D sky130_fd_sc_hd__or3b_2
*I *927:X O *D sky130_fd_sc_hd__or3_1
*CAP
1 *930:B 0.000151574
2 *929:B 0
3 *927:X 0.000139346
4 *240:6 0.00029092
5 *930:B *930:A 4.89295e-05
6 *930:B *241:20 8.95016e-05
7 *930:B *242:14 7.27003e-05
8 *929:A *930:B 3.47143e-05
9 *233:27 *930:B 3.64998e-06
10 *233:27 *240:6 5.84147e-05
*RES
1 *927:X *240:6 3.43 
2 *240:6 *929:B 1.6 
3 *240:6 *930:B 5.2 
*END

*D_NET *241 0.0170123
*CONN
*I *994:A1 I *D sky130_fd_sc_hd__a31o_1
*I *987:A I *D sky130_fd_sc_hd__and3_1
*I *972:A I *D sky130_fd_sc_hd__nand2_1
*I *938:B1 I *D sky130_fd_sc_hd__o31a_1
*I *941:B1 I *D sky130_fd_sc_hd__o21a_1
*I *1155:A1 I *D sky130_fd_sc_hd__a31o_1
*I *933:B1 I *D sky130_fd_sc_hd__o21a_1
*I *935:A I *D sky130_fd_sc_hd__nand2_1
*I *930:A I *D sky130_fd_sc_hd__nand2_1
*I *929:C_N I *D sky130_fd_sc_hd__or3b_2
*I *928:X O *D sky130_fd_sc_hd__buf_2
*CAP
1 *994:A1 2.0132e-05
2 *987:A 0.000373561
3 *972:A 3.08841e-05
4 *938:B1 0
5 *941:B1 0
6 *1155:A1 0.000647707
7 *933:B1 0
8 *935:A 0
9 *930:A 6.24708e-05
10 *929:C_N 0
11 *928:X 0
12 *241:138 0.000927759
13 *241:123 0.00125452
14 *241:104 0.000779684
15 *241:91 0.000482027
16 *241:61 0.00111092
17 *241:46 0.000718656
18 *241:20 0.000364112
19 *241:12 0.00081239
20 *241:4 0.000647213
21 *930:A *953:B1 6.01273e-05
22 *930:A *242:14 1.06809e-05
23 *972:A *967:A2 0.000101843
24 *972:A *272:107 5.83121e-06
25 *972:A *272:122 1.02046e-05
26 *972:A *282:54 0.000122337
27 *987:A *962:A 0.000310595
28 *987:A *962:B 5.48747e-05
29 *987:A *285:34 0.000119873
30 *1155:A1 *925:A 8.23457e-05
31 *1155:A1 *1154:B 0.000283043
32 *1155:A1 *1155:A3 0.000119246
33 *1155:A1 *1162:RESET_B 4.46165e-05
34 *1155:A1 *283:14 0.000272556
35 *1155:A1 *288:10 2.54436e-05
36 *1155:A1 *297:16 0.000145743
37 *241:12 *954:A2 0.000100164
38 *241:12 *955:A1 4.77757e-05
39 *241:12 *955:B1 1.82667e-05
40 *241:12 *1171:A 0.000123955
41 *241:12 *242:14 2.68526e-05
42 *241:12 *268:6 0.000193712
43 *241:12 *268:8 0.000379921
44 *241:12 *281:74 6.98477e-05
45 *241:12 *332:27 9.61248e-05
46 *241:46 *937:B 4.82863e-05
47 *241:46 *249:8 0.000124895
48 *241:61 *934:B 4.05358e-05
49 *241:61 *936:B 1.61831e-05
50 *241:61 *951:B1 0
51 *241:61 *980:A2 4.40899e-05
52 *241:61 *1167:CLK 2.77183e-05
53 *241:61 *247:6 5.35181e-06
54 *241:61 *249:8 9.27255e-06
55 *241:91 *281:74 2.10134e-05
56 *241:91 *332:27 0.000309612
57 *241:123 *939:A 0.00029896
58 *241:123 *939:B 4.66108e-05
59 *241:123 *966:A 8.09021e-06
60 *241:123 *967:A2 2.97004e-06
61 *241:123 *1072:A 0.000267601
62 *241:138 *962:A 0.000298737
63 *241:138 *966:A 0.000157595
64 *241:138 *967:A1 0.000104234
65 *241:138 *968:A2 1.02125e-05
66 *241:138 *278:14 3.09416e-05
67 *241:138 *332:81 9.54399e-05
68 *927:A *241:20 0
69 *927:A *241:46 0
70 *927:B *241:46 0
71 *930:B *930:A 4.89295e-05
72 *930:B *241:20 8.95016e-05
73 *935:B *241:46 5.4155e-06
74 *935:B *241:61 0.00032444
75 *938:A3 *241:123 1.35397e-05
76 *941:A1 *241:104 1.82476e-05
77 *942:A *241:91 3.03684e-05
78 *970:D_N *241:138 2.88322e-05
79 *972:B *241:123 7.23602e-05
80 *994:A2 *241:138 8.41384e-05
81 *996:B *241:138 3.14534e-05
82 *1002:A *241:138 3.63576e-05
83 *1055:B *987:A 4.75959e-05
84 *1078:A1 *241:123 0.000137461
85 *1143:A1 *241:123 1.46744e-05
86 *1147:A2 *241:123 0
87 *1150:A *1155:A1 0.000125885
88 *1151:A2 *1155:A1 2.99532e-05
89 *1153:B1 *1155:A1 0.000113891
90 *1155:A2 *1155:A1 1.91597e-05
91 *1155:B1 *1155:A1 0.000121023
92 *1167:D *1155:A1 4.93318e-05
93 *1170:A *241:91 0.000249935
94 *1170:A *241:104 0.00015212
95 *56:12 *241:138 0.000265162
96 *57:142 *241:138 0.000121036
97 *71:64 *987:A 0.000119873
98 *139:14 *987:A 2.34005e-05
99 *139:39 *987:A 0.000130664
100 *141:16 *987:A 0.000104949
101 *164:8 *241:123 0
102 *164:8 *241:138 7.41895e-05
103 *231:31 *1155:A1 0.000223825
104 *233:25 *241:20 3.39927e-05
105 *234:39 *241:61 1.73877e-05
106 *236:104 *241:123 1.18673e-05
107 *237:98 *241:104 4.35432e-05
108 *237:98 *241:123 4.82863e-05
109 *237:111 *241:123 3.74161e-05
110 *237:118 *241:123 7.40446e-05
111 *238:10 *1155:A1 6.71882e-05
112 *238:36 *1155:A1 8.69098e-05
113 *238:100 *241:123 0.00042513
114 *238:108 *241:91 3.76596e-05
115 *238:108 *241:104 7.3753e-05
116 *238:108 *241:123 2.05056e-05
117 *238:112 *241:91 0.000100544
*RES
1 *928:X *241:4 1.6 
2 *241:4 *241:12 9.125 
3 *241:12 *241:20 6.155 
4 *241:20 *929:C_N 1.6 
5 *241:20 *930:A 3.1 
6 *241:12 *241:46 6.455 
7 *241:46 *935:A 1.6 
8 *241:46 *241:61 10.93 
9 *241:61 *933:B1 1.6 
10 *241:61 *1155:A1 21.44 
11 *241:4 *241:91 9.155 
12 *241:91 *941:B1 3.6 
13 *241:91 *241:104 4.685 
14 *241:104 *938:B1 1.6 
15 *241:104 *241:123 18.14 
16 *241:123 *972:A 4.74 
17 *241:123 *241:138 14.63 
18 *241:138 *987:A 14.165 
19 *241:138 *994:A1 1.96 
*END

*D_NET *242 0.00158837
*CONN
*I *954:A2 I *D sky130_fd_sc_hd__o22a_1
*I *955:A2 I *D sky130_fd_sc_hd__a21oi_4
*I *929:X O *D sky130_fd_sc_hd__or3b_2
*CAP
1 *954:A2 9.35783e-05
2 *955:A2 0
3 *929:X 0.00022772
4 *242:14 0.000321298
5 *954:A2 *953:B2 0.000116165
6 *954:A2 *953:C1 0.00011099
7 *954:A2 *955:A1 4.66108e-05
8 *954:A2 *281:74 0.000230002
9 *242:14 *953:B1 0.000183835
10 *242:14 *953:C1 0
11 *242:14 *268:95 0
12 *242:14 *281:74 4.77757e-05
13 *930:A *242:14 1.06809e-05
14 *930:B *242:14 7.27003e-05
15 *241:12 *954:A2 0.000100164
16 *241:12 *242:14 2.68526e-05
*RES
1 *929:X *242:14 9.515 
2 *242:14 *955:A2 1.6 
3 *242:14 *954:A2 9.155 
*END

*D_NET *243 0.000198811
*CONN
*I *931:B I *D sky130_fd_sc_hd__xor2_1
*I *930:Y O *D sky130_fd_sc_hd__nand2_1
*CAP
1 *931:B 9.94055e-05
2 *930:Y 9.94055e-05
*RES
1 *930:Y *931:B 8.58 
*END

*D_NET *244 0.00177777
*CONN
*I *932:B I *D sky130_fd_sc_hd__and2_1
*I *953:A2 I *D sky130_fd_sc_hd__o221a_1
*I *931:X O *D sky130_fd_sc_hd__xor2_1
*CAP
1 *932:B 0.000237083
2 *953:A2 5.43012e-05
3 *931:X 0.000220283
4 *244:12 0.000511667
5 *932:B *953:A1 9.32439e-05
6 *932:B *954:B2 0
7 *932:B *281:74 0.000115779
8 *932:B *332:27 0.000198945
9 *932:B *332:35 5.53249e-06
10 *953:A2 *953:A1 2.69153e-05
11 *953:A2 *953:B2 5.96956e-05
12 *945:A *932:B 5.53276e-05
13 *230:79 *244:12 0.000199002
*RES
1 *931:X *244:12 8.81 
2 *244:12 *953:A2 2.74 
3 *244:12 *932:B 11.165 
*END

*D_NET *245 0.000917248
*CONN
*I *954:B1 I *D sky130_fd_sc_hd__o22a_1
*I *932:X O *D sky130_fd_sc_hd__and2_1
*CAP
1 *954:B1 0.00020357
2 *932:X 0.00020357
3 *954:B1 *954:B2 0.000138551
4 *954:B1 *281:74 0.000234674
5 *954:B1 *332:35 0.000136884
*RES
1 *932:X *954:B1 11.01 
*END

*D_NET *246 0.00027204
*CONN
*I *934:B I *D sky130_fd_sc_hd__xnor2_1
*I *933:X O *D sky130_fd_sc_hd__o21a_1
*CAP
1 *934:B 7.87388e-05
2 *933:X 7.87388e-05
3 *934:B *1150:B 0
4 *934:B *1167:CLK 0
5 *935:B *934:B 0
6 *234:39 *934:B 7.4027e-05
7 *241:61 *934:B 4.05358e-05
*RES
1 *933:X *934:B 8.94 
*END

*D_NET *247 0.00342963
*CONN
*I *952:A2 I *D sky130_fd_sc_hd__a22o_1
*I *953:B1 I *D sky130_fd_sc_hd__o221a_1
*I *934:Y O *D sky130_fd_sc_hd__xnor2_1
*CAP
1 *952:A2 0.000142307
2 *953:B1 0.000276508
3 *934:Y 0.000632131
4 *247:6 0.00105095
5 *952:A2 *951:B2 0.000159947
6 *952:A2 *1171:A 0
7 *952:A2 *268:95 7.01359e-05
8 *953:B1 *953:B2 3.50152e-06
9 *953:B1 *953:C1 8.7164e-05
10 *953:B1 *1171:A 0.000129839
11 *953:B1 *268:95 0
12 *247:6 *936:B 6.52265e-05
13 *247:6 *951:B1 1.07285e-05
14 *247:6 *951:B2 8.33308e-05
15 *247:6 *952:B2 6.62785e-06
16 *247:6 *1167:CLK 8.65905e-05
17 *247:6 *249:8 0.000353139
18 *930:A *953:B1 6.01273e-05
19 *935:B *247:6 8.73389e-06
20 *936:A *247:6 1.34594e-05
21 *241:61 *247:6 5.35181e-06
22 *242:14 *953:B1 0.000183835
*RES
1 *934:Y *247:6 9.64 
2 *247:6 *953:B1 11.675 
3 *247:6 *952:A2 7.955 
*END

*D_NET *248 0.000506673
*CONN
*I *936:B I *D sky130_fd_sc_hd__xor2_1
*I *935:Y O *D sky130_fd_sc_hd__nand2_1
*CAP
1 *936:B 4.91472e-05
2 *935:Y 4.91472e-05
3 *936:B *249:8 0.000164874
4 *935:B *936:B 0.000113809
5 *936:A *936:B 4.82863e-05
6 *241:61 *936:B 1.61831e-05
7 *247:6 *936:B 6.52265e-05
*RES
1 *935:Y *936:B 5.72 
*END

*D_NET *249 0.00154683
*CONN
*I *951:A2 I *D sky130_fd_sc_hd__a22o_1
*I *937:B I *D sky130_fd_sc_hd__or2_1
*I *936:X O *D sky130_fd_sc_hd__xor2_1
*CAP
1 *951:A2 0
2 *937:B 0.000145025
3 *936:X 7.86953e-05
4 *249:8 0.00022372
5 *937:B *937:A 3.68999e-05
6 *937:B *951:A1 0.000151544
7 *937:B *952:B2 4.8854e-05
8 *937:B *293:24 5.61142e-05
9 *937:B *297:16 8.35106e-05
10 *249:8 *951:B1 4.9913e-06
11 *249:8 *951:B2 1.70074e-05
12 *936:B *249:8 0.000164874
13 *235:126 *937:B 0
14 *241:46 *937:B 4.82863e-05
15 *241:46 *249:8 0.000124895
16 *241:61 *249:8 9.27255e-06
17 *247:6 *249:8 0.000353139
*RES
1 *936:X *249:8 5.425 
2 *249:8 *937:B 9.08 
3 *249:8 *951:A2 1.6 
*END

*D_NET *250 0.000497932
*CONN
*I *952:B1 I *D sky130_fd_sc_hd__a22o_1
*I *937:X O *D sky130_fd_sc_hd__or2_1
*CAP
1 *952:B1 0.000168689
2 *937:X 0.000168689
3 *952:B1 *951:B1 3.6757e-05
4 *952:B1 *952:B2 8.53113e-06
5 *952:B1 *1171:A 3.03465e-05
6 *952:B1 *297:16 8.49205e-05
*RES
1 *937:X *952:B1 9.675 
*END

*D_NET *251 0.000186442
*CONN
*I *939:B I *D sky130_fd_sc_hd__xnor2_1
*I *938:X O *D sky130_fd_sc_hd__o31a_1
*CAP
1 *939:B 2.79023e-05
2 *938:X 2.79023e-05
3 *1143:A1 *939:B 8.40269e-05
4 *241:123 *939:B 4.66108e-05
*RES
1 *938:X *939:B 3.995 
*END

*D_NET *252 0.000846708
*CONN
*I *950:A2 I *D sky130_fd_sc_hd__a22o_1
*I *940:B I *D sky130_fd_sc_hd__or2_1
*I *939:Y O *D sky130_fd_sc_hd__xnor2_1
*CAP
1 *950:A2 0
2 *940:B 0.00015421
3 *939:Y 0.000134688
4 *252:12 0.000288897
5 *940:B *950:A1 5.54864e-05
6 *940:B *950:B1 4.77719e-05
7 *940:B *950:B2 4.77719e-05
8 *940:B *951:B1 1.72945e-05
9 *252:12 *950:B1 3.60024e-06
10 *252:12 *268:95 9.69885e-05
11 *942:A *252:12 0
*RES
1 *939:Y *252:12 7.43 
2 *252:12 *940:B 4.495 
3 *252:12 *950:A2 1.6 
*END

*D_NET *253 0.00410314
*CONN
*I *951:B1 I *D sky130_fd_sc_hd__a22o_1
*I *940:X O *D sky130_fd_sc_hd__or2_1
*CAP
1 *951:B1 0.000752581
2 *940:X 0.000752581
3 *951:B1 *950:A1 0.000273026
4 *951:B1 *951:B2 0.00113096
5 *951:B1 *952:A1 0.000126523
6 *951:B1 *952:B2 0.000139664
7 *951:B1 *268:95 0.000692418
8 *951:B1 *292:14 8.64421e-05
9 *951:B1 *295:16 7.91708e-05
10 *940:B *951:B1 1.72945e-05
11 *952:B1 *951:B1 3.6757e-05
12 *241:61 *951:B1 0
13 *247:6 *951:B1 1.07285e-05
14 *249:8 *951:B1 4.9913e-06
*RES
1 *940:X *951:B1 23.51 
*END

*D_NET *254 0.000320267
*CONN
*I *942:B I *D sky130_fd_sc_hd__xnor2_1
*I *941:X O *D sky130_fd_sc_hd__o21a_1
*CAP
1 *942:B 0.000104549
2 *941:X 0.000104549
3 *942:B *951:B2 4.82919e-05
4 *945:A *942:B 0
5 *1170:A *942:B 6.28765e-05
*RES
1 *941:X *942:B 9.03 
*END

*D_NET *255 0.000933201
*CONN
*I *943:B I *D sky130_fd_sc_hd__or2_1
*I *949:A2 I *D sky130_fd_sc_hd__a22o_1
*I *942:Y O *D sky130_fd_sc_hd__xnor2_1
*CAP
1 *943:B 1.91079e-05
2 *949:A2 0
3 *942:Y 0.000155311
4 *255:14 0.000174419
5 *943:B *949:A1 0.000125262
6 *943:B *281:74 6.73895e-05
7 *255:14 *949:A1 2.30292e-05
8 *255:14 *949:B2 6.45567e-05
9 *255:14 *281:74 0.000217529
10 *255:14 *332:27 0
11 *942:A *255:14 8.65961e-05
*RES
1 *942:Y *255:14 5.905 
2 *255:14 *949:A2 1.6 
3 *255:14 *943:B 2.74 
*END

*D_NET *256 0.000553055
*CONN
*I *950:B1 I *D sky130_fd_sc_hd__a22o_1
*I *943:X O *D sky130_fd_sc_hd__or2_1
*CAP
1 *950:B1 0.000164383
2 *943:X 0.000164383
3 *950:B1 *950:A1 4.77719e-05
4 *950:B1 *950:B2 0.000103206
5 *950:B1 *1163:CLK 1.67559e-05
6 *950:B1 *1166:CLK 5.18317e-06
7 *940:B *950:B1 4.77719e-05
8 *252:12 *950:B1 3.60024e-06
*RES
1 *943:X *950:B1 10.35 
*END

*D_NET *257 0.00032706
*CONN
*I *945:B I *D sky130_fd_sc_hd__xor2_1
*I *944:Y O *D sky130_fd_sc_hd__nand2_1
*CAP
1 *945:B 8.62071e-05
2 *944:Y 8.62071e-05
3 *945:B *953:A1 7.11301e-05
4 *945:B *258:10 8.35157e-05
*RES
1 *944:Y *945:B 5.03 
*END

*D_NET *258 0.00141828
*CONN
*I *947:A2 I *D sky130_fd_sc_hd__a211o_1
*I *948:B I *D sky130_fd_sc_hd__or2_1
*I *945:X O *D sky130_fd_sc_hd__xor2_1
*CAP
1 *947:A2 9.97878e-06
2 *948:B 0.000259694
3 *945:X 0.000195664
4 *258:10 0.000465336
5 *947:A2 *948:A 3.12916e-05
6 *948:B *947:B1 1.17614e-05
7 *948:B *947:C1 1.61905e-05
8 *948:B *948:A 2.93201e-05
9 *948:B *1166:CLK 0
10 *944:B *258:10 0.000105376
11 *945:B *258:10 8.35157e-05
12 *946:A *948:B 0.000143827
13 *946:A *258:10 6.63221e-05
*RES
1 *945:X *258:10 5.62 
2 *258:10 *948:B 9.3425 
3 *258:10 *947:A2 1.96 
*END

*D_NET *259 0.000607978
*CONN
*I *947:C1 I *D sky130_fd_sc_hd__a211o_1
*I *946:Y O *D sky130_fd_sc_hd__inv_2
*CAP
1 *947:C1 0.00021395
2 *946:Y 0.00021395
3 *947:C1 *948:A 0.00012392
4 *946:A *947:C1 3.9968e-05
5 *948:B *947:C1 1.61905e-05
*RES
1 *946:Y *947:C1 6.725 
*END

*D_NET *260 0.000583639
*CONN
*I *949:B1 I *D sky130_fd_sc_hd__a22o_1
*I *947:X O *D sky130_fd_sc_hd__a211o_1
*CAP
1 *949:B1 0.000203936
2 *947:X 0.000203936
3 *949:B1 *948:A 1.42674e-05
4 *949:B1 *949:B2 0
5 *946:A *949:B1 0.0001615
6 *238:112 *949:B1 0
*RES
1 *947:X *949:B1 10.155 
*END

*D_NET *261 0.000977598
*CONN
*I *949:B2 I *D sky130_fd_sc_hd__a22o_1
*I *948:X O *D sky130_fd_sc_hd__or2_1
*CAP
1 *949:B2 0.00035656
2 *948:X 0.00035656
3 *949:B2 *949:A1 0.000199922
4 *949:B2 *1166:CLK 0
5 *949:B1 *949:B2 0
6 *255:14 *949:B2 6.45567e-05
*RES
1 *948:X *949:B2 12.27 
*END

*D_NET *262 0.00100385
*CONN
*I *950:B2 I *D sky130_fd_sc_hd__a22o_1
*I *949:X O *D sky130_fd_sc_hd__a22o_1
*CAP
1 *950:B2 0.000216146
2 *949:X 0.000216146
3 *950:B2 *950:A1 4.77719e-05
4 *950:B2 *1163:CLK 0.000137571
5 *950:B2 *281:74 0.000235238
6 *940:B *950:B2 4.77719e-05
7 *950:B1 *950:B2 0.000103206
*RES
1 *949:X *950:B2 11.46 
*END

*D_NET *263 0.00310383
*CONN
*I *951:B2 I *D sky130_fd_sc_hd__a22o_1
*I *950:X O *D sky130_fd_sc_hd__a22o_1
*CAP
1 *951:B2 0.000802831
2 *950:X 0.000802831
3 *951:B2 *952:B2 1.20152e-05
4 *951:B2 *953:C1 4.66108e-05
5 *942:B *951:B2 4.82919e-05
6 *951:B1 *951:B2 0.00113096
7 *952:A2 *951:B2 0.000159947
8 *247:6 *951:B2 8.33308e-05
9 *249:8 *951:B2 1.70074e-05
*RES
1 *950:X *951:B2 18.755 
*END

*D_NET *264 0.000748834
*CONN
*I *952:B2 I *D sky130_fd_sc_hd__a22o_1
*I *951:X O *D sky130_fd_sc_hd__a22o_1
*CAP
1 *952:B2 0.000242239
2 *951:X 0.000242239
3 *952:B2 *1171:A 4.86642e-05
4 *937:B *952:B2 4.8854e-05
5 *951:B1 *952:B2 0.000139664
6 *951:B2 *952:B2 1.20152e-05
7 *952:B1 *952:B2 8.53113e-06
8 *247:6 *952:B2 6.62785e-06
*RES
1 *951:X *952:B2 10.515 
*END

*D_NET *265 0.00106855
*CONN
*I *953:C1 I *D sky130_fd_sc_hd__o221a_1
*I *952:X O *D sky130_fd_sc_hd__a22o_1
*CAP
1 *953:C1 0.00026414
2 *952:X 0.00026414
3 *953:C1 *953:B2 0.000145071
4 *953:C1 *955:A1 0.000131168
5 *953:C1 *268:95 1.92679e-05
6 *951:B2 *953:C1 4.66108e-05
7 *953:B1 *953:C1 8.7164e-05
8 *954:A2 *953:C1 0.00011099
9 *242:14 *953:C1 0
*RES
1 *952:X *953:C1 12.765 
*END

*D_NET *266 0.00086629
*CONN
*I *954:B2 I *D sky130_fd_sc_hd__o22a_1
*I *953:X O *D sky130_fd_sc_hd__o221a_1
*CAP
1 *954:B2 0.000166117
2 *953:X 0.000166117
3 *954:B2 *953:A1 4.89395e-05
4 *954:B2 *953:B2 0.000308907
5 *954:B2 *332:35 3.76596e-05
6 *932:B *954:B2 0
7 *954:B1 *954:B2 0.000138551
*RES
1 *953:X *954:B2 11.325 
*END

*D_NET *267 0.000465216
*CONN
*I *955:B1 I *D sky130_fd_sc_hd__a21oi_4
*I *954:X O *D sky130_fd_sc_hd__o22a_1
*CAP
1 *955:B1 0.000104779
2 *954:X 0.000104779
3 *955:B1 *281:74 8.40213e-05
4 *955:B1 *332:27 3.95724e-05
5 *955:B1 *332:35 0.000113797
6 *945:A *955:B1 0
7 *241:12 *955:B1 1.82667e-05
*RES
1 *954:X *955:B1 9.735 
*END

*D_NET *268 0.0184046
*CONN
*I *1143:A3 I *D sky130_fd_sc_hd__a31o_1
*I *1147:A3 I *D sky130_fd_sc_hd__a31o_1
*I *1145:A3 I *D sky130_fd_sc_hd__a31o_1
*I *1149:A3 I *D sky130_fd_sc_hd__a31o_1
*I *1141:A3 I *D sky130_fd_sc_hd__a31o_1
*I *1151:A3 I *D sky130_fd_sc_hd__a31o_1
*I *956:B I *D sky130_fd_sc_hd__nor2_2
*I *1153:A3 I *D sky130_fd_sc_hd__a31o_1
*I *1155:A3 I *D sky130_fd_sc_hd__a31o_1
*I *955:Y O *D sky130_fd_sc_hd__a21oi_4
*CAP
1 *1143:A3 1.45361e-05
2 *1147:A3 0.00077806
3 *1145:A3 0
4 *1149:A3 0.000146012
5 *1141:A3 0.000132569
6 *1151:A3 0
7 *956:B 0.000608842
8 *1153:A3 3.19749e-05
9 *1155:A3 0.000221937
10 *955:Y 0.000135922
11 *268:101 0.000396923
12 *268:97 0.00102897
13 *268:95 0.00124682
14 *268:24 0.000364562
15 *268:18 0.000760838
16 *268:14 0.000359476
17 *268:8 0.00128345
18 *268:6 0.00220096
19 *956:B *269:8 4.77757e-05
20 *956:B *316:135 0.000107432
21 *1141:A3 *1184:A 8.33066e-06
22 *1141:A3 *281:10 0
23 *1141:A3 *281:33 0.000122817
24 *1147:A3 *1159:CLK 2.60986e-05
25 *1147:A3 *1163:CLK 0
26 *1153:A3 *281:33 8.34705e-05
27 *1155:A3 *1154:B 5.29321e-05
28 *1155:A3 *1162:RESET_B 1.17646e-05
29 *268:8 *926:A 1.08758e-05
30 *268:8 *281:74 0.00011108
31 *268:14 *926:A 8.65905e-05
32 *268:14 *1154:B 3.13354e-05
33 *268:18 *1154:B 0.000196056
34 *268:24 *281:33 8.35068e-05
35 *268:95 *939:A 5.53249e-06
36 *268:95 *952:A1 0.000158175
37 *268:95 *955:A1 0.000180116
38 *268:95 *295:16 0.00015896
39 *268:95 *297:16 1.99539e-05
40 *268:101 *1163:CLK 0
41 *268:101 *1166:CLK 0
42 *919:A *268:18 1.08758e-05
43 *926:D *268:14 4.99619e-05
44 *927:A *268:8 0.000234598
45 *942:A *268:95 0
46 *951:B1 *268:95 0.000692418
47 *952:A2 *268:95 7.01359e-05
48 *953:B1 *268:95 0
49 *953:C1 *268:95 1.92679e-05
50 *1102:A *1147:A3 0.000237718
51 *1102:B *1147:A3 0.000114524
52 *1103:A1 *1147:A3 9.05592e-05
53 *1129:B2 *1147:A3 0.000296088
54 *1141:A1 *1141:A3 0
55 *1141:B1 *1141:A3 0.00012398
56 *1143:A1 *1143:A3 4.82919e-05
57 *1143:A1 *268:95 0.00049481
58 *1143:A2 *1143:A3 5.83121e-06
59 *1145:A1 *1147:A3 0.00016697
60 *1145:A1 *268:101 2.42236e-05
61 *1145:B1 *1149:A3 0.000125236
62 *1147:A2 *1143:A3 1.91597e-05
63 *1147:A2 *268:95 0.000175964
64 *1149:A2 *1149:A3 0.000159905
65 *1151:A1 *268:8 9.80943e-06
66 *1151:A1 *268:14 0.000120929
67 *1151:A2 *268:14 4.77719e-05
68 *1151:A2 *268:18 4.77757e-05
69 *1153:A2 *1153:A3 5.35313e-05
70 *1155:A1 *1155:A3 0.000119246
71 *1155:A2 *1155:A3 0.000168811
72 *1155:A2 *268:24 2.84864e-05
73 *1163:D *1147:A3 0.00011852
74 *1164:D *268:101 9.22565e-05
75 *1165:D *1147:A3 9.37731e-05
76 *1167:D *956:B 5.29835e-05
77 *1169:D *1155:A3 4.89362e-05
78 *190:24 *1147:A3 9.49878e-05
79 *230:10 *956:B 5.08127e-05
80 *230:12 *956:B 0.00119367
81 *230:12 *268:24 9.50342e-06
82 *230:14 *268:24 5.16418e-05
83 *230:20 *268:24 0.000116475
84 *230:37 *1153:A3 8.52883e-05
85 *230:37 *268:24 3.57349e-05
86 *230:94 *268:101 0.000468919
87 *231:23 *268:14 6.07575e-06
88 *231:23 *268:18 7.93434e-05
89 *235:70 *1147:A3 0.00016348
90 *241:12 *268:6 0.000193712
91 *241:12 *268:8 0.000379921
92 *242:14 *268:95 0
93 *252:12 *268:95 9.69885e-05
*RES
1 *955:Y *268:6 3.43 
2 *268:6 *268:8 10.8 
3 *268:8 *268:14 4.62 
4 *268:14 *268:18 3.83 
5 *268:18 *268:24 4.43 
6 *268:24 *1155:A3 10.04 
7 *268:24 *1153:A3 3.01 
8 *268:18 *956:B 18.69 
9 *268:14 *1151:A3 1.6 
10 *268:8 *1141:A3 8.375 
11 *268:6 *268:95 28.88 
12 *268:95 *268:97 2 
13 *268:97 *268:101 7.97 
14 *268:101 *1149:A3 5.2 
15 *268:101 *1145:A3 1.6 
16 *268:97 *1147:A3 20.58 
17 *268:95 *1143:A3 2.05 
*END

*D_NET *269 0.0145955
*CONN
*I *1133:B1 I *D sky130_fd_sc_hd__a22o_1
*I *1137:B1 I *D sky130_fd_sc_hd__a22o_1
*I *1139:B1 I *D sky130_fd_sc_hd__a22o_1
*I *1130:B1 I *D sky130_fd_sc_hd__a22o_1
*I *957:B1_N I *D sky130_fd_sc_hd__o21ba_1
*I *956:Y O *D sky130_fd_sc_hd__nor2_2
*CAP
1 *1133:B1 0.00259156
2 *1137:B1 0
3 *1139:B1 0.000455463
4 *1130:B1 9.14392e-05
5 *957:B1_N 2.13207e-05
6 *956:Y 0.000102185
7 *269:42 0.000598867
8 *269:36 0.00341908
9 *269:21 0.00123045
10 *269:8 0.000578398
11 *1133:B1 *295:16 8.41703e-06
12 *1133:B1 *315:38 0.000191885
13 *1133:B1 *316:22 4.11194e-05
14 *1139:B1 *1137:A2 4.92062e-05
15 *1139:B1 *1139:A2 7.23533e-05
16 *1139:B1 *1160:CLK 0
17 *1139:B1 *1161:CLK 8.65905e-05
18 *1139:B1 *282:30 0
19 *1139:B1 *298:12 0
20 *1139:B1 *315:56 0.000108031
21 *1139:B1 *315:58 4.18603e-06
22 *269:8 *316:135 3.64998e-06
23 *269:21 *1005:A 0.00026231
24 *269:21 *1024:A 6.95485e-05
25 *269:21 *282:21 6.45033e-05
26 *269:21 *294:14 0
27 *269:36 *975:A 6.90254e-05
28 *269:42 *1137:A2 2.17931e-05
29 *956:A *957:B1_N 4.66108e-05
30 *956:A *269:8 2.8694e-05
31 *956:B *269:8 4.77757e-05
32 *957:A2 *957:B1_N 4.30166e-05
33 *957:A2 *269:8 4.66108e-05
34 *1006:A1 *269:36 3.4222e-05
35 *1018:B *1133:B1 2.75229e-05
36 *1019:C_N *1133:B1 4.80285e-05
37 *1027:B1_N *269:21 0.000217444
38 *1029:B *1133:B1 2.05571e-05
39 *1046:C *269:21 0.000112907
40 *1095:A *1133:B1 3.00381e-05
41 *1108:B *1133:B1 9.53428e-06
42 *1111:A1 *1133:B1 2.67275e-05
43 *1112:C1 *1133:B1 1.34503e-05
44 *1130:B2 *269:36 7.08281e-05
45 *1132:B1 *1133:B1 0.000122801
46 *1137:B2 *1133:B1 0.000944491
47 *1137:B2 *269:42 5.30732e-05
48 *1138:A *1139:B1 7.32745e-05
49 *1139:A1 *1139:B1 8.40213e-05
50 *1139:B2 *1139:B1 1.33293e-05
51 *1156:D *957:B1_N 2.10152e-05
52 *1160:D *1139:B1 7.11235e-06
53 *1161:D *1139:B1 0.000319956
54 *61:95 *269:36 2.10731e-05
55 *91:29 *269:36 2.23485e-05
56 *92:12 *269:36 0.00011379
57 *101:17 *1133:B1 8.65348e-05
58 *112:23 *269:21 9.71067e-05
59 *113:16 *1133:B1 7.1301e-06
60 *113:16 *269:36 0.000296138
61 *164:23 *1133:B1 0
62 *198:12 *1133:B1 6.77062e-05
63 *200:30 *1133:B1 0.000207065
64 *230:10 *269:21 0.000287323
65 *232:14 *269:21 2.84864e-05
66 *232:47 *269:21 9.3872e-05
67 *232:66 *1130:B1 1.28269e-05
68 *232:66 *1139:B1 0.000343712
69 *232:66 *269:36 2.65814e-06
70 *234:6 *269:36 0.000303274
*RES
1 *956:Y *269:8 3.445 
2 *269:8 *957:B1_N 2.395 
3 *269:8 *269:21 15.58 
4 *269:21 *1130:B1 2.92 
5 *269:21 *269:36 13.16 
6 *269:36 *269:42 3.845 
7 *269:42 *1139:B1 16.655 
8 *269:42 *1137:B1 1.6 
9 *269:36 *1133:B1 29.5237 
*END

*D_NET *270 0.00618852
*CONN
*I *1002:C I *D sky130_fd_sc_hd__nand3_1
*I *1003:A1 I *D sky130_fd_sc_hd__o211a_1
*I *996:A I *D sky130_fd_sc_hd__xor2_1
*I *992:A I *D sky130_fd_sc_hd__xnor2_1
*I *1014:A I *D sky130_fd_sc_hd__xnor2_1
*I *1031:B1_N I *D sky130_fd_sc_hd__a21bo_1
*I *1013:A I *D sky130_fd_sc_hd__or3b_2
*I *958:Y O *D sky130_fd_sc_hd__nand2_2
*CAP
1 *1002:C 0
2 *1003:A1 0.000144222
3 *996:A 0
4 *992:A 0
5 *1014:A 0
6 *1031:B1_N 0.000105068
7 *1013:A 1.20873e-05
8 *958:Y 0.000165229
9 *270:30 0.000198097
10 *270:28 0.000588441
11 *270:18 0.000618938
12 *270:16 0.000496957
13 *270:12 0.000634676
14 *270:6 0.000270165
15 *1031:B1_N *1021:A 7.36042e-05
16 *270:6 *958:A 8.53309e-05
17 *270:16 *285:34 7.67307e-05
18 *270:16 *316:62 8.52972e-05
19 *270:18 *285:34 0.000594983
20 *270:18 *316:62 0.000170866
21 *270:28 *285:34 4.89362e-05
22 *270:28 *316:62 2.69217e-05
23 *987:C *270:28 0
24 *992:B *270:18 0.000194295
25 *997:B *270:16 0.00027174
26 *1001:B *270:6 6.99772e-05
27 *1003:A2 *1003:A1 0.000216517
28 *1003:A2 *270:16 0.000159156
29 *1003:B1 *1003:A1 1.52352e-05
30 *1003:C1 *270:6 8.35157e-05
31 *1004:A *1003:A1 3.50152e-06
32 *1014:B *270:28 0
33 *1019:B *270:28 7.06347e-05
34 *1130:B2 *1013:A 2.86975e-05
35 *1130:B2 *270:28 0.000129177
36 *1130:B2 *270:30 0.000127316
37 *69:12 *270:28 0
38 *73:14 *270:28 3.57851e-05
39 *82:6 *270:16 4.77769e-05
40 *99:10 *1013:A 2.68464e-05
41 *99:10 *1031:B1_N 1.86541e-05
42 *99:10 *270:30 7.08554e-05
43 *100:12 *270:28 4.88478e-05
44 *139:39 *270:28 0
45 *141:16 *270:28 0
46 *190:30 *270:12 0.000173441
*RES
1 *958:Y *270:6 4.81 
2 *270:6 *270:12 6.145 
3 *270:12 *270:16 7.275 
4 *270:16 *270:18 5.625 
5 *270:18 *270:28 13.105 
6 *270:28 *270:30 2.175 
7 *270:30 *1013:A 2.05 
8 *270:30 *1031:B1_N 7.535 
9 *270:28 *1014:A 1.6 
10 *270:18 *992:A 1.6 
11 *270:16 *996:A 1.6 
12 *270:12 *1003:A1 4.39 
13 *270:6 *1002:C 1.6 
*END

*D_NET *271 0.0123161
*CONN
*I *967:A1 I *D sky130_fd_sc_hd__o21ai_1
*I *966:A I *D sky130_fd_sc_hd__and3_1
*I *961:A I *D sky130_fd_sc_hd__and4_1
*I *963:B2 I *D sky130_fd_sc_hd__a22o_1
*I *964:A I *D sky130_fd_sc_hd__nand4_1
*I *974:A I *D sky130_fd_sc_hd__nand4_2
*I *979:A I *D sky130_fd_sc_hd__nand4_2
*I *1040:A I *D sky130_fd_sc_hd__nand4_1
*I *1039:A I *D sky130_fd_sc_hd__and4_1
*I *1035:A I *D sky130_fd_sc_hd__nand4_1
*I *959:X O *D sky130_fd_sc_hd__buf_2
*CAP
1 *967:A1 0.000370036
2 *966:A 7.65934e-05
3 *961:A 0
4 *963:B2 0.000205021
5 *964:A 0.000106681
6 *974:A 0.000286075
7 *979:A 6.54656e-05
8 *1040:A 6.51292e-05
9 *1039:A 5.20826e-05
10 *1035:A 0.000109853
11 *959:X 0
12 *271:126 0.000702075
13 *271:109 0.000501283
14 *271:86 0.000581516
15 *271:69 0.000794245
16 *271:14 0.000221084
17 *271:12 0.000270012
18 *271:10 0.000447255
19 *271:6 0.000635446
20 *271:4 0.000670222
21 *963:B2 *272:69 2.56752e-06
22 *963:B2 *272:86 2.42879e-05
23 *963:B2 *282:54 4.66108e-05
24 *964:A *295:16 6.83917e-05
25 *964:A *332:46 0.000132821
26 *966:A *272:107 4.99619e-05
27 *966:A *282:54 2.75145e-05
28 *967:A1 *958:A 1.92371e-05
29 *967:A1 *968:A1 1.79536e-05
30 *967:A1 *278:14 0.000204592
31 *967:A1 *278:31 4.83522e-05
32 *967:A1 *279:8 6.03947e-06
33 *967:A1 *332:81 1.09567e-05
34 *974:A *959:A 1.0397e-05
35 *974:A *305:45 0.000140254
36 *979:A *272:18 3.21682e-05
37 *1035:A *980:A2 5.7687e-05
38 *1035:A *272:18 4.04087e-05
39 *1035:A *272:24 0.00013112
40 *1039:A *1039:B 3.112e-05
41 *1040:A *980:A2 0.000106512
42 *271:6 *959:A 3.33839e-05
43 *271:6 *305:45 2.06497e-05
44 *271:10 *959:A 1.32026e-05
45 *271:12 *272:18 0.000144199
46 *271:14 *980:A2 1.11025e-05
47 *271:14 *272:18 7.76471e-05
48 *271:69 *305:45 3.14534e-05
49 *271:86 *963:A1 0.000137578
50 *271:86 *988:B1 9.47454e-05
51 *271:86 *272:69 1.26626e-05
52 *271:86 *272:86 4.38876e-05
53 *271:86 *295:16 9.83063e-05
54 *271:86 *332:46 6.28511e-05
55 *271:109 *277:12 8.53113e-06
56 *271:109 *277:27 6.45236e-05
57 *271:109 *332:103 1.07797e-05
58 *271:126 *970:A 9.71528e-05
59 *271:126 *970:B 0.000121391
60 *271:126 *272:107 9.57588e-05
61 *271:126 *277:27 4.66108e-05
62 *961:D *963:B2 0.000331505
63 *961:D *271:109 0.000307043
64 *961:D *271:126 8.82995e-05
65 *963:B1 *963:B2 4.77757e-05
66 *970:C *271:126 4.82863e-05
67 *970:D_N *967:A1 4.1977e-05
68 *979:B *979:A 8.41384e-05
69 *979:D *979:A 4.80285e-05
70 *981:C *974:A 0.000160651
71 *1044:B1 *271:12 3.99745e-05
72 *1045:A1 *964:A 7.20893e-06
73 *1051:A *974:A 8.26536e-05
74 *57:33 *974:A 0.00016758
75 *66:10 *974:A 0.000243585
76 *66:10 *271:10 0.000306867
77 *71:10 *974:A 9.09611e-05
78 *71:12 *974:A 2.78732e-05
79 *71:68 *271:109 3.68769e-05
80 *74:8 *271:86 6.95739e-05
81 *125:14 *271:12 0.000112595
82 *125:14 *271:14 0.000132821
83 *126:12 *1040:A 0.000106512
84 *137:14 *974:A 0.000105841
85 *152:8 *964:A 1.22349e-05
86 *164:8 *966:A 9.7872e-05
87 *164:8 *967:A1 3.05646e-05
88 *233:44 *979:A 2.28084e-05
89 *233:44 *271:12 4.13135e-05
90 *235:99 *271:69 0.000360648
91 *236:50 *1035:A 8.49205e-05
92 *237:40 *1035:A 0.000111703
93 *241:123 *966:A 8.09021e-06
94 *241:138 *966:A 0.000157595
95 *241:138 *967:A1 0.000104234
*RES
1 *959:X *271:4 1.6 
2 *271:4 *271:6 1.485 
3 *271:6 *271:10 5.21 
4 *271:10 *271:12 3.42 
5 *271:12 *271:14 1.89 
6 *271:14 *1035:A 7.05 
7 *271:14 *1039:A 4.395 
8 *271:12 *1040:A 5.43 
9 *271:10 *979:A 5.265 
10 *271:6 *974:A 14.63 
11 *271:4 *271:69 9.005 
12 *271:69 *964:A 5.7975 
13 *271:69 *271:86 6.185 
14 *271:86 *963:B2 9.515 
15 *271:86 *271:109 7.99 
16 *271:109 *961:A 1.6 
17 *271:109 *271:126 7.43 
18 *271:126 *966:A 6.195 
19 *271:126 *967:A1 7.26615 
*END

*D_NET *272 0.0161431
*CONN
*I *974:B I *D sky130_fd_sc_hd__nand4_2
*I *1039:B I *D sky130_fd_sc_hd__and4_1
*I *967:A2 I *D sky130_fd_sc_hd__o21ai_1
*I *966:C I *D sky130_fd_sc_hd__and3_1
*I *1072:A I *D sky130_fd_sc_hd__xnor2_1
*I *961:C I *D sky130_fd_sc_hd__and4_1
*I *963:A2 I *D sky130_fd_sc_hd__a22o_1
*I *964:C I *D sky130_fd_sc_hd__nand4_1
*I *1069:B2 I *D sky130_fd_sc_hd__a22o_1
*I *1057:A I *D sky130_fd_sc_hd__and4_1
*I *960:X O *D sky130_fd_sc_hd__clkbuf_4
*CAP
1 *974:B 0.000114886
2 *1039:B 2.47198e-05
3 *967:A2 0.000518271
4 *966:C 0
5 *1072:A 0.000356624
6 *961:C 0
7 *963:A2 0
8 *964:C 0
9 *1069:B2 9.88613e-06
10 *1057:A 0.000195773
11 *960:X 0.00010717
12 *272:122 0.000527496
13 *272:107 0.000771911
14 *272:86 0.00104864
15 *272:69 0.000787865
16 *272:60 0.000346578
17 *272:45 0.000493318
18 *272:24 0.00116186
19 *272:18 0.00140688
20 *272:14 0.000920274
21 *967:A2 *282:54 2.30292e-05
22 *967:A2 *332:81 3.08702e-05
23 *974:B *962:B 0.000267554
24 *1057:A *971:A 7.42989e-06
25 *1057:A *1171:A 0.000251765
26 *1057:A *293:24 0
27 *272:14 *962:B 0.000129
28 *272:24 *980:A2 0
29 *272:45 *332:35 0.00010669
30 *272:60 *332:35 0.00017562
31 *272:60 *332:46 2.13434e-05
32 *272:69 *963:A1 0.000129742
33 *272:69 *332:46 0.000197339
34 *272:86 *274:44 4.51111e-05
35 *272:86 *332:103 0.000124868
36 *272:107 *962:A 9.50342e-06
37 *272:107 *970:A 1.91597e-05
38 *272:107 *274:44 1.94805e-05
39 *272:107 *282:54 4.72453e-05
40 *272:107 *316:32 0.000286629
41 *272:107 *332:103 4.38051e-05
42 *961:D *272:69 0
43 *963:B2 *272:69 2.56752e-06
44 *963:B2 *272:86 2.42879e-05
45 *964:D *272:60 4.1652e-06
46 *964:D *272:69 0.000101556
47 *966:A *272:107 4.99619e-05
48 *970:D_N *272:107 4.66108e-05
49 *972:A *967:A2 0.000101843
50 *972:A *272:107 5.83121e-06
51 *972:A *272:122 1.02046e-05
52 *972:B *967:A2 7.92445e-05
53 *973:B1 *967:A2 7.95662e-05
54 *974:D *974:B 7.44252e-05
55 *974:D *272:14 4.66108e-05
56 *979:A *272:18 3.21682e-05
57 *1024:B *272:14 3.61231e-05
58 *1035:A *272:18 4.04087e-05
59 *1035:A *272:24 0.00013112
60 *1039:A *1039:B 3.112e-05
61 *1051:D *272:18 7.23533e-05
62 *1056:B *272:24 0.000105597
63 *1059:B *272:45 0.000190236
64 *1059:B *272:60 3.30399e-05
65 *1061:B1 *272:60 7.14511e-05
66 *1066:A *272:60 1.04737e-05
67 *1071:B1 *1072:A 8.80441e-05
68 *1072:B *1072:A 1.14169e-05
69 *1074:B *1072:A 0.000122199
70 *1078:A1 *1072:A 0.000138757
71 *1078:B1 *1072:A 0.000137461
72 *57:8 *272:24 0.000123238
73 *57:20 *1057:A 0
74 *57:68 *272:24 1.41114e-05
75 *57:68 *272:45 0.000391399
76 *57:100 *1072:A 6.12758e-05
77 *57:121 *272:107 0.000284969
78 *61:10 *272:14 0.000134248
79 *61:10 *272:18 0
80 *121:8 *272:18 0.000315301
81 *121:8 *272:24 9.18556e-05
82 *121:27 *272:18 0.000236506
83 *127:8 *1039:B 8.41384e-05
84 *142:8 *272:24 1.27575e-05
85 *144:12 *1057:A 7.01359e-05
86 *164:8 *1072:A 3.39064e-05
87 *190:30 *967:A2 0
88 *233:69 *272:18 0
89 *233:125 *272:69 4.99725e-05
90 *234:21 *272:18 0
91 *234:25 *272:18 2.96383e-05
92 *234:35 *272:18 0.000180079
93 *234:37 *272:18 2.23407e-05
94 *234:39 *272:24 6.09816e-05
95 *235:20 *272:14 7.26302e-05
96 *235:20 *272:18 2.85623e-05
97 *236:16 *1072:A 0.000124821
98 *236:36 *1057:A 4.61701e-06
99 *236:50 *272:24 0.00012817
100 *236:104 *1072:A 5.00903e-05
101 *237:59 *1057:A 8.23457e-05
102 *237:72 *1069:B2 4.77807e-05
103 *238:59 *1057:A 5.86036e-05
104 *238:66 *1069:B2 4.77807e-05
105 *238:92 *1072:A 4.89395e-05
106 *241:123 *967:A2 2.97004e-06
107 *241:123 *1072:A 0.000267601
108 *271:12 *272:18 0.000144199
109 *271:14 *272:18 7.76471e-05
110 *271:86 *272:69 1.26626e-05
111 *271:86 *272:86 4.38876e-05
112 *271:126 *272:107 9.57588e-05
*RES
1 *960:X *272:14 8.735 
2 *272:14 *272:18 17.15 
3 *272:18 *272:24 12.095 
4 *272:24 *1057:A 9.56 
5 *272:24 *272:45 8.315 
6 *272:45 *1069:B2 4.05 
7 *272:45 *272:60 4.74 
8 *272:60 *964:C 3.6 
9 *272:60 *272:69 4.185 
10 *272:69 *963:A2 3.6 
11 *272:69 *272:86 4.30047 
12 *272:86 *961:C 3.6 
13 *272:86 *272:107 13.695 
14 *272:107 *1072:A 15.53 
15 *272:107 *272:122 0.18375 
16 *272:122 *966:C 1.6 
17 *272:122 *967:A2 13.0212 
18 *272:18 *1039:B 4.395 
19 *272:14 *974:B 4.48 
*END

*D_NET *273 0.00048456
*CONN
*I *970:A I *D sky130_fd_sc_hd__or4b_1
*I *961:X O *D sky130_fd_sc_hd__and4_1
*CAP
1 *970:A 8.2232e-05
2 *961:X 8.2232e-05
3 *970:C *970:A 4.82863e-05
4 *970:D_N *970:A 0.000155497
5 *271:126 *970:A 9.71528e-05
6 *272:107 *970:A 1.91597e-05
*RES
1 *961:X *970:A 5.375 
*END

*D_NET *274 0.00731493
*CONN
*I *968:B1 I *D sky130_fd_sc_hd__o21a_1
*I *969:B I *D sky130_fd_sc_hd__or3_1
*I *965:A I *D sky130_fd_sc_hd__and3_1
*I *988:B1 I *D sky130_fd_sc_hd__a21oi_1
*I *982:B1 I *D sky130_fd_sc_hd__a21o_1
*I *981:A I *D sky130_fd_sc_hd__nand3_1
*I *962:X O *D sky130_fd_sc_hd__and2_1
*CAP
1 *968:B1 0.000243138
2 *969:B 0
3 *965:A 8.52292e-05
4 *988:B1 0.000418918
5 *982:B1 2.13461e-05
6 *981:A 0.000155114
7 *962:X 0
8 *274:76 0.000543596
9 *274:44 0.000694544
10 *274:42 0.00120674
11 *274:10 0.000339044
12 *274:4 0.000878467
13 *965:A *282:54 9.4087e-05
14 *968:B1 *958:A 0
15 *968:B1 *968:A1 8.41703e-06
16 *968:B1 *1147:A1 4.66108e-05
17 *968:B1 *278:31 4.46248e-05
18 *968:B1 *278:53 4.9968e-05
19 *968:B1 *279:8 2.49909e-05
20 *968:B1 *279:23 1.07797e-05
21 *968:B1 *316:22 2.92496e-05
22 *968:B1 *316:26 7.49327e-05
23 *968:B1 *332:81 2.75229e-05
24 *981:A *293:24 5.16348e-05
25 *988:B1 *295:16 9.30787e-05
26 *988:B1 *305:45 0.000499351
27 *988:B1 *316:32 9.37731e-05
28 *988:B1 *332:54 0
29 *274:42 *962:B 4.77757e-05
30 *274:42 *989:B1 0.000155594
31 *274:44 *962:A 0
32 *274:44 *316:32 0.000326413
33 *274:44 *332:54 0
34 *274:76 *962:A 0
35 *274:76 *316:26 0.000306155
36 *274:76 *316:32 0.000100162
37 *274:76 *316:62 2.14129e-05
38 *973:B1 *968:B1 0.000129455
39 *982:A2 *981:A 9.50342e-06
40 *982:A2 *982:B1 3.60024e-06
41 *991:A *274:42 7.10957e-05
42 *1053:A *274:10 2.68526e-05
43 *56:12 *968:B1 0
44 *131:14 *982:B1 1.8535e-05
45 *131:14 *274:10 8.05657e-05
46 *139:14 *274:10 0.000123319
47 *271:86 *988:B1 9.47454e-05
48 *272:86 *274:44 4.51111e-05
49 *272:107 *274:44 1.94805e-05
*RES
1 *962:X *274:4 1.6 
2 *274:4 *274:10 5.12 
3 *274:10 *981:A 5.7 
4 *274:10 *982:B1 4.215 
5 *274:4 *274:42 11.57 
6 *274:42 *274:44 3.93 
7 *274:44 *988:B1 14.44 
8 *274:44 *965:A 5.085 
9 *274:42 *274:76 6.59 
10 *274:76 *969:B 1.6 
11 *274:76 *968:B1 9.845 
*END

*D_NET *275 0.000986424
*CONN
*I *988:A1 I *D sky130_fd_sc_hd__a21oi_1
*I *965:B I *D sky130_fd_sc_hd__and3_1
*I *963:X O *D sky130_fd_sc_hd__a22o_1
*CAP
1 *988:A1 0
2 *965:B 0.000166242
3 *963:X 0.000123445
4 *275:8 0.000289687
5 *965:B *1157:D 0.000198945
6 *965:B *295:16 7.26758e-05
7 *275:8 *988:A2 2.31547e-05
8 *275:8 *276:14 3.26889e-05
9 *275:8 *282:54 4.23703e-05
10 *71:68 *965:B 3.72149e-05
*RES
1 *963:X *275:8 3.355 
2 *275:8 *965:B 8.3 
3 *275:8 *988:A1 1.6 
*END

*D_NET *276 0.00130991
*CONN
*I *965:C I *D sky130_fd_sc_hd__and3_1
*I *988:A2 I *D sky130_fd_sc_hd__a21oi_1
*I *964:Y O *D sky130_fd_sc_hd__nand4_1
*CAP
1 *965:C 5.42336e-05
2 *988:A2 1.23336e-05
3 *964:Y 0.000225369
4 *276:14 0.000291936
5 *965:C *277:12 7.49429e-05
6 *965:C *282:54 8.72545e-05
7 *988:A2 *277:12 0
8 *276:14 *277:12 0
9 *276:14 *295:16 0.000125777
10 *1066:A *276:14 0.000121043
11 *71:68 *276:14 0.000239072
12 *152:8 *276:14 2.21074e-05
13 *275:8 *988:A2 2.31547e-05
14 *275:8 *276:14 3.26889e-05
*RES
1 *964:Y *276:14 10.355 
2 *276:14 *988:A2 1.96 
3 *276:14 *965:C 2.965 
*END

*D_NET *277 0.00272147
*CONN
*I *989:B1 I *D sky130_fd_sc_hd__a211oi_1
*I *990:A1 I *D sky130_fd_sc_hd__o211a_1
*I *970:B I *D sky130_fd_sc_hd__or4b_1
*I *965:X O *D sky130_fd_sc_hd__and3_1
*CAP
1 *989:B1 0.000131744
2 *990:A1 4.61442e-05
3 *970:B 0.000199414
4 *965:X 0.000204187
5 *277:27 0.000282059
6 *277:12 0.000507771
7 *989:B1 *295:16 0.000159964
8 *277:12 *282:54 2.18121e-05
9 *277:12 *332:54 7.26758e-05
10 *277:12 *332:103 6.08587e-05
11 *277:27 *332:103 7.30547e-05
12 *961:D *970:B 0.000119762
13 *961:D *990:A1 4.66826e-05
14 *961:D *277:27 0.000127921
15 *965:C *277:12 7.49429e-05
16 *988:A2 *277:12 0
17 *990:A2 *990:A1 5.83121e-06
18 *991:A *989:B1 5.36849e-05
19 *991:B *277:27 4.92062e-05
20 *71:68 *989:B1 8.71001e-05
21 *71:68 *277:12 0
22 *271:109 *277:12 8.53113e-06
23 *271:109 *277:27 6.45236e-05
24 *271:126 *970:B 0.000121391
25 *271:126 *277:27 4.66108e-05
26 *274:42 *989:B1 0.000155594
27 *276:14 *277:12 0
*RES
1 *965:X *277:12 6.99 
2 *277:12 *970:B 6.12 
3 *277:12 *277:27 5.045 
4 *277:27 *990:A1 2.395 
5 *277:27 *989:B1 9.605 
*END

*D_NET *278 0.00307152
*CONN
*I *1002:B I *D sky130_fd_sc_hd__nand3_1
*I *995:A2 I *D sky130_fd_sc_hd__a21bo_1
*I *969:A I *D sky130_fd_sc_hd__or3_1
*I *973:A2 I *D sky130_fd_sc_hd__a22o_1
*I *968:A1 I *D sky130_fd_sc_hd__o21a_1
*I *966:X O *D sky130_fd_sc_hd__and3_1
*CAP
1 *1002:B 6.69487e-05
2 *995:A2 9.69196e-05
3 *969:A 5.13208e-05
4 *973:A2 0
5 *968:A1 1.70175e-05
6 *966:X 0.000212181
7 *278:53 0.000287792
8 *278:40 0.000214383
9 *278:31 0.000133542
10 *278:14 0.000323602
11 *968:A1 *279:8 9.99636e-06
12 *968:A1 *332:81 1.4744e-05
13 *969:A *969:C 4.82863e-05
14 *969:A *1147:A1 7.23635e-05
15 *969:A *316:26 0.0001249
16 *278:14 *968:A2 8.32585e-05
17 *278:14 *332:81 9.37731e-05
18 *278:31 *958:A 0
19 *278:40 *1147:A1 4.77757e-05
20 *278:53 *316:22 0.00010411
21 *967:A1 *968:A1 1.79536e-05
22 *967:A1 *278:14 0.000204592
23 *967:A1 *278:31 4.83522e-05
24 *968:B1 *968:A1 8.41703e-06
25 *968:B1 *278:31 4.46248e-05
26 *968:B1 *278:53 4.9968e-05
27 *973:A1 *969:A 4.29734e-05
28 *973:A1 *278:31 3.13354e-05
29 *973:B1 *969:A 2.49909e-05
30 *973:B1 *278:14 3.50033e-05
31 *1001:B *1002:B 1.41594e-05
32 *1002:A *995:A2 0.000267557
33 *1002:A *1002:B 4.81525e-05
34 *1003:A2 *995:A2 5.4606e-05
35 *1003:A2 *1002:B 4.89295e-05
36 *56:12 *995:A2 4.71087e-05
37 *57:142 *995:A2 4.89395e-05
38 *241:138 *278:14 3.09416e-05
*RES
1 *966:X *278:14 6.69183 
2 *278:14 *968:A1 4.0125 
3 *278:14 *278:31 3.8675 
4 *278:31 *973:A2 1.6 
5 *278:31 *278:40 0.81 
6 *278:40 *969:A 3.43 
7 *278:40 *278:53 6.145 
8 *278:53 *995:A2 4.465 
9 *278:53 *1002:B 3.1 
*END

*D_NET *279 0.00158582
*CONN
*I *973:B2 I *D sky130_fd_sc_hd__a22o_1
*I *969:C I *D sky130_fd_sc_hd__or3_1
*I *968:A2 I *D sky130_fd_sc_hd__o21a_1
*I *967:Y O *D sky130_fd_sc_hd__o21ai_1
*CAP
1 *973:B2 0
2 *969:C 9.73191e-06
3 *968:A2 0.000127219
4 *967:Y 0.000239888
5 *279:23 7.32268e-05
6 *279:8 0.000430602
7 *968:A2 *332:81 0.000119246
8 *279:8 *332:81 7.9615e-05
9 *967:A1 *279:8 6.03947e-06
10 *968:A1 *279:8 9.99636e-06
11 *968:B1 *279:8 2.49909e-05
12 *968:B1 *279:23 1.07797e-05
13 *969:A *969:C 4.82863e-05
14 *973:A1 *969:C 4.82863e-05
15 *973:B1 *968:A2 0.000114352
16 *973:B1 *279:23 8.90672e-05
17 *56:12 *968:A2 4.55864e-06
18 *56:12 *279:23 5.64643e-05
19 *241:138 *968:A2 1.02125e-05
20 *278:14 *968:A2 8.32585e-05
*RES
1 *967:Y *279:8 6.465 
2 *279:8 *968:A2 6.12 
3 *279:8 *279:23 3.38 
4 *279:23 *969:C 2.05 
5 *279:23 *973:B2 1.6 
*END

*D_NET *280 0.00402991
*CONN
*I *1172:A I *D sky130_fd_sc_hd__clkbuf_16
*I *1171:A I *D sky130_fd_sc_hd__clkbuf_16
*I *1170:X O *D sky130_fd_sc_hd__clkbuf_16
*CAP
1 *1172:A 0.000114258
2 *1171:A 0.000860075
3 *1170:X 0.000183253
4 *280:8 0.00115759
5 *1171:A *951:A1 7.97197e-06
6 *1171:A *281:74 7.08493e-05
7 *1171:A *293:24 0
8 *1172:A *282:54 7.08493e-05
9 *1172:A *293:24 0
10 *280:8 *305:45 0.000271865
11 *952:A2 *1171:A 0
12 *952:B1 *1171:A 3.03465e-05
13 *952:B2 *1171:A 4.86642e-05
14 *953:B1 *1171:A 0.000129839
15 *964:D *1171:A 0
16 *1057:A *1171:A 0.000251765
17 *1059:B *1171:A 0
18 *1061:A1 *1171:A 0.000314708
19 *1066:B *1171:A 0.000134503
20 *129:10 *1171:A 0
21 *131:14 *1171:A 0.000168604
22 *131:14 *1172:A 9.08126e-05
23 *241:12 *1171:A 0.000123955
*RES
1 *1170:X *280:8 6.12 
2 *280:8 *1171:A 19.89 
3 *280:8 *1172:A 5.865 
*END

*D_NET *281 0.0119019
*CONN
*I *1164:CLK I *D sky130_fd_sc_hd__dfrtp_1
*I *1163:CLK I *D sky130_fd_sc_hd__dfrtp_1
*I *1166:CLK I *D sky130_fd_sc_hd__dfrtp_1
*I *1167:CLK I *D sky130_fd_sc_hd__dfrtp_1
*I *1169:CLK I *D sky130_fd_sc_hd__dfrtp_1
*I *1168:CLK I *D sky130_fd_sc_hd__dfrtp_1
*I *1162:CLK I *D sky130_fd_sc_hd__dfrtp_1
*I *1171:X O *D sky130_fd_sc_hd__clkbuf_16
*CAP
1 *1164:CLK 4.04777e-05
2 *1163:CLK 0.000436296
3 *1166:CLK 0.000303348
4 *1167:CLK 0.00044761
5 *1169:CLK 0
6 *1168:CLK 0.00028471
7 *1162:CLK 0.000177239
8 *1171:X 0
9 *281:76 0.000739644
10 *281:74 0.00118
11 *281:33 0.000640329
12 *281:10 0.000644801
13 *281:8 0.000605907
14 *281:4 0.00118588
15 *1162:CLK *980:A2 0.000173792
16 *1162:CLK *1152:B 7.01132e-05
17 *1162:CLK *1162:RESET_B 0.000128894
18 *1164:CLK *291:20 3.1522e-05
19 *1167:CLK *926:A 1.74678e-05
20 *1167:CLK *980:A2 0.000134516
21 *1167:CLK *283:14 2.65814e-06
22 *281:10 *980:A2 0.000197374
23 *281:33 *1184:A 0.000157394
24 *281:74 *949:A1 3.04704e-05
25 *281:74 *291:20 4.3806e-05
26 *281:74 *332:27 5.14266e-05
27 *927:A *281:74 1.91597e-05
28 *932:B *281:74 0.000115779
29 *934:B *1167:CLK 0
30 *942:A *281:74 0.000233786
31 *943:B *281:74 6.73895e-05
32 *948:B *1166:CLK 0
33 *949:B2 *1166:CLK 0
34 *950:B1 *1163:CLK 1.67559e-05
35 *950:B1 *1166:CLK 5.18317e-06
36 *950:B2 *1163:CLK 0.000137571
37 *950:B2 *281:74 0.000235238
38 *954:A2 *281:74 0.000230002
39 *954:B1 *281:74 0.000234674
40 *955:B1 *281:74 8.40213e-05
41 *1141:A1 *281:10 0
42 *1141:A3 *281:10 0
43 *1141:A3 *281:33 0.000122817
44 *1141:B1 *281:33 0.000111969
45 *1147:A2 *1163:CLK 0.000119263
46 *1147:A3 *1163:CLK 0
47 *1150:A *1167:CLK 0.000160635
48 *1153:A1 *281:33 0.000491761
49 *1153:A3 *281:33 8.34705e-05
50 *1155:A2 *1168:CLK 3.68942e-05
51 *1162:D *1162:CLK 2.69217e-05
52 *1164:D *1166:CLK 0
53 *1168:D *1168:CLK 0.000237085
54 *1168:D *281:33 2.76356e-05
55 *1169:D *1168:CLK 7.03276e-05
56 *1171:A *281:74 7.08493e-05
57 *230:20 *281:33 2.01565e-05
58 *230:37 *281:33 9.76407e-06
59 *230:46 *281:33 6.07575e-06
60 *230:79 *1162:CLK 0.00015844
61 *230:79 *1166:CLK 2.68526e-05
62 *230:79 *281:10 4.04632e-05
63 *230:94 *1166:CLK 0
64 *232:100 *281:8 0.000118081
65 *232:100 *281:74 0.00010978
66 *234:45 *1167:CLK 0
67 *239:8 *281:8 8.23457e-05
68 *241:12 *281:74 6.98477e-05
69 *241:61 *1167:CLK 2.77183e-05
70 *241:91 *281:74 2.10134e-05
71 *242:14 *281:74 4.77757e-05
72 *247:6 *1167:CLK 8.65905e-05
73 *255:14 *281:74 0.000217529
74 *268:8 *281:74 0.00011108
75 *268:24 *281:33 8.35068e-05
76 *268:101 *1163:CLK 0
77 *268:101 *1166:CLK 0
*RES
1 *1171:X *281:4 1.6 
2 *281:4 *281:8 3.14 
3 *281:8 *281:10 2.4 
4 *281:10 *1162:CLK 8.61 
5 *281:10 *281:33 11.135 
6 *281:33 *1168:CLK 10.79 
7 *281:33 *1169:CLK 1.6 
8 *281:8 *1167:CLK 10.89 
9 *281:4 *281:74 22.2 
10 *281:74 *281:76 2 
11 *281:76 *1166:CLK 8.235 
12 *281:76 *1163:CLK 11.055 
13 *281:74 *1164:CLK 2.395 
*END

*D_NET *282 0.0130541
*CONN
*I *1157:CLK I *D sky130_fd_sc_hd__dfrtp_1
*I *1159:CLK I *D sky130_fd_sc_hd__dfrtp_1
*I *1165:CLK I *D sky130_fd_sc_hd__dfrtp_1
*I *1160:CLK I *D sky130_fd_sc_hd__dfrtp_1
*I *1161:CLK I *D sky130_fd_sc_hd__dfrtp_1
*I *1158:CLK I *D sky130_fd_sc_hd__dfrtp_1
*I *1156:CLK I *D sky130_fd_sc_hd__dfrtp_1
*I *1172:X O *D sky130_fd_sc_hd__clkbuf_16
*CAP
1 *1157:CLK 3.86744e-05
2 *1159:CLK 0.000641187
3 *1165:CLK 3.39263e-05
4 *1160:CLK 0.000299587
5 *1161:CLK 1.7794e-05
6 *1158:CLK 0
7 *1156:CLK 6.21145e-05
8 *1172:X 0
9 *282:58 0.000771872
10 *282:54 0.000909048
11 *282:30 0.000495831
12 *282:21 0.000701552
13 *282:8 0.000803445
14 *282:4 0.000991842
15 *1156:CLK *1157:D 8.23457e-05
16 *1157:CLK *1157:D 0.000160739
17 *1160:CLK *315:56 5.17516e-05
18 *282:8 *1026:A 0.000183829
19 *282:8 *1026:D 6.52265e-05
20 *282:8 *1157:D 0.000790697
21 *282:8 *305:45 0.000193164
22 *282:21 *1005:A 0.000432129
23 *282:54 *963:A1 4.66742e-05
24 *282:54 *1157:D 0.00202664
25 *282:54 *305:45 0.000344454
26 *963:B1 *282:54 2.20014e-05
27 *963:B2 *282:54 4.66108e-05
28 *965:A *282:54 9.4087e-05
29 *965:C *282:54 8.72545e-05
30 *966:A *282:54 2.75145e-05
31 *967:A2 *282:54 2.30292e-05
32 *972:A *282:54 0.000122337
33 *972:B *282:54 1.61831e-05
34 *982:A2 *282:54 0.000308208
35 *1001:A *1159:CLK 4.67041e-05
36 *1003:B1 *1159:CLK 9.05535e-05
37 *1022:B *282:30 5.10008e-05
38 *1027:B1_N *282:21 0.000223152
39 *1128:B *1157:CLK 1.83756e-05
40 *1129:B2 *1159:CLK 0.000280446
41 *1139:B1 *1160:CLK 0
42 *1139:B1 *1161:CLK 8.65905e-05
43 *1139:B1 *282:30 0
44 *1139:B2 *1160:CLK 9.14049e-05
45 *1139:B2 *1161:CLK 2.75145e-05
46 *1147:A2 *1159:CLK 2.03321e-05
47 *1147:A2 *282:58 6.4422e-05
48 *1147:A3 *1159:CLK 2.60986e-05
49 *1160:D *1161:CLK 1.61831e-05
50 *1161:D *1160:CLK 0
51 *1165:D *1159:CLK 9.5433e-05
52 *1172:A *282:54 7.08493e-05
53 *90:24 *1159:CLK 9.05535e-05
54 *112:10 *282:21 5.36955e-05
55 *112:23 *282:21 9.54469e-05
56 *190:24 *1157:CLK 4.77719e-05
57 *190:30 *1157:CLK 3.75126e-05
58 *190:30 *1159:CLK 0
59 *190:30 *282:54 0.000158536
60 *230:10 *282:21 9.14049e-05
61 *232:66 *282:21 2.68721e-05
62 *232:66 *282:30 0.000175612
63 *269:21 *282:21 6.45033e-05
64 *272:107 *282:54 4.72453e-05
65 *275:8 *282:54 4.23703e-05
66 *277:12 *282:54 2.18121e-05
*RES
1 *1172:X *282:4 1.6 
2 *282:4 *282:8 7.71 
3 *282:8 *1156:CLK 2.755 
4 *282:8 *282:21 13.835 
5 *282:21 *1158:CLK 3.6 
6 *282:21 *282:30 4.185 
7 *282:30 *1161:CLK 4.395 
8 *282:30 *1160:CLK 7.68 
9 *282:4 *282:54 23.91 
10 *282:54 *282:58 3.89 
11 *282:58 *1165:CLK 4.05 
12 *282:58 *1159:CLK 15.705 
13 *282:54 *1157:CLK 3.085 
*END

*D_NET *283 0.00401901
*CONN
*I *925:A I *D sky130_fd_sc_hd__buf_2
*I *1040:D I *D sky130_fd_sc_hd__nand4_1
*I *1041:B1 I *D sky130_fd_sc_hd__a22o_1
*I *1186:X O *D sky130_fd_sc_hd__buf_1
*CAP
1 *925:A 2.14824e-05
2 *1040:D 0.000158469
3 *1041:B1 0
4 *1186:X 0.00100798
5 *283:18 0.000267789
6 *283:14 0.00113878
7 *925:A *297:16 7.23635e-05
8 *1040:D *1034:A2 5.60487e-05
9 *1040:D *1040:C 4.70481e-05
10 *1040:D *288:10 9.12857e-06
11 *1040:D *288:19 5.28364e-05
12 *1040:D *288:32 1.73582e-05
13 *283:14 *926:A 0.000114492
14 *283:14 *297:16 0.000158066
15 *283:14 *310:8 1.04258e-05
16 *283:18 *288:10 0.000187144
17 *926:C *283:18 7.53115e-05
18 *1035:B *1040:D 1.64141e-05
19 *1035:B *283:18 4.59022e-06
20 *1155:A1 *925:A 8.23457e-05
21 *1155:A1 *283:14 0.000272556
22 *1167:CLK *283:14 2.65814e-06
23 *1167:D *283:14 1.77665e-05
24 *61:16 *1040:D 9.48581e-05
25 *237:10 *283:18 5.83825e-05
26 *238:10 *283:18 7.47215e-05
*RES
1 *1186:X *283:14 18.23 
2 *283:14 *283:18 5.93 
3 *283:18 *1041:B1 3.6 
4 *283:18 *1040:D 7.365 
5 *283:14 *925:A 2.395 
*END

*D_NET *284 0.00699196
*CONN
*I *1173:A I *D sky130_fd_sc_hd__buf_4
*I *1163:RESET_B I *D sky130_fd_sc_hd__dfrtp_1
*I *1164:RESET_B I *D sky130_fd_sc_hd__dfrtp_1
*I *1166:RESET_B I *D sky130_fd_sc_hd__dfrtp_1
*I *1165:RESET_B I *D sky130_fd_sc_hd__dfrtp_1
*I *1187:X O *D sky130_fd_sc_hd__clkbuf_2
*CAP
1 *1173:A 0.000355357
2 *1163:RESET_B 3.24164e-05
3 *1164:RESET_B 3.45428e-05
4 *1166:RESET_B 0.000327011
5 *1165:RESET_B 3.24164e-05
6 *1187:X 0.000503561
7 *284:30 0.000821763
8 *284:24 0.00124332
9 *284:14 0.00130062
10 *284:8 0.00137642
11 *1164:RESET_B *291:20 5.20839e-05
12 *1166:RESET_B *1217:A 0
13 *1173:A *292:12 0
14 *1173:A *305:8 0.000261361
15 *284:8 *285:12 0.000396942
16 *284:14 *292:12 0
17 *284:14 *305:8 0.000155625
18 *284:24 *923:A 0
19 *284:24 *305:8 0
20 *284:30 *1142:B 2.87867e-05
21 *284:30 *1175:A 0
22 *1149:A1 *1166:RESET_B 0
23 *1149:A1 *284:24 0
24 *1149:A1 *284:30 0
25 *1149:B1 *1166:RESET_B 6.97275e-05
26 *232:118 *1166:RESET_B 0
27 *232:150 *284:24 0
*RES
1 *1187:X *284:8 10.26 
2 *284:8 *284:14 10.685 
3 *284:14 *1165:RESET_B 0.3975 
4 *284:14 *284:24 14.345 
5 *284:24 *284:30 7.635 
6 *284:30 *1166:RESET_B 7.2725 
7 *284:30 *1164:RESET_B 2.7425 
8 *284:24 *1163:RESET_B 2.3975 
9 *284:8 *1173:A 11.355 
*END

*D_NET *285 0.0126903
*CONN
*I *958:B I *D sky130_fd_sc_hd__nand2_2
*I *1021:A I *D sky130_fd_sc_hd__nand2_1
*I *985:A I *D sky130_fd_sc_hd__buf_2
*I *1188:X O *D sky130_fd_sc_hd__dlymetal6s2s_1
*CAP
1 *958:B 0
2 *1021:A 0.000508581
3 *985:A 1.66688e-05
4 *1188:X 0.00118172
5 *285:34 0.00168068
6 *285:12 0.00233716
7 *985:A *316:62 2.49909e-05
8 *1021:A *293:24 0.000324819
9 *1021:A *315:38 8.65905e-05
10 *285:12 *1218:A 0.00118521
11 *285:12 *291:12 0.00140313
12 *285:34 *1157:RESET_B 4.88854e-05
13 *285:34 *316:62 0.000244153
14 *987:A *285:34 0.000119873
15 *987:B *1021:A 7.21318e-05
16 *987:C *285:34 0.000137811
17 *997:A *285:34 6.39912e-05
18 *997:B *285:34 0.000140612
19 *998:B *285:34 9.12671e-06
20 *1003:A2 *285:34 0.000108853
21 *1003:B1 *285:34 0.000157875
22 *1004:A *285:34 2.69153e-05
23 *1014:B *1021:A 0
24 *1031:B1_N *1021:A 7.36042e-05
25 *71:10 *985:A 2.69217e-05
26 *71:10 *285:34 2.0187e-05
27 *71:64 *285:34 0.000533368
28 *80:14 *285:34 0.0005506
29 *82:6 *285:34 2.69153e-05
30 *90:24 *285:34 5.79099e-06
31 *95:27 *1021:A 9.14049e-05
32 *96:10 *1021:A 0.000289016
33 *97:14 *1021:A 0
34 *99:10 *1021:A 0
35 *99:34 *1021:A 0
36 *139:39 *1021:A 0
37 *235:70 *285:34 7.51327e-05
38 *270:16 *285:34 7.67307e-05
39 *270:18 *285:34 0.000594983
40 *270:28 *285:34 4.89362e-05
41 *284:8 *285:12 0.000396942
*RES
1 *1188:X *285:12 35.675 
2 *285:12 *285:34 29.485 
3 *285:34 *985:A 2.05 
4 *285:34 *1021:A 16.955 
5 *285:12 *958:B 1.6 
*END

*D_NET *286 0.0179712
*CONN
*I *1036:A I *D sky130_fd_sc_hd__and2_1
*I *962:B I *D sky130_fd_sc_hd__and2_1
*I *1005:A I *D sky130_fd_sc_hd__and2_1
*I *1024:A I *D sky130_fd_sc_hd__and2_1
*I *1057:B I *D sky130_fd_sc_hd__and4_1
*I *1058:A1 I *D sky130_fd_sc_hd__a22o_1
*I *971:A I *D sky130_fd_sc_hd__buf_2
*I *1189:X O *D sky130_fd_sc_hd__clkbuf_2
*CAP
1 *1036:A 7.57529e-05
2 *962:B 0.00138154
3 *1005:A 0.000340974
4 *1024:A 0.000193374
5 *1057:B 0.000223674
6 *1058:A1 0
7 *971:A 9.82314e-05
8 *1189:X 0.00151725
9 *286:84 0.00197478
10 *286:63 0.000719637
11 *286:57 0.000494452
12 *286:33 0.000223674
13 *286:18 0.00139968
14 *286:10 0.00296339
15 *962:B *962:A 4.67041e-05
16 *1024:A *294:14 0
17 *286:10 *1162:RESET_B 0.000153236
18 *286:10 *1220:A 0
19 *286:10 *315:72 0.00036018
20 *286:10 *315:74 0.000187175
21 *286:18 *1034:A2 0.000131762
22 *286:18 *1034:B2 0.000192504
23 *286:18 *293:24 4.1588e-05
24 *286:18 *294:14 0.000114086
25 *286:57 *294:14 0.000135258
26 *286:57 *315:72 3.84119e-05
27 *286:63 *1157:D 0.000163012
28 *286:63 *294:14 0.000781007
29 *286:63 *315:68 0
30 *286:63 *315:72 0.000311894
31 *286:84 *294:14 0.000159846
32 *974:B *962:B 0.000267554
33 *987:A *962:B 5.48747e-05
34 *1022:B *1005:A 1.18961e-06
35 *1024:B *962:B 0.000123419
36 *1027:A2 *962:B 3.18448e-05
37 *1027:B1_N *962:B 2.61093e-05
38 *1027:B1_N *286:84 5.83121e-06
39 *1040:B *286:18 2.63208e-06
40 *1046:B *1024:A 0.000110235
41 *1046:C *1024:A 3.56244e-06
42 *1055:B *962:B 1.07285e-05
43 *1057:A *971:A 7.42989e-06
44 *57:20 *971:A 0.000136331
45 *57:20 *286:18 6.1197e-05
46 *69:12 *962:B 0.000226409
47 *113:16 *962:B 0.000120417
48 *126:12 *286:18 0.000520121
49 *132:12 *1024:A 2.10152e-05
50 *141:16 *962:B 0.000155608
51 *144:12 *971:A 2.47705e-05
52 *230:12 *286:10 0
53 *230:14 *286:10 0
54 *230:20 *286:10 0
55 *232:14 *286:10 0
56 *232:47 *286:63 0.000139851
57 *232:47 *286:84 8.67593e-05
58 *232:66 *1005:A 9.51046e-05
59 *235:115 *286:18 0.000107546
60 *236:36 *286:18 1.83975e-05
61 *236:42 *1057:B 4.77757e-05
62 *238:59 *1057:B 0.000200649
63 *269:21 *1005:A 0.00026231
64 *269:21 *1024:A 6.95485e-05
65 *272:14 *962:B 0.000129
66 *274:42 *962:B 4.77757e-05
67 *282:21 *1005:A 0.000432129
*RES
1 *1189:X *286:10 29.805 
2 *286:10 *286:18 20.83 
3 *286:18 *971:A 5.79 
4 *286:18 *286:33 2 
5 *286:33 *1058:A1 1.6 
6 *286:33 *1057:B 4.93 
7 *286:10 *286:57 5.21 
8 *286:57 *286:63 11.825 
9 *286:63 *1024:A 10.3 
10 *286:63 *286:84 6.41 
11 *286:84 *1005:A 12.905 
12 *286:84 *962:B 26.09 
13 *286:57 *1036:A 2.74 
*END

*D_NET *287 0.00557314
*CONN
*I *1025:A1 I *D sky130_fd_sc_hd__a22o_1
*I *975:A I *D sky130_fd_sc_hd__buf_2
*I *960:A I *D sky130_fd_sc_hd__clkbuf_4
*I *1190:X O *D sky130_fd_sc_hd__buf_1
*CAP
1 *1025:A1 0
2 *975:A 0.000150217
3 *960:A 0
4 *1190:X 0.00153756
5 *287:20 0.00031968
6 *287:14 0.00170702
7 *975:A *976:B2 8.23457e-05
8 *975:A *1025:B1 7.5173e-05
9 *975:A *316:62 1.19928e-05
10 *287:14 *1025:A2 4.89362e-05
11 *287:14 *1213:A 0.000273324
12 *287:14 *298:12 0.000425957
13 *287:14 *299:12 4.05358e-05
14 *287:14 *302:10 7.89689e-05
15 *287:20 *1025:A2 1.5379e-05
16 *287:20 *1025:B1 0.000143487
17 int4_out[0] *287:14 0.000103671
18 int4_out[3] *287:14 4.23658e-05
19 *1007:C *975:A 8.35118e-05
20 *1197:A *287:14 0
21 *61:10 *975:A 0.000155489
22 *61:95 *975:A 6.06948e-05
23 *111:10 *287:14 8.48377e-05
24 *113:16 *975:A 6.2969e-05
25 *269:36 *975:A 6.90254e-05
*RES
1 *1190:X *287:14 35.375 
2 *287:14 *287:20 2.55 
3 *287:20 *960:A 1.6 
4 *287:20 *975:A 9.845 
5 *287:14 *1025:A1 1.6 
*END

*D_NET *288 0.0134354
*CONN
*I *1006:B2 I *D sky130_fd_sc_hd__a22o_1
*I *976:B2 I *D sky130_fd_sc_hd__a22o_1
*I *1007:A I *D sky130_fd_sc_hd__nand4_1
*I *1025:B2 I *D sky130_fd_sc_hd__a22o_1
*I *1026:A I *D sky130_fd_sc_hd__nand4_1
*I *980:B2 I *D sky130_fd_sc_hd__a22o_1
*I *959:A I *D sky130_fd_sc_hd__buf_2
*I *1034:B2 I *D sky130_fd_sc_hd__a22o_1
*I *1041:B2 I *D sky130_fd_sc_hd__a22o_1
*I *1191:X O *D sky130_fd_sc_hd__buf_2
*CAP
1 *1006:B2 7.23552e-05
2 *976:B2 8.28022e-05
3 *1007:A 0.000193157
4 *1025:B2 0
5 *1026:A 9.96983e-05
6 *980:B2 3.72915e-05
7 *959:A 0.00054369
8 *1034:B2 9.63895e-05
9 *1041:B2 0
10 *1191:X 0.00173056
11 *288:103 0.000237752
12 *288:81 0.000570841
13 *288:66 0.000479915
14 *288:55 0.000172347
15 *288:32 0.000755914
16 *288:19 0.000325759
17 *288:10 0.00179763
18 *959:A *305:45 4.99619e-05
19 *976:B2 *1007:D 4.66108e-05
20 *1006:B2 *1006:B1 0.000195266
21 *1007:A *316:79 0.000110785
22 *1026:A *1026:D 8.22015e-05
23 *1034:B2 *1034:A2 2.49909e-05
24 *1034:B2 *1040:C 2.15454e-05
25 *1034:B2 *294:14 1.77595e-05
26 *1034:B2 *294:38 1.42674e-05
27 *288:10 *926:A 0.000464847
28 *288:10 *1150:B 0.000117825
29 *288:10 *1221:A 0.000135205
30 *288:19 *926:A 0.000143928
31 *288:32 *926:A 9.46508e-05
32 *288:55 *1034:A2 0
33 *288:66 *1025:B1 7.21296e-06
34 *288:66 *1034:A2 4.81406e-05
35 *288:81 *1025:B1 4.62396e-05
36 *288:81 *316:123 0.000394734
37 *288:103 *1006:B1 9.12494e-06
38 *288:103 *316:79 0.000112087
39 *288:103 *316:123 5.20193e-05
40 *974:A *959:A 1.0397e-05
41 *975:A *976:B2 8.23457e-05
42 *1007:C *976:B2 5.87688e-05
43 *1026:B *1026:A 6.25581e-05
44 *1038:A1 *288:32 2.29568e-05
45 *1038:B1 *288:32 9.12494e-06
46 *1038:B1 *288:55 0.000129632
47 *1040:D *288:10 9.12857e-06
48 *1040:D *288:19 5.28364e-05
49 *1040:D *288:32 1.73582e-05
50 *1044:A1 *959:A 6.61835e-06
51 *1044:B1 *959:A 2.88357e-05
52 *1044:C1 *959:A 0.000196745
53 *1047:A2 *959:A 5.83121e-06
54 *1049:A *288:81 9.54399e-05
55 *1080:B *288:81 7.30547e-05
56 *1130:B2 *1007:A 1.14192e-05
57 *1141:A1 *288:10 8.17161e-05
58 *1150:A *288:10 3.14025e-05
59 *1151:B1 *288:10 0.000117825
60 *1155:A1 *288:10 2.54436e-05
61 *65:18 *959:A 1.51628e-05
62 *66:10 *959:A 7.50287e-05
63 *91:29 *1006:B2 2.49909e-05
64 *93:10 *1006:B2 1.34361e-05
65 *111:22 *288:81 5.16206e-05
66 *113:16 *1006:B2 0.000175338
67 *113:16 *288:103 7.37829e-05
68 *120:10 *288:32 0.000112589
69 *120:12 *959:A 8.34281e-06
70 *121:27 *980:B2 8.65961e-05
71 *124:14 *959:A 0.000261811
72 *124:14 *288:32 2.98587e-05
73 *124:14 *288:55 7.03276e-05
74 *129:10 *959:A 0.000339654
75 *133:8 *288:66 9.23473e-05
76 *133:8 *288:81 9.1566e-05
77 *133:23 *288:81 0.000153327
78 *231:31 *288:10 0.000266443
79 *233:44 *959:A 0
80 *234:6 *976:B2 0.000228248
81 *234:6 *1007:A 4.77769e-05
82 *238:10 *288:10 9.21065e-05
83 *271:6 *959:A 3.33839e-05
84 *271:10 *959:A 1.32026e-05
85 *282:8 *1026:A 0.000183829
86 *283:18 *288:10 0.000187144
87 *286:18 *1034:B2 0.000192504
*RES
1 *1191:X *288:10 31.755 
2 *288:10 *1041:B2 3.6 
3 *288:10 *288:19 1.89 
4 *288:19 *1034:B2 6.045 
5 *288:19 *288:32 3.165 
6 *288:32 *959:A 17.755 
7 *288:32 *288:55 1.635 
8 *288:55 *980:B2 4.395 
9 *288:55 *288:66 2.145 
10 *288:66 *1026:A 6.24 
11 *288:66 *288:81 8.01 
12 *288:81 *1025:B2 3.6 
13 *288:81 *1007:A 6.99 
14 *288:81 *288:103 2.145 
15 *288:103 *976:B2 6.135 
16 *288:103 *1006:B2 6.195 
*END

*D_NET *289 0.00505642
*CONN
*I *947:B1 I *D sky130_fd_sc_hd__a211o_1
*I *1192:X O *D sky130_fd_sc_hd__buf_1
*CAP
1 *947:B1 0.00244066
2 *1192:X 0.00244066
3 *947:B1 *1103:B1 0
4 *947:B1 *291:20 0.000100075
5 *946:A *947:B1 9.12494e-06
6 *948:B *947:B1 1.17614e-05
7 *1192:A *947:B1 5.41428e-05
*RES
1 *1192:X *947:B1 13.9603 
*END

*D_NET *290 0.00374789
*CONN
*I *947:A1 I *D sky130_fd_sc_hd__a211o_1
*I *948:A I *D sky130_fd_sc_hd__or2_1
*I *1193:X O *D sky130_fd_sc_hd__buf_1
*CAP
1 *947:A1 0
2 *948:A 7.73001e-05
3 *1193:X 0.00135567
4 *290:12 0.00143297
5 *290:12 *332:10 0.000390466
6 *946:A *948:A 0.000241297
7 *946:A *290:12 5.13924e-05
8 *947:A2 *948:A 3.12916e-05
9 *947:C1 *948:A 0.00012392
10 *948:B *948:A 2.93201e-05
11 *949:B1 *948:A 1.42674e-05
12 *1170:A *290:12 0
*RES
1 *1193:X *290:12 24.125 
2 *290:12 *948:A 4.6 
3 *290:12 *947:A1 1.6 
*END

*D_NET *291 0.010112
*CONN
*I *943:A I *D sky130_fd_sc_hd__or2_1
*I *949:A1 I *D sky130_fd_sc_hd__a22o_1
*I *1194:X O *D sky130_fd_sc_hd__buf_1
*CAP
1 *943:A 0
2 *949:A1 4.63276e-05
3 *1194:X 0.00197671
4 *291:20 0.00157012
5 *291:12 0.0035005
6 *291:12 *1103:B1 0.000364075
7 *291:12 *1216:A 6.30072e-05
8 *291:12 *1218:A 0.000170447
9 *291:20 *1217:A 0.000161529
10 *291:20 *307:6 0.000163199
11 int4_out[1] *291:12 2.05641e-05
12 valid_out *291:12 6.06899e-05
13 *943:B *949:A1 0.000125262
14 *947:B1 *291:20 0.000100075
15 *949:B2 *949:A1 0.000199922
16 *1164:CLK *291:20 3.1522e-05
17 *1164:RESET_B *291:20 5.20839e-05
18 *1192:A *291:12 5.53249e-06
19 *255:14 *949:A1 2.30292e-05
20 *281:74 *949:A1 3.04704e-05
21 *281:74 *291:20 4.3806e-05
22 *285:12 *291:12 0.00140313
*RES
1 *1194:X *291:12 48.395 
2 *291:12 *291:20 20.25 
3 *291:20 *949:A1 3.775 
4 *291:20 *943:A 1.6 
*END

*D_NET *292 0.00830219
*CONN
*I *940:A I *D sky130_fd_sc_hd__or2_1
*I *950:A1 I *D sky130_fd_sc_hd__a22o_1
*I *1195:X O *D sky130_fd_sc_hd__buf_1
*CAP
1 *940:A 0
2 *950:A1 6.85296e-05
3 *1195:X 0.00272873
4 *292:14 0.0010868
5 *292:12 0.003747
6 *292:14 *1144:B 0.000160635
7 *940:B *950:A1 5.54864e-05
8 *950:B1 *950:A1 4.77719e-05
9 *950:B2 *950:A1 4.77719e-05
10 *951:B1 *950:A1 0.000273026
11 *951:B1 *292:14 8.64421e-05
12 *1173:A *292:12 0
13 *284:14 *292:12 0
*RES
1 *1195:X *292:12 48.665 
2 *292:12 *292:14 14.25 
3 *292:14 *950:A1 4.12 
4 *292:14 *940:A 1.6 
*END

*D_NET *293 0.00782821
*CONN
*I *937:A I *D sky130_fd_sc_hd__or2_1
*I *951:A1 I *D sky130_fd_sc_hd__a22o_1
*I *1196:X O *D sky130_fd_sc_hd__buf_1
*CAP
1 *937:A 6.32935e-05
2 *951:A1 0.000182874
3 *1196:X 0.0020611
4 *293:24 0.00230726
5 *937:A *297:16 4.40028e-05
6 *293:24 *297:16 2.16833e-05
7 *937:B *937:A 3.68999e-05
8 *937:B *951:A1 0.000151544
9 *937:B *293:24 5.61142e-05
10 *981:A *293:24 5.16348e-05
11 *982:A2 *293:24 8.42161e-05
12 *987:B *293:24 2.3228e-05
13 *1012:A1 *293:24 3.54201e-05
14 *1021:A *293:24 0.000324819
15 *1021:B *293:24 0
16 *1031:A2 *293:24 0.00018262
17 *1055:B *293:24 0
18 *1056:C *293:24 7.03219e-05
19 *1056:D *293:24 2.0794e-05
20 *1057:A *293:24 0
21 *1065:A_N *293:24 0.000136679
22 *1065:B *293:24 8.34144e-06
23 *1085:B_N *293:24 0
24 *1088:A *293:24 0.000179974
25 *1097:B *293:24 5.23658e-05
26 *1171:A *951:A1 7.97197e-06
27 *1171:A *293:24 0
28 *1172:A *293:24 0
29 *1196:A *293:24 2.75229e-05
30 *57:20 *293:24 0.000229403
31 *57:33 *293:24 0.000650962
32 *63:8 *293:24 5.5057e-05
33 *63:25 *293:24 8.7323e-05
34 *69:12 *293:24 0
35 *96:10 *293:24 0.000165115
36 *99:34 *293:24 0
37 *107:12 *293:24 0
38 *115:12 *293:24 0
39 *117:12 *293:24 9.32739e-05
40 *131:14 *293:24 0
41 *139:14 *293:24 0
42 *174:8 *293:24 5.33142e-05
43 *174:17 *293:24 1.56261e-05
44 *233:44 *293:24 0
45 *235:99 *293:24 7.94515e-05
46 *235:115 *293:24 0.000226419
47 *286:18 *293:24 4.1588e-05
*RES
1 *1196:X *293:24 49.4 
2 *293:24 *951:A1 8.645 
3 *293:24 *937:A 3.1 
*END

*D_NET *294 0.00609912
*CONN
*I *1040:C I *D sky130_fd_sc_hd__nand4_1
*I *1034:B1 I *D sky130_fd_sc_hd__a22o_1
*I *1041:A2 I *D sky130_fd_sc_hd__a22o_1
*I *924:A I *D sky130_fd_sc_hd__buf_2
*I *1197:X O *D sky130_fd_sc_hd__dlymetal6s2s_1
*CAP
1 *1040:C 0.000127148
2 *1034:B1 0
3 *1041:A2 0.000146002
4 *924:A 0
5 *1197:X 0.00150311
6 *294:38 0.000153311
7 *294:20 0.000317156
8 *294:14 0.00170043
9 *1040:C *1034:A2 9.4275e-05
10 *294:14 *315:58 0
11 *294:14 *315:68 0
12 *294:14 *315:72 7.23237e-05
13 *294:20 *926:A 2.18822e-05
14 *1024:A *294:14 0
15 *1034:A1 *1041:A2 0.000253364
16 *1034:A1 *294:20 8.33414e-05
17 *1034:B2 *1040:C 2.15454e-05
18 *1034:B2 *294:14 1.77595e-05
19 *1034:B2 *294:38 1.42674e-05
20 *1040:D *1040:C 4.70481e-05
21 *1041:A1 *1041:A2 3.60484e-05
22 *1046:B *294:14 3.24046e-05
23 *1046:C *294:14 0
24 *1156:D *294:14 5.39718e-05
25 *1158:D *294:14 0
26 *232:14 *294:14 0
27 *232:47 *294:14 0.000146598
28 *232:66 *294:14 0
29 *237:10 *1041:A2 6.69327e-05
30 *269:21 *294:14 0
31 *286:18 *294:14 0.000114086
32 *286:57 *294:14 0.000135258
33 *286:63 *294:14 0.000781007
34 *286:84 *294:14 0.000159846
*RES
1 *1197:X *294:14 34.43 
2 *294:14 *294:20 6.655 
3 *294:20 *924:A 1.6 
4 *294:20 *1041:A2 5.185 
5 *294:14 *294:38 0.45 
6 *294:38 *1034:B1 1.6 
7 *294:38 *1040:C 3.775 
*END

*D_NET *295 0.00928971
*CONN
*I *953:B2 I *D sky130_fd_sc_hd__o221a_1
*I *952:A1 I *D sky130_fd_sc_hd__a22o_1
*I *1198:X O *D sky130_fd_sc_hd__buf_1
*CAP
1 *953:B2 0.000202531
2 *952:A1 8.72041e-05
3 *1198:X 0.00193591
4 *295:16 0.00222565
5 *953:B2 *953:A1 4.27108e-05
6 *953:B2 *955:A1 2.78394e-05
7 *953:B2 *297:16 1.59888e-05
8 *953:B2 *332:35 8.08153e-06
9 *295:16 *315:38 9.31992e-05
10 *295:16 *332:35 0.000352847
11 *295:16 *332:46 7.28465e-06
12 *945:A *295:16 0
13 *951:B1 *952:A1 0.000126523
14 *951:B1 *295:16 7.91708e-05
15 *953:A2 *953:B2 5.96956e-05
16 *953:B1 *953:B2 3.50152e-06
17 *953:C1 *953:B2 0.000145071
18 *954:A2 *953:B2 0.000116165
19 *954:B2 *953:B2 0.000308907
20 *964:A *295:16 6.83917e-05
21 *965:B *295:16 7.26758e-05
22 *988:B1 *295:16 9.30787e-05
23 *989:B1 *295:16 0.000159964
24 *989:C1 *295:16 0.000113797
25 *992:B *295:16 6.30801e-05
26 *994:B1 *295:16 0.000114269
27 *1017:B *295:16 0
28 *1019:B *295:16 0
29 *1068:A1 *295:16 0.000387732
30 *1069:A1 *295:16 0.000156163
31 *1093:B *295:16 0.000121152
32 *1111:A2 *295:16 0
33 *1111:C1 *295:16 0
34 *1118:B *295:16 0.000177408
35 *1133:B1 *295:16 8.41703e-06
36 *1134:A1 *295:16 0
37 *71:68 *295:16 0.000114933
38 *71:76 *295:16 7.03219e-05
39 *74:8 *295:16 0.000177903
40 *77:10 *295:16 0.000166859
41 *78:12 *295:16 0.000151417
42 *103:8 *295:16 0
43 *103:19 *295:16 0
44 *141:16 *295:16 0.000446332
45 *171:16 *295:16 0.000120186
46 *178:12 *295:16 0
47 *202:21 *295:16 0
48 *204:14 *295:16 8.20694e-05
49 *237:85 *295:16 4.40643e-05
50 *268:95 *952:A1 0.000158175
51 *268:95 *295:16 0.00015896
52 *271:86 *295:16 9.83063e-05
53 *276:14 *295:16 0.000125777
*RES
1 *1198:X *295:16 49.565 
2 *295:16 *952:A1 3.775 
3 *295:16 *953:B2 11.39 
*END

*D_NET *296 0.00410791
*CONN
*I *932:A I *D sky130_fd_sc_hd__and2_1
*I *953:A1 I *D sky130_fd_sc_hd__o221a_1
*I *1199:X O *D sky130_fd_sc_hd__buf_1
*CAP
1 *932:A 9.67161e-05
2 *953:A1 0.000271532
3 *1199:X 0.00114934
4 *296:18 0.00151758
5 *932:A *332:10 9.12494e-06
6 *932:A *332:27 0.000147414
7 *296:18 *332:10 0.000382467
8 *932:B *953:A1 9.32439e-05
9 *945:A *932:A 0
10 *945:B *953:A1 7.11301e-05
11 *953:A2 *953:A1 2.69153e-05
12 *953:B2 *953:A1 4.27108e-05
13 *954:B2 *953:A1 4.89395e-05
14 *230:79 *296:18 0.000250799
*RES
1 *1199:X *296:18 26.68 
2 *296:18 *953:A1 8.565 
3 *296:18 *932:A 5.49 
*END

*D_NET *297 0.00633206
*CONN
*I *954:A1 I *D sky130_fd_sc_hd__o22a_1
*I *955:A1 I *D sky130_fd_sc_hd__a21oi_4
*I *1200:X O *D sky130_fd_sc_hd__dlymetal6s2s_1
*CAP
1 *954:A1 0
2 *955:A1 0.000128357
3 *1200:X 0.00196947
4 *297:16 0.00209783
5 *297:16 *1177:A 0.000643065
6 *925:A *297:16 7.23635e-05
7 *933:A1 *297:16 0.00015639
8 *933:A2 *297:16 2.16833e-05
9 *937:A *297:16 4.40028e-05
10 *937:B *297:16 8.35106e-05
11 *952:B1 *297:16 8.49205e-05
12 *953:B2 *955:A1 2.78394e-05
13 *953:B2 *297:16 1.59888e-05
14 *953:C1 *955:A1 0.000131168
15 *954:A2 *955:A1 4.66108e-05
16 *1155:A1 *297:16 0.000145743
17 *1200:A *297:16 2.38825e-05
18 *235:115 *297:16 0.000190633
19 *238:36 *297:16 2.10134e-05
20 *241:12 *955:A1 4.77757e-05
21 *268:95 *955:A1 0.000180116
22 *268:95 *297:16 1.99539e-05
23 *283:14 *297:16 0.000158066
24 *293:24 *297:16 2.16833e-05
*RES
1 *1200:X *297:16 39.625 
2 *297:16 *955:A1 7.005 
3 *297:16 *954:A1 3.6 
*END

*D_NET *298 0.0133678
*CONN
*I *917:A I *D sky130_fd_sc_hd__clkbuf_4
*I *1157:D I *D sky130_fd_sc_hd__dfrtp_1
*I *1201:X O *D sky130_fd_sc_hd__buf_1
*CAP
1 *917:A 9.56329e-05
2 *1157:D 0.00228127
3 *1201:X 0.00146045
4 *298:12 0.00383735
5 *1157:D *332:58 0.000414248
6 *1157:D *332:81 3.74161e-05
7 *298:12 *1139:A2 0
8 *298:12 *1213:A 0.000491238
9 *298:12 *299:12 7.4027e-05
10 *298:12 *302:10 0.000139933
11 *298:12 *315:56 0
12 *298:12 *315:58 0
13 *298:12 *315:68 0
14 *965:B *1157:D 0.000198945
15 *982:A2 *1157:D 0.000307049
16 *1128:B *1157:D 4.07945e-05
17 *1129:B2 *1157:D 8.57024e-05
18 *1139:B1 *298:12 0
19 *1156:CLK *1157:D 8.23457e-05
20 *1157:CLK *1157:D 0.000160739
21 *232:47 *1157:D 0.000254376
22 *282:8 *1157:D 0.000790697
23 *282:54 *1157:D 0.00202664
24 *286:63 *1157:D 0.000163012
25 *287:14 *298:12 0.000425957
*RES
1 *1201:X *298:12 34.415 
2 *298:12 *1157:D 45.095 
3 *298:12 *917:A 2.74 
*END

*D_NET *299 0.000447119
*CONN
*I *1174:A I *D sky130_fd_sc_hd__dlygate4sd3_1
*I *1210:A I *D sky130_fd_sc_hd__clkbuf_4
*I *1158:Q O *D sky130_fd_sc_hd__dfrtp_1
*CAP
1 *1174:A 0.000103098
2 *1210:A 0
3 *1158:Q 6.31803e-05
4 *299:12 0.000166278
5 *287:14 *299:12 4.05358e-05
6 *298:12 *299:12 7.4027e-05
*RES
1 *1158:Q *299:12 7.085 
2 *299:12 *1210:A 1.6 
3 *299:12 *1174:A 3.085 
*END

*D_NET *300 0.00159546
*CONN
*I *1211:A I *D sky130_fd_sc_hd__clkbuf_4
*I *1180:A I *D sky130_fd_sc_hd__dlygate4sd3_1
*I *1159:Q O *D sky130_fd_sc_hd__dfrtp_1
*CAP
1 *1211:A 0.00061669
2 *1180:A 0
3 *1159:Q 0.000129901
4 *300:12 0.000746591
5 *1211:A *315:8 4.80182e-05
6 *300:12 *305:8 5.4256e-05
*RES
1 *1159:Q *300:12 7.685 
2 *300:12 *1180:A 1.6 
3 *300:12 *1211:A 10 
*END

*D_NET *301 0.00217513
*CONN
*I *1212:A I *D sky130_fd_sc_hd__clkbuf_4
*I *1181:A I *D sky130_fd_sc_hd__dlygate4sd3_1
*I *1160:Q O *D sky130_fd_sc_hd__dfrtp_1
*CAP
1 *1212:A 0.000555623
2 *1181:A 5.86936e-05
3 *1160:Q 6.05552e-05
4 *301:8 0.000674872
5 *1181:A *315:38 0.000201508
6 *301:8 *315:38 8.49205e-05
7 *1029:A *1181:A 0.000203178
8 *1084:A2 *1212:A 9.18556e-05
9 *114:12 *1181:A 2.78732e-05
10 *114:12 *1212:A 5.57814e-05
11 *167:14 *1212:A 0
12 *168:8 *1212:A 0.000160266
*RES
1 *1160:Q *301:8 4.395 
2 *301:8 *1181:A 6.045 
3 *301:8 *1212:A 12.885 
*END

*D_NET *302 0.00164316
*CONN
*I *1213:A I *D sky130_fd_sc_hd__clkbuf_4
*I *1179:A I *D sky130_fd_sc_hd__dlygate4sd3_1
*I *1161:Q O *D sky130_fd_sc_hd__dfrtp_1
*CAP
1 *1213:A 0.000126265
2 *1179:A 8.55084e-05
3 *1161:Q 0.000118073
4 *302:10 0.000329846
5 *287:14 *1213:A 0.000273324
6 *287:14 *302:10 7.89689e-05
7 *298:12 *1213:A 0.000491238
8 *298:12 *302:10 0.000139933
*RES
1 *1161:Q *302:10 6.03 
2 *302:10 *1179:A 4.74 
3 *302:10 *1213:A 9.315 
*END

*D_NET *303 0.000831217
*CONN
*I *1214:A I *D sky130_fd_sc_hd__clkbuf_4
*I *1178:A I *D sky130_fd_sc_hd__dlygate4sd3_1
*I *1156:Q O *D sky130_fd_sc_hd__dfrtp_1
*CAP
1 *1214:A 0.000228275
2 *1178:A 0.000187333
3 *1156:Q 0
4 *303:6 0.000415609
5 *1178:A *315:68 0
6 *1214:A *315:68 0
7 is_outlier *1214:A 0
*RES
1 *1156:Q *303:6 3.6 
2 *303:6 *1178:A 6.465 
3 *303:6 *1214:A 7.305 
*END

*D_NET *304 0.00177022
*CONN
*I *1183:A I *D sky130_fd_sc_hd__dlygate4sd3_1
*I *1215:A I *D sky130_fd_sc_hd__clkbuf_4
*I *1162:Q O *D sky130_fd_sc_hd__dfrtp_1
*CAP
1 *1183:A 0.000153313
2 *1215:A 0.000554986
3 *1162:Q 0
4 *304:4 0.000708299
5 *1215:A *1140:B 0.000112595
6 *931:A *1183:A 0.000197836
7 *230:79 *1183:A 4.31915e-05
*RES
1 *1162:Q *304:4 1.6 
2 *304:4 *1215:A 14.84 
3 *304:4 *1183:A 4.735 
*END

*D_NET *305 0.0169283
*CONN
*I *1025:B1 I *D sky130_fd_sc_hd__a22o_1
*I *1034:A2 I *D sky130_fd_sc_hd__a22o_1
*I *1026:D I *D sky130_fd_sc_hd__nand4_1
*I *923:A I *D sky130_fd_sc_hd__clkbuf_4
*I *1202:X O *D sky130_fd_sc_hd__clkbuf_2
*CAP
1 *1025:B1 0.000345055
2 *1034:A2 0.000383403
3 *1026:D 4.06736e-05
4 *923:A 0.000515397
5 *1202:X 0.00163729
6 *305:54 0.000728459
7 *305:45 0.0021965
8 *305:8 0.00430851
9 *923:A *1103:B1 0.000313294
10 *1025:B1 *1025:A2 5.30862e-05
11 *1025:B1 *316:62 3.83194e-05
12 *1025:B1 *316:64 2.73766e-05
13 *1025:B1 *316:123 0.000335225
14 *305:8 *1218:A 0
15 *305:8 *308:8 0
16 *305:45 *332:54 0.000419392
17 *959:A *305:45 4.99619e-05
18 *972:B *305:45 0.000246639
19 *974:A *305:45 0.000140254
20 *975:A *1025:B1 7.5173e-05
21 *988:B1 *305:45 0.000499351
22 *1026:A *1026:D 8.22015e-05
23 *1026:B *1026:D 0.00019455
24 *1026:B *305:45 7.40446e-05
25 *1034:B2 *1034:A2 2.49909e-05
26 *1040:B *1034:A2 3.62258e-06
27 *1040:C *1034:A2 9.4275e-05
28 *1040:D *1034:A2 5.60487e-05
29 *1078:A2 *305:45 0.000424022
30 *1100:B *305:45 2.20403e-05
31 *1104:A *305:45 9.69565e-05
32 *1104:C *305:45 7.2491e-05
33 *1127:A2 *305:45 0.000158072
34 *1127:B1 *305:45 6.66424e-06
35 *1170:A *305:45 8.65905e-05
36 *1173:A *305:8 0.000261361
37 *57:33 *305:45 7.56618e-05
38 *61:10 *1025:B1 0.000364755
39 *61:10 *1034:A2 2.23407e-05
40 *61:12 *1034:A2 7.45538e-05
41 *61:14 *1034:A2 0.000294342
42 *61:16 *1034:A2 5.20193e-05
43 *113:16 *1025:B1 0.000109489
44 *120:10 *1034:A2 3.97492e-05
45 *124:14 *1034:A2 3.24721e-05
46 *235:99 *305:45 0.00033806
47 *271:6 *305:45 2.06497e-05
48 *271:69 *305:45 3.14534e-05
49 *280:8 *305:45 0.000271865
50 *282:8 *1026:D 6.52265e-05
51 *282:8 *305:45 0.000193164
52 *282:54 *305:45 0.000344454
53 *284:14 *305:8 0.000155625
54 *284:24 *923:A 0
55 *284:24 *305:8 0
56 *286:18 *1034:A2 0.000131762
57 *287:20 *1025:B1 0.000143487
58 *288:55 *1034:A2 0
59 *288:66 *1025:B1 7.21296e-06
60 *288:66 *1034:A2 4.81406e-05
61 *288:81 *1025:B1 4.62396e-05
62 *300:12 *305:8 5.4256e-05
*RES
1 *1202:X *305:8 33.54 
2 *305:8 *923:A 12.72 
3 *305:8 *305:45 45.825 
4 *305:45 *1026:D 3.40375 
5 *305:45 *305:54 2 
6 *305:54 *1034:A2 13.29 
7 *305:54 *1025:B1 14.16 
*END

*D_NET *306 0.00228869
*CONN
*I *1216:A I *D sky130_fd_sc_hd__buf_2
*I *1185:A I *D sky130_fd_sc_hd__dlygate4sd3_1
*I *1163:Q O *D sky130_fd_sc_hd__dfrtp_1
*CAP
1 *1216:A 0.000799896
2 *1185:A 3.52115e-05
3 *1163:Q 0.00026173
4 *306:6 0.00109684
5 sideband_out[1] *1216:A 3.20096e-05
6 *291:12 *1216:A 6.30072e-05
*RES
1 *1163:Q *306:6 4.465 
2 *306:6 *1185:A 2.215 
3 *306:6 *1216:A 15.02 
*END

*D_NET *307 0.00252205
*CONN
*I *1217:A I *D sky130_fd_sc_hd__clkbuf_4
*I *1175:A I *D sky130_fd_sc_hd__dlygate4sd3_1
*I *1164:Q O *D sky130_fd_sc_hd__dfrtp_1
*CAP
1 *1217:A 0.000828862
2 *1175:A 0.000167364
3 *1164:Q 0.000102437
4 *307:6 0.00109866
5 *1166:RESET_B *1217:A 0
6 *284:30 *1175:A 0
7 *291:20 *1217:A 0.000161529
8 *291:20 *307:6 0.000163199
*RES
1 *1164:Q *307:6 3.085 
2 *307:6 *1175:A 8.255 
3 *307:6 *1217:A 18.92 
*END

*D_NET *308 0.00613567
*CONN
*I *1218:A I *D sky130_fd_sc_hd__clkbuf_4
*I *1146:B I *D sky130_fd_sc_hd__and2_1
*I *1165:Q O *D sky130_fd_sc_hd__dfrtp_1
*CAP
1 *1218:A 0.00202921
2 *1146:B 0.000268358
3 *1165:Q 9.24339e-05
4 *308:8 0.00239001
5 *1146:B *1147:A1 0
6 *1133:A1 *1218:A 0
7 *1133:A1 *308:8 0
8 *1194:A *1218:A 0
9 *232:150 *308:8 0
10 *285:12 *1218:A 0.00118521
11 *291:12 *1218:A 0.000170447
12 *305:8 *1218:A 0
13 *305:8 *308:8 0
*RES
1 *1165:Q *308:8 4.98 
2 *308:8 *1146:B 7.53 
3 *308:8 *1218:A 41.455 
*END

*D_NET *309 0.00216929
*CONN
*I *1176:A I *D sky130_fd_sc_hd__dlygate4sd3_1
*I *1219:A I *D sky130_fd_sc_hd__buf_2
*I *1166:Q O *D sky130_fd_sc_hd__dfrtp_1
*CAP
1 *1176:A 0
2 *1219:A 0.00084215
3 *1166:Q 0.000242493
4 *309:10 0.00108464
*RES
1 *1166:Q *309:10 6.72 
2 *309:10 *1219:A 16.2 
3 *309:10 *1176:A 3.6 
*END

*D_NET *310 0.00335079
*CONN
*I *1177:A I *D sky130_fd_sc_hd__dlygate4sd3_1
*I *1220:A I *D sky130_fd_sc_hd__clkbuf_4
*I *1167:Q O *D sky130_fd_sc_hd__dfrtp_1
*CAP
1 *1177:A 0.000435522
2 *1220:A 0.000842218
3 *1167:Q 7.09116e-05
4 *310:8 0.00134865
5 *1177:A *315:72 0
6 *1177:A *315:74 0
7 *1220:A *1182:A 0
8 *1220:A *315:74 0
9 *1191:A *1220:A 0
10 *283:14 *310:8 1.04258e-05
11 *286:10 *1220:A 0
12 *297:16 *1177:A 0.000643065
*RES
1 *1167:Q *310:8 4.395 
2 *310:8 *1220:A 17.475 
3 *310:8 *1177:A 12.225 
*END

*D_NET *311 0.00256197
*CONN
*I *1184:A I *D sky130_fd_sc_hd__dlygate4sd3_1
*I *1221:A I *D sky130_fd_sc_hd__clkbuf_4
*I *1168:Q O *D sky130_fd_sc_hd__dfrtp_1
*CAP
1 *1184:A 0.000339041
2 *1221:A 0.000581577
3 *1168:Q 0
4 *311:4 0.000920618
5 *1184:A *1152:B 7.03276e-05
6 *1184:A *1168:RESET_B 1.34618e-05
7 *1221:A *1168:RESET_B 3.75196e-05
8 *1141:A3 *1184:A 8.33066e-06
9 *1141:B1 *1184:A 0.000193129
10 *1153:A1 *1184:A 1.91597e-05
11 *1162:D *1184:A 4.64561e-05
12 *230:79 *1184:A 3.97492e-05
13 *281:33 *1184:A 0.000157394
14 *288:10 *1221:A 0.000135205
*RES
1 *1168:Q *311:4 1.6 
2 *311:4 *1221:A 14.525 
3 *311:4 *1184:A 12.575 
*END

*D_NET *312 0.00114209
*CONN
*I *1182:A I *D sky130_fd_sc_hd__dlygate4sd3_1
*I *1222:A I *D sky130_fd_sc_hd__clkbuf_4
*I *1169:Q O *D sky130_fd_sc_hd__dfrtp_1
*CAP
1 *1182:A 0.000318181
2 *1222:A 0.000202221
3 *1169:Q 0
4 *312:6 0.000520402
5 *919:A *1182:A 5.05437e-05
6 *1220:A *1182:A 0
7 *232:6 *1182:A 5.07419e-05
*RES
1 *1169:Q *312:6 3.6 
2 *312:6 *1222:A 6.96 
3 *312:6 *1182:A 8.88 
*END

*D_NET *313 0.00145843
*CONN
*I *1223:A I *D sky130_fd_sc_hd__clkbuf_4
*I *1157:Q O *D sky130_fd_sc_hd__dfrtp_1
*CAP
1 *1223:A 0.000729214
2 *1157:Q 0.000729214
*RES
1 *1157:Q *1223:A 12.98 
*END

*D_NET *314 0.00120422
*CONN
*I *1113:B I *D sky130_fd_sc_hd__nand3_2
*I *1115:A2 I *D sky130_fd_sc_hd__a21oi_2
*I *1209:X O *D sky130_fd_sc_hd__buf_1
*CAP
1 *1113:B 0.000267925
2 *1115:A2 6.28081e-05
3 *1209:X 0
4 *314:4 0.000330733
5 *1115:A2 *316:22 0.000117832
6 *1113:A *1113:B 5.8069e-05
7 *1123:A0 *1113:B 4.89295e-05
8 *1124:C1 *1113:B 8.33341e-05
9 *1209:A *1113:B 0.000158441
10 *164:23 *1115:A2 0
11 *181:32 *1113:B 3.81652e-05
12 *193:14 *1113:B 3.79793e-05
*RES
1 *1209:X *314:4 1.6 
2 *314:4 *1115:A2 6.98 
3 *314:4 *1113:B 6.565 
*END

*D_NET *315 0.020874
*CONN
*I *1159:RESET_B I *D sky130_fd_sc_hd__dfrtp_1
*I *1157:RESET_B I *D sky130_fd_sc_hd__dfrtp_1
*I *1161:RESET_B I *D sky130_fd_sc_hd__dfrtp_1
*I *1158:RESET_B I *D sky130_fd_sc_hd__dfrtp_1
*I *1156:RESET_B I *D sky130_fd_sc_hd__dfrtp_1
*I *1167:RESET_B I *D sky130_fd_sc_hd__dfrtp_1
*I *1169:RESET_B I *D sky130_fd_sc_hd__dfrtp_1
*I *1168:RESET_B I *D sky130_fd_sc_hd__dfrtp_1
*I *1162:RESET_B I *D sky130_fd_sc_hd__dfrtp_1
*I *1160:RESET_B I *D sky130_fd_sc_hd__dfrtp_1
*I *1173:X O *D sky130_fd_sc_hd__buf_4
*CAP
1 *1159:RESET_B 0
2 *1157:RESET_B 0.00057495
3 *1161:RESET_B 0
4 *1158:RESET_B 0
5 *1156:RESET_B 2.61367e-05
6 *1167:RESET_B 2.82254e-05
7 *1169:RESET_B 0
8 *1168:RESET_B 0.000261174
9 *1162:RESET_B 0.00121124
10 *1160:RESET_B 6.18621e-06
11 *1173:X 0.000357096
12 *315:134 0.00062182
13 *315:74 0.00113922
14 *315:72 0.000805596
15 *315:68 0.00157565
16 *315:58 0.00120996
17 *315:56 0.00106098
18 *315:38 0.00267305
19 *315:8 0.00225851
20 *1157:RESET_B *327:20 1.22777e-05
21 *1162:RESET_B *1152:B 7.47262e-06
22 *1168:RESET_B *980:A2 9.23578e-05
23 *315:8 *1133:A2 9.07793e-05
24 *315:134 *327:20 2.24992e-05
25 *1019:B *315:38 0.000199725
26 *1021:A *315:38 8.65905e-05
27 *1021:B *315:38 0.000122331
28 *1029:A *315:38 0.000112722
29 *1029:B *315:38 6.07575e-06
30 *1029:C *315:38 5.28255e-05
31 *1093:B *315:38 2.92496e-05
32 *1108:B *315:38 4.35348e-05
33 *1109:A *315:38 0.000114024
34 *1110:B1 *315:38 0.000196376
35 *1112:B1 *315:38 1.19928e-05
36 *1129:B1 *315:38 2.75145e-05
37 *1130:B2 *315:38 0.000663946
38 *1132:A3 *1157:RESET_B 9.54399e-05
39 *1132:B1 *315:38 5.92499e-05
40 *1133:A1 *1157:RESET_B 0.000663074
41 *1133:A1 *315:8 4.66108e-05
42 *1133:A1 *315:38 0.000160635
43 *1133:A1 *315:134 0.000187759
44 *1133:B1 *315:38 0.000191885
45 *1138:A *315:38 0.000345638
46 *1139:B1 *315:56 0.000108031
47 *1139:B1 *315:58 4.18603e-06
48 *1152:A *1162:RESET_B 0.000122202
49 *1154:A *1162:RESET_B 1.54665e-05
50 *1155:A1 *1162:RESET_B 4.46165e-05
51 *1155:A2 *1162:RESET_B 0.000120272
52 *1155:A3 *1162:RESET_B 1.17646e-05
53 *1155:B1 *1162:RESET_B 4.2801e-05
54 *1159:D *315:134 0.000118527
55 *1160:CLK *315:56 5.17516e-05
56 *1162:CLK *1162:RESET_B 0.000128894
57 *1162:D *1162:RESET_B 4.89395e-05
58 *1169:D *1162:RESET_B 8.62445e-06
59 *1177:A *315:72 0
60 *1177:A *315:74 0
61 *1178:A *315:68 0
62 *1181:A *315:38 0.000201508
63 *1184:A *1168:RESET_B 1.34618e-05
64 *1211:A *315:8 4.80182e-05
65 *1214:A *315:68 0
66 *1220:A *315:74 0
67 *1221:A *1168:RESET_B 3.75196e-05
68 *79:25 *315:38 0.000161529
69 *106:8 *315:38 2.86975e-05
70 *107:12 *315:38 7.29419e-05
71 *108:14 *1160:RESET_B 2.65337e-05
72 *108:14 *315:38 2.05056e-05
73 *108:14 *315:56 3.21052e-05
74 *200:30 *315:38 4.96505e-05
75 *232:47 *1156:RESET_B 2.65337e-05
76 *232:47 *315:68 0.000137309
77 *232:66 *315:58 0
78 *232:150 *1157:RESET_B 0.00038901
79 *235:70 *1157:RESET_B 0
80 *285:34 *1157:RESET_B 4.88854e-05
81 *286:10 *1162:RESET_B 0.000153236
82 *286:10 *315:72 0.00036018
83 *286:10 *315:74 0.000187175
84 *286:57 *315:72 3.84119e-05
85 *286:63 *315:68 0
86 *286:63 *315:72 0.000311894
87 *294:14 *315:58 0
88 *294:14 *315:68 0
89 *294:14 *315:72 7.23237e-05
90 *295:16 *315:38 9.31992e-05
91 *298:12 *315:56 0
92 *298:12 *315:58 0
93 *298:12 *315:68 0
94 *301:8 *315:38 8.49205e-05
*RES
1 *1173:X *315:8 7.24 
2 *315:8 *315:38 41.77 
3 *315:38 *1160:RESET_B 0.3975 
4 *315:38 *315:56 13.775 
5 *315:56 *315:58 4.185 
6 *315:58 *315:68 17.675 
7 *315:68 *315:72 15.62 
8 *315:72 *315:74 3.93 
9 *315:74 *1162:RESET_B 16.0325 
10 *1162:RESET_B *1168:RESET_B 8.2975 
11 *315:74 *1169:RESET_B 2 
12 *315:72 *1167:RESET_B 2.45 
13 *315:68 *1156:RESET_B 0.7575 
14 *315:58 *1158:RESET_B 2 
15 *315:56 *1161:RESET_B 2 
16 *315:8 *315:134 4.145 
17 *315:134 *1157:RESET_B 16.0925 
18 *315:134 *1159:RESET_B 2 
*END

*D_NET *316 0.0237657
*CONN
*I *1147:A1 I *D sky130_fd_sc_hd__a31o_1
*I *1026:C I *D sky130_fd_sc_hd__nand4_1
*I *926:A I *D sky130_fd_sc_hd__or4_1
*I *1036:B I *D sky130_fd_sc_hd__and2_1
*I *1006:B1 I *D sky130_fd_sc_hd__a22o_1
*I *1007:D I *D sky130_fd_sc_hd__nand4_1
*I *1025:A2 I *D sky130_fd_sc_hd__a22o_1
*I *939:A I *D sky130_fd_sc_hd__xnor2_1
*I *1060:B I *D sky130_fd_sc_hd__nand2_1
*I *1203:X O *D sky130_fd_sc_hd__clkbuf_4
*CAP
1 *1147:A1 0.000341794
2 *1026:C 0
3 *926:A 0.000925041
4 *1036:B 7.72774e-05
5 *1006:B1 0.000174035
6 *1007:D 4.68649e-05
7 *1025:A2 8.13342e-05
8 *939:A 0.000478527
9 *1060:B 8.86657e-05
10 *1203:X 0.00136201
11 *316:135 0.00130419
12 *316:123 0.000804647
13 *316:79 0.000288554
14 *316:64 0.000202486
15 *316:62 0.00196463
16 *316:32 0.00091305
17 *316:26 0.00186026
18 *316:22 0.00180985
19 *316:22 *1006:A2 7.01303e-05
20 *316:62 *962:A 0
21 *926:B *926:A 0.000183738
22 *926:C *926:A 0.000227543
23 *927:A *926:A 9.53428e-06
24 *956:B *316:135 0.000107432
25 *968:B1 *1147:A1 4.66108e-05
26 *968:B1 *316:22 2.92496e-05
27 *968:B1 *316:26 7.49327e-05
28 *969:A *1147:A1 7.23635e-05
29 *969:A *316:26 0.0001249
30 *973:A1 *316:26 6.83538e-05
31 *975:A *316:62 1.19928e-05
32 *976:B2 *1007:D 4.66108e-05
33 *985:A *316:62 2.49909e-05
34 *987:B *316:62 0.000342551
35 *987:C *316:62 8.23457e-05
36 *988:B1 *316:32 9.37731e-05
37 *992:B *316:62 0.000118813
38 *996:B *316:62 0.000132951
39 *1001:A *1147:A1 0.000233736
40 *1001:B *316:22 0.000264273
41 *1003:A2 *316:22 7.34042e-05
42 *1006:B2 *1006:B1 0.000195266
43 *1007:A *316:79 0.000110785
44 *1007:B *1007:D 1.91597e-05
45 *1007:C *1007:D 4.66108e-05
46 *1009:A1 *316:62 8.35157e-05
47 *1025:B1 *1025:A2 5.30862e-05
48 *1025:B1 *316:62 3.83194e-05
49 *1025:B1 *316:64 2.73766e-05
50 *1025:B1 *316:123 0.000335225
51 *1034:A1 *926:A 0.000154987
52 *1037:B *316:135 7.03823e-05
53 *1037:C *926:A 9.13949e-06
54 *1049:A *316:123 9.54399e-05
55 *1049:B *316:123 6.71882e-05
56 *1071:A2 *1060:B 1.19928e-05
57 *1071:B1 *939:A 0.000107205
58 *1075:A *1060:B 4.77807e-05
59 *1075:C *939:A 4.66108e-05
60 *1075:C *1060:B 3.41812e-05
61 *1096:A *316:22 0
62 *1115:A2 *316:22 0.000117832
63 *1122:A3 *316:22 0.000201428
64 *1123:A0 *316:22 0
65 *1130:B2 *1007:D 5.19006e-06
66 *1133:B1 *316:22 4.11194e-05
67 *1134:A2 *316:22 0
68 *1135:B *316:22 0
69 *1146:B *1147:A1 0
70 *1147:A2 *939:A 0
71 *1147:A2 *1147:A1 0.000309017
72 *1150:A *926:A 6.0011e-05
73 *1151:A1 *926:A 8.08554e-05
74 *1167:CLK *926:A 1.74678e-05
75 *1170:A *316:32 0.000354538
76 *56:12 *316:22 2.88321e-05
77 *57:100 *316:32 0.000111887
78 *57:121 *316:32 7.71289e-05
79 *57:142 *316:32 3.84331e-05
80 *57:142 *316:62 7.28642e-05
81 *71:10 *316:62 3.81745e-05
82 *71:68 *316:62 0
83 *71:89 *1060:B 4.77769e-05
84 *73:14 *316:62 0.00019723
85 *78:12 *316:62 4.66108e-05
86 *83:10 *316:22 8.34904e-06
87 *85:17 *316:22 0
88 *91:29 *1006:B1 4.01778e-05
89 *93:10 *1006:B1 9.71067e-05
90 *111:22 *316:123 1.16578e-05
91 *112:10 *316:123 5.68956e-05
92 *112:10 *316:135 2.99518e-06
93 *113:16 *316:123 0.000151756
94 *121:27 *316:135 4.94474e-05
95 *122:6 *926:A 1.43396e-05
96 *122:6 *1036:B 4.77719e-05
97 *122:15 *926:A 2.71527e-05
98 *123:10 *926:A 0
99 *133:8 *316:123 0.000177619
100 *133:8 *316:135 7.23602e-05
101 *135:10 *316:123 0
102 *149:12 *316:32 5.4419e-05
103 *154:8 *1060:B 0.00010946
104 *156:12 *316:32 5.00903e-05
105 *161:6 *939:A 0.000187143
106 *164:8 *316:62 8.30069e-05
107 *164:23 *316:22 0
108 *181:21 *316:22 8.93475e-05
109 *207:10 *316:22 0
110 *208:12 *316:22 6.9766e-05
111 *230:10 *316:135 1.73877e-05
112 *233:69 *316:62 7.51137e-05
113 *234:6 *1007:D 1.91597e-05
114 *234:45 *926:A 2.15594e-05
115 *236:14 *939:A 4.76051e-05
116 *238:10 *926:A 2.23485e-05
117 *241:123 *939:A 0.00029896
118 *268:8 *926:A 1.08758e-05
119 *268:14 *926:A 8.65905e-05
120 *268:95 *939:A 5.53249e-06
121 *269:8 *316:135 3.64998e-06
122 *270:16 *316:62 8.52972e-05
123 *270:18 *316:62 0.000170866
124 *270:28 *316:62 2.69217e-05
125 *272:107 *316:32 0.000286629
126 *274:44 *316:32 0.000326413
127 *274:76 *316:26 0.000306155
128 *274:76 *316:32 0.000100162
129 *274:76 *316:62 2.14129e-05
130 *278:40 *1147:A1 4.77757e-05
131 *278:53 *316:22 0.00010411
132 *283:14 *926:A 0.000114492
133 *285:34 *316:62 0.000244153
134 *287:14 *1025:A2 4.89362e-05
135 *287:20 *1025:A2 1.5379e-05
136 *288:10 *926:A 0.000464847
137 *288:19 *926:A 0.000143928
138 *288:32 *926:A 9.46508e-05
139 *288:81 *316:123 0.000394734
140 *288:103 *1006:B1 9.12494e-06
141 *288:103 *316:79 0.000112087
142 *288:103 *316:123 5.20193e-05
143 *294:20 *926:A 2.18822e-05
*RES
1 *1203:X *316:22 30.83 
2 *316:22 *316:26 5.555 
3 *316:26 *316:32 13.175 
4 *316:32 *1060:B 3.775 
5 *316:32 *939:A 15.635 
6 *316:26 *316:62 27.02 
7 *316:62 *316:64 0.795 
8 *316:64 *1025:A2 3.355 
9 *316:64 *316:79 3.74 
10 *316:79 *1007:D 4.755 
11 *316:79 *1006:B1 6.975 
12 *316:62 *316:123 18.09 
13 *316:123 *316:135 11.265 
14 *316:135 *1036:B 2.74 
15 *316:135 *926:A 28.125 
16 *316:123 *1026:C 3.6 
17 *316:22 *1147:A1 8.275 
*END

*D_NET *317 0.000233088
*CONN
*I *1130:A2 I *D sky130_fd_sc_hd__a22o_1
*I *1174:X O *D sky130_fd_sc_hd__dlygate4sd3_1
*CAP
1 *1130:A2 5.54494e-05
2 *1174:X 5.54494e-05
3 *232:47 *1130:A2 0.000122189
*RES
1 *1174:X *1130:A2 4.34 
*END

*D_NET *318 6.70883e-05
*CONN
*I *957:A1 I *D sky130_fd_sc_hd__o21ba_1
*I *1178:X O *D sky130_fd_sc_hd__dlygate4sd3_1
*CAP
1 *957:A1 3.35441e-05
2 *1178:X 3.35441e-05
*RES
1 *1178:X *957:A1 3.65 
*END

*D_NET *319 0.000215108
*CONN
*I *1139:A2 I *D sky130_fd_sc_hd__a22o_1
*I *1179:X O *D sky130_fd_sc_hd__dlygate4sd3_1
*CAP
1 *1139:A2 7.13776e-05
2 *1179:X 7.13776e-05
3 *1139:B1 *1139:A2 7.23533e-05
4 *1139:B2 *1139:A2 0
5 *298:12 *1139:A2 0
*RES
1 *1179:X *1139:A2 8.58 
*END

*D_NET *320 0.000514333
*CONN
*I *1133:A2 I *D sky130_fd_sc_hd__a22o_1
*I *1180:X O *D sky130_fd_sc_hd__dlygate4sd3_1
*CAP
1 *1133:A2 0.000132294
2 *1180:X 0.000132294
3 *1133:A1 *1133:A2 0.000158965
4 *315:8 *1133:A2 9.07793e-05
*RES
1 *1180:X *1133:A2 6.065 
*END

*D_NET *321 0.00101674
*CONN
*I *1137:A2 I *D sky130_fd_sc_hd__a22o_1
*I *1181:X O *D sky130_fd_sc_hd__dlygate4sd3_1
*CAP
1 *1137:A2 0.000166988
2 *1181:X 0.000166988
3 *1028:A1 *1137:A2 2.15594e-05
4 *1028:A2 *1137:A2 4.99619e-05
5 *1137:B2 *1137:A2 0.000123414
6 *1138:A *1137:A2 0.000344465
7 *1139:B1 *1137:A2 4.92062e-05
8 *114:12 *1137:A2 7.23602e-05
9 *167:14 *1137:A2 0
10 *269:42 *1137:A2 2.17931e-05
*RES
1 *1181:X *1137:A2 12.15 
*END

*D_NET *322 0.00140537
*CONN
*I *1154:B I *D sky130_fd_sc_hd__and2_1
*I *1182:X O *D sky130_fd_sc_hd__dlygate4sd3_1
*CAP
1 *1154:B 0.00029954
2 *1182:X 0.00029954
3 *919:A *1154:B 4.0843e-05
4 *1151:A2 *1154:B 0.00020208
5 *1155:A1 *1154:B 0.000283043
6 *1155:A2 *1154:B 0
7 *1155:A3 *1154:B 5.29321e-05
8 *268:14 *1154:B 3.13354e-05
9 *268:18 *1154:B 0.000196056
*RES
1 *1182:X *1154:B 13.755 
*END

*D_NET *323 0.000953663
*CONN
*I *1140:B I *D sky130_fd_sc_hd__and2_1
*I *1183:X O *D sky130_fd_sc_hd__dlygate4sd3_1
*CAP
1 *1140:B 0.000114492
2 *1183:X 0.000114492
3 *1140:B *980:A2 0.000306856
4 *1215:A *1140:B 0.000112595
5 *232:107 *1140:B 0.000233604
6 *233:8 *1140:B 7.1624e-05
*RES
1 *1183:X *1140:B 11.445 
*END

*D_NET *324 0.000731364
*CONN
*I *1152:B I *D sky130_fd_sc_hd__and2_1
*I *1184:X O *D sky130_fd_sc_hd__dlygate4sd3_1
*CAP
1 *1152:B 0.000235338
2 *1184:X 0.000235338
3 *1152:A *1152:B 4.24465e-05
4 *1162:CLK *1152:B 7.01132e-05
5 *1162:D *1152:B 7.03276e-05
6 *1162:RESET_B *1152:B 7.47262e-06
7 *1184:A *1152:B 7.03276e-05
*RES
1 *1184:X *1152:B 11.115 
*END

*D_NET *325 0.000755531
*CONN
*I *1142:B I *D sky130_fd_sc_hd__and2_1
*I *1185:X O *D sky130_fd_sc_hd__dlygate4sd3_1
*CAP
1 *1142:B 0.00034611
2 *1185:X 0.00034611
3 *1142:A *1142:B 3.45252e-05
4 *1143:A2 *1142:B 0
5 *284:30 *1142:B 2.87867e-05
*RES
1 *1185:X *1142:B 12.6 
*END

*D_NET *326 0.000337874
*CONN
*I *1144:B I *D sky130_fd_sc_hd__and2_1
*I *1175:X O *D sky130_fd_sc_hd__dlygate4sd3_1
*CAP
1 *1144:B 4.66059e-05
2 *1175:X 4.66059e-05
3 *1144:A *1144:B 8.40269e-05
4 *292:14 *1144:B 0.000160635
*RES
1 *1175:X *1144:B 4.685 
*END

*D_NET *327 0.00909181
*CONN
*I *922:A I *D sky130_fd_sc_hd__clkbuf_4
*I *1006:A2 I *D sky130_fd_sc_hd__a22o_1
*I *1204:X O *D sky130_fd_sc_hd__buf_1
*CAP
1 *922:A 1.84748e-05
2 *1006:A2 0.00232608
3 *1204:X 0.00135236
4 *327:20 0.00369691
5 *1006:A1 *1006:A2 2.04101e-05
6 *1010:A *1006:A2 5.83958e-05
7 *1010:C *1006:A2 3.68999e-05
8 *1011:C *1006:A2 0.000182271
9 *1017:A *1006:A2 9.66021e-05
10 *1105:A *1006:A2 4.7101e-05
11 *1106:A *1006:A2 2.12738e-05
12 *1126:A3 *327:20 0
13 *1126:B1 *327:20 0.000166346
14 *1129:B2 *327:20 0
15 *1131:A *1006:A2 0.000118321
16 *1131:A *327:20 7.03854e-05
17 *1131:B *327:20 3.31771e-05
18 *1132:A3 *327:20 9.37731e-05
19 *1133:A1 *327:20 9.82856e-06
20 *1133:B2 *327:20 0
21 *1136:B2 *327:20 0
22 *1157:RESET_B *327:20 1.22777e-05
23 *1159:D *327:20 6.55406e-05
24 *1204:A *327:20 5.30673e-05
25 *91:29 *1006:A2 4.9253e-06
26 *92:12 *1006:A2 2.66586e-05
27 *94:16 *1006:A2 2.53185e-05
28 *97:14 *1006:A2 4.21621e-05
29 *139:39 *1006:A2 3.03775e-05
30 *141:16 *1006:A2 0.000150736
31 *191:8 *1006:A2 0.000107103
32 *192:33 *327:20 0
33 *200:10 *327:20 2.23485e-05
34 *200:16 *327:20 8.52172e-05
35 *200:30 *327:20 4.99341e-06
36 *235:16 *1006:A2 1.98474e-05
37 *315:134 *327:20 2.24992e-05
38 *316:22 *1006:A2 7.01303e-05
*RES
1 *1204:X *327:20 27.965 
2 *327:20 *1006:A2 35.105 
3 *327:20 *922:A 1.96 
*END

*D_NET *328 0.000307335
*CONN
*I *1148:B I *D sky130_fd_sc_hd__and2_1
*I *1176:X O *D sky130_fd_sc_hd__dlygate4sd3_1
*CAP
1 *1148:B 4.9918e-05
2 *1176:X 4.9918e-05
3 *1148:B *331:12 0.000159722
4 *232:118 *1148:B 4.77769e-05
*RES
1 *1176:X *1148:B 4.685 
*END

*D_NET *329 0.000278884
*CONN
*I *1150:B I *D sky130_fd_sc_hd__and2_1
*I *1177:X O *D sky130_fd_sc_hd__dlygate4sd3_1
*CAP
1 *1150:B 4.81538e-05
2 *1177:X 4.81538e-05
3 *934:B *1150:B 0
4 *238:10 *1150:B 6.47516e-05
5 *288:10 *1150:B 0.000117825
*RES
1 *1177:X *1150:B 8.6925 
*END

*D_NET *330 0.00365984
*CONN
*I *1005:B I *D sky130_fd_sc_hd__and2_1
*I *921:A I *D sky130_fd_sc_hd__clkbuf_4
*I *1205:X O *D sky130_fd_sc_hd__clkbuf_1
*CAP
1 *1005:B 0
2 *921:A 0.000158151
3 *1205:X 0.00129445
4 *330:10 0.0014526
5 *1022:B *330:10 7.39901e-05
6 *1130:B2 *921:A 0.000308416
7 *1130:B2 *330:10 0.000135792
8 *1139:A1 *330:10 0.000172
9 *1139:B2 *330:10 0
10 *93:10 *330:10 2.26364e-05
11 *93:21 *330:10 1.56908e-05
12 *232:66 *330:10 2.61115e-05
*RES
1 *1205:X *330:10 23.76 
2 *330:10 *921:A 6.825 
3 *330:10 *1005:B 3.6 
*END

*D_NET *331 0.0121734
*CONN
*I *920:A I *D sky130_fd_sc_hd__clkbuf_4
*I *980:A2 I *D sky130_fd_sc_hd__a22o_1
*I *1206:X O *D sky130_fd_sc_hd__buf_1
*CAP
1 *920:A 0
2 *980:A2 0.00115022
3 *1206:X 0.00242125
4 *331:12 0.00357147
5 *331:12 *1103:B1 0.000204367
6 *927:C *980:A2 0.000219389
7 *933:A2 *980:A2 0.000171172
8 *1035:A *980:A2 5.7687e-05
9 *1040:A *980:A2 0.000106512
10 *1140:B *980:A2 0.000306856
11 *1141:B1 *980:A2 0.00028447
12 *1148:B *331:12 0.000159722
13 *1149:B1 *331:12 4.89395e-05
14 *1162:CLK *980:A2 0.000173792
15 *1167:CLK *980:A2 0.000134516
16 *1168:RESET_B *980:A2 9.23578e-05
17 *61:12 *980:A2 9.50342e-06
18 *61:14 *980:A2 0.000299005
19 *61:16 *980:A2 8.33066e-06
20 *125:14 *980:A2 0.000175846
21 *126:12 *980:A2 1.74678e-05
22 *232:107 *980:A2 4.42148e-05
23 *232:107 *331:12 0.00137881
24 *232:118 *331:12 4.42148e-05
25 *233:44 *980:A2 0.000299368
26 *234:37 *980:A2 4.2482e-05
27 *234:39 *980:A2 0.000256523
28 *234:45 *980:A2 0
29 *237:40 *980:A2 0.000111703
30 *239:21 *980:A2 0.000130707
31 *241:61 *980:A2 4.40899e-05
32 *271:14 *980:A2 1.11025e-05
33 *272:24 *980:A2 0
34 *281:10 *980:A2 0.000197374
*RES
1 *1206:X *331:12 47.555 
2 *331:12 *980:A2 37.065 
3 *331:12 *920:A 1.6 
*END

*D_NET *332 0.017059
*CONN
*I *928:A I *D sky130_fd_sc_hd__buf_2
*I *963:A1 I *D sky130_fd_sc_hd__a22o_1
*I *962:A I *D sky130_fd_sc_hd__and2_1
*I *961:B I *D sky130_fd_sc_hd__and4_1
*I *967:B1 I *D sky130_fd_sc_hd__o21ai_1
*I *958:A I *D sky130_fd_sc_hd__nand2_2
*I *966:B I *D sky130_fd_sc_hd__and3_1
*I *964:B I *D sky130_fd_sc_hd__nand4_1
*I *944:A I *D sky130_fd_sc_hd__nand2_1
*I *1207:X O *D sky130_fd_sc_hd__buf_2
*CAP
1 *928:A 0
2 *963:A1 9.1033e-05
3 *962:A 0.000694438
4 *961:B 0
5 *967:B1 0
6 *958:A 0.000447705
7 *966:B 0
8 *964:B 6.46381e-06
9 *944:A 0
10 *1207:X 0.00195109
11 *332:103 0.000764776
12 *332:81 0.000707723
13 *332:58 0.000561393
14 *332:54 0.000663694
15 *332:46 0.000452319
16 *332:35 0.000604459
17 *332:27 0.000717865
18 *332:10 0.00214027
19 sideband_out[2] *332:10 9.43747e-05
20 *932:A *332:10 9.12494e-06
21 *932:A *332:27 0.000147414
22 *932:B *332:27 0.000198945
23 *932:B *332:35 5.53249e-06
24 *942:A *332:27 5.4155e-06
25 *945:A *332:35 0
26 *953:B2 *332:35 8.08153e-06
27 *954:B1 *332:35 0.000136884
28 *954:B2 *332:35 3.76596e-05
29 *955:B1 *332:27 3.95724e-05
30 *955:B1 *332:35 0.000113797
31 *962:B *962:A 4.67041e-05
32 *964:A *332:46 0.000132821
33 *967:A1 *958:A 1.92371e-05
34 *967:A1 *332:81 1.09567e-05
35 *967:A2 *332:81 3.08702e-05
36 *968:A1 *332:81 1.4744e-05
37 *968:A2 *332:81 0.000119246
38 *968:B1 *958:A 0
39 *968:B1 *332:81 2.75229e-05
40 *970:C *332:81 4.66108e-05
41 *973:B1 *958:A 0
42 *987:A *962:A 0.000310595
43 *988:B1 *332:54 0
44 *991:B *962:A 0
45 *1001:B *958:A 0.000121033
46 *1045:A1 *964:B 1.82559e-05
47 *1059:B *332:35 7.98007e-06
48 *1069:A1 *332:35 6.60042e-05
49 *1157:D *332:58 0.000414248
50 *1157:D *332:81 3.74161e-05
51 *1170:A *332:10 0.000324781
52 *1170:A *332:27 6.00519e-05
53 *1170:A *332:54 2.97004e-06
54 *1199:A *332:10 7.27003e-05
55 *71:68 *962:A 0
56 *71:68 *332:54 0
57 *71:68 *332:103 0
58 *152:8 *964:B 9.78811e-06
59 *190:30 *958:A 0.000324022
60 *235:99 *332:54 0.000264606
61 *238:92 *332:35 3.9922e-05
62 *241:12 *332:27 9.61248e-05
63 *241:91 *332:27 0.000309612
64 *241:138 *962:A 0.000298737
65 *241:138 *332:81 9.54399e-05
66 *255:14 *332:27 0
67 *270:6 *958:A 8.53309e-05
68 *271:86 *963:A1 0.000137578
69 *271:86 *332:46 6.28511e-05
70 *271:109 *332:103 1.07797e-05
71 *272:45 *332:35 0.00010669
72 *272:60 *332:35 0.00017562
73 *272:60 *332:46 2.13434e-05
74 *272:69 *963:A1 0.000129742
75 *272:69 *332:46 0.000197339
76 *272:86 *332:103 0.000124868
77 *272:107 *962:A 9.50342e-06
78 *272:107 *332:103 4.38051e-05
79 *274:44 *962:A 0
80 *274:44 *332:54 0
81 *274:76 *962:A 0
82 *277:12 *332:54 7.26758e-05
83 *277:12 *332:103 6.08587e-05
84 *277:27 *332:103 7.30547e-05
85 *278:14 *332:81 9.37731e-05
86 *278:31 *958:A 0
87 *279:8 *332:81 7.9615e-05
88 *281:74 *332:27 5.14266e-05
89 *282:54 *963:A1 4.66742e-05
90 *290:12 *332:10 0.000390466
91 *295:16 *332:35 0.000352847
92 *295:16 *332:46 7.28465e-06
93 *296:18 *332:10 0.000382467
94 *305:45 *332:54 0.000419392
95 *316:62 *962:A 0
*RES
1 *1207:X *332:10 37.56 
2 *332:10 *944:A 3.6 
3 *332:10 *332:27 8.165 
4 *332:27 *332:35 14.99 
5 *332:35 *964:B 3.77625 
6 *332:35 *332:46 2.655 
7 *332:46 *332:54 10.555 
8 *332:54 *332:58 5.9 
9 *332:58 *966:B 1.6 
10 *332:58 *332:81 9.805 
11 *332:81 *958:A 13.7 
12 *332:81 *967:B1 1.6 
13 *332:54 *332:103 2.145 
14 *332:103 *961:B 3.6 
15 *332:103 *962:A 17.77 
16 *332:46 *963:A1 6.03 
17 *332:27 *928:A 1.6 
*END

*D_NET *333 0.00480362
*CONN
*I *1103:B1 I *D sky130_fd_sc_hd__o21a_1
*I *1208:X O *D sky130_fd_sc_hd__buf_1
*CAP
1 *1103:B1 0.00191077
2 *1208:X 0.00191077
3 *923:A *1103:B1 0.000313294
4 *947:B1 *1103:B1 0
5 *1103:A1 *1103:B1 5.19006e-06
6 *1192:A *1103:B1 0
7 *236:6 *1103:B1 9.51579e-05
8 *291:12 *1103:B1 0.000364075
9 *331:12 *1103:B1 0.000204367
*RES
1 *1208:X *1103:B1 43.245 
*END
