*SPEF "ieee 1481-1999"
*DESIGN "gear_quantizer"
*DATE "11:11:11 Fri 11 11, 1111"
*VENDOR "OpenRCX"
*PROGRAM "Parallel Extraction"
*VERSION "1.0"
*DESIGN_FLOW "NAME_SCOPE LOCAL" "PIN_CAP NONE"
*DIVIDER /
*DELIMITER :
*BUS_DELIMITER []
*T_UNIT 1 NS
*C_UNIT 1 PF
*R_UNIT 1 OHM
*L_UNIT 1 HENRY

*NAME_MAP
*3 clk
*4 data_in[0]
*5 data_in[1]
*6 data_in[2]
*7 data_in[3]
*8 data_in[4]
*9 data_in[5]
*10 data_in[6]
*11 data_in[7]
*12 int4_out[0]
*13 int4_out[1]
*14 int4_out[2]
*15 int4_out[3]
*16 is_outlier
*17 round_mode
*18 rst_n
*19 scale[0]
*20 scale[1]
*21 scale[2]
*22 scale[3]
*23 sideband_out[0]
*24 sideband_out[1]
*25 sideband_out[2]
*26 sideband_out[3]
*27 sideband_out[4]
*28 sideband_out[5]
*29 sideband_out[6]
*30 sideband_out[7]
*31 threshold[0]
*32 threshold[1]
*33 threshold[2]
*34 threshold[3]
*35 threshold[4]
*36 threshold[5]
*37 threshold[6]
*38 threshold[7]
*39 valid_in
*40 valid_out
*41 _000_
*42 _001_
*43 _002_
*44 _003_
*45 _004_
*46 _005_
*47 _006_
*48 _007_
*49 _008_
*50 _009_
*51 _010_
*52 _011_
*53 _012_
*54 _013_
*55 _014_
*56 _015_
*57 _016_
*58 _017_
*59 _018_
*60 _019_
*61 _020_
*62 _021_
*63 _022_
*64 _023_
*65 _024_
*66 _025_
*67 _026_
*68 _027_
*69 _028_
*70 _029_
*71 _030_
*72 _031_
*73 _032_
*74 _033_
*75 _034_
*76 _035_
*77 _036_
*78 _037_
*79 _038_
*80 _039_
*81 _040_
*82 _041_
*83 _042_
*84 _043_
*85 _044_
*86 _045_
*87 _046_
*88 _047_
*89 _048_
*90 _049_
*91 _050_
*92 _051_
*93 _052_
*94 _053_
*95 _054_
*96 _055_
*97 _056_
*98 _057_
*99 _058_
*100 _059_
*101 _060_
*102 _061_
*103 _062_
*104 _063_
*105 _064_
*106 _065_
*107 _066_
*108 _067_
*109 _068_
*110 _069_
*111 _070_
*112 _071_
*113 _072_
*114 _073_
*115 _074_
*116 _075_
*117 _076_
*118 _077_
*119 _078_
*120 _079_
*121 _080_
*122 _081_
*123 _082_
*124 _083_
*125 _084_
*126 _085_
*127 _086_
*128 _087_
*129 _088_
*130 _089_
*131 _090_
*132 _091_
*133 _092_
*134 _093_
*135 _094_
*136 _095_
*137 _096_
*138 _097_
*139 _098_
*140 _099_
*141 _100_
*142 _101_
*143 _102_
*144 _103_
*145 _104_
*146 _105_
*147 _106_
*148 _107_
*149 _108_
*150 _109_
*151 _110_
*152 _111_
*153 _112_
*154 _113_
*155 _114_
*156 _115_
*157 _116_
*158 _117_
*159 _118_
*160 _119_
*161 _120_
*162 _121_
*163 _122_
*164 _123_
*165 _124_
*166 _125_
*167 _126_
*168 _127_
*169 _128_
*170 _129_
*171 _130_
*172 _131_
*173 _132_
*174 _133_
*175 _134_
*176 _135_
*177 _136_
*178 _137_
*179 _138_
*180 _139_
*181 _140_
*182 _141_
*183 _142_
*184 _143_
*185 _144_
*186 _145_
*187 _146_
*188 _147_
*189 _148_
*190 _149_
*191 _150_
*192 _151_
*193 _152_
*194 _153_
*195 _154_
*196 _155_
*197 _156_
*198 _157_
*199 _158_
*200 _159_
*201 _160_
*202 _161_
*203 _162_
*204 _163_
*205 _164_
*206 _165_
*207 _166_
*208 _167_
*209 _168_
*210 _169_
*211 _170_
*212 _171_
*213 _172_
*214 _173_
*215 _174_
*216 _175_
*217 _176_
*218 _177_
*219 _178_
*220 _179_
*221 _180_
*222 _181_
*223 _182_
*224 _183_
*225 _184_
*226 _185_
*227 _186_
*228 _187_
*229 _188_
*230 _189_
*231 _190_
*232 _191_
*233 _192_
*234 _193_
*235 _194_
*236 _195_
*237 _196_
*238 _197_
*239 _198_
*240 _199_
*241 _200_
*242 _201_
*243 _202_
*244 _203_
*245 _204_
*246 _205_
*247 _206_
*248 _207_
*249 _208_
*250 _209_
*251 _210_
*252 _211_
*253 _212_
*254 _213_
*255 _214_
*256 _215_
*257 _216_
*258 _217_
*259 _218_
*260 clknet_0_clk
*261 clknet_1_0__leaf_clk
*262 clknet_1_1__leaf_clk
*263 net1
*264 net10
*265 net11
*266 net12
*267 net13
*268 net14
*269 net15
*270 net16
*271 net17
*272 net18
*273 net19
*274 net2
*275 net20
*276 net21
*277 net22
*278 net23
*279 net24
*280 net25
*281 net26
*282 net27
*283 net28
*284 net29
*285 net3
*286 net30
*287 net31
*288 net32
*289 net33
*290 net34
*291 net35
*292 net36
*293 net37
*294 net38
*295 net39
*296 net4
*297 net40
*298 net41
*299 net42
*300 net43
*301 net44
*302 net45
*303 net46
*304 net47
*305 net48
*306 net49
*307 net5
*308 net50
*309 net6
*310 net7
*311 net8
*312 net9
*313 FILLER_0_0_109
*314 FILLER_0_0_113
*315 FILLER_0_0_118
*316 FILLER_0_0_130
*317 FILLER_0_0_141
*318 FILLER_0_0_149
*319 FILLER_0_0_161
*320 FILLER_0_0_19
*321 FILLER_0_0_27
*322 FILLER_0_0_35
*323 FILLER_0_0_47
*324 FILLER_0_0_57
*325 FILLER_0_0_69
*326 FILLER_0_0_76
*327 FILLER_0_0_85
*328 FILLER_0_0_97
*329 FILLER_0_10_101
*330 FILLER_0_10_111
*331 FILLER_0_10_126
*332 FILLER_0_10_132
*333 FILLER_0_10_141
*334 FILLER_0_10_153
*335 FILLER_0_10_157
*336 FILLER_0_10_26
*337 FILLER_0_10_50
*338 FILLER_0_10_82
*339 FILLER_0_10_95
*340 FILLER_0_11_105
*341 FILLER_0_11_111
*342 FILLER_0_11_113
*343 FILLER_0_11_145
*344 FILLER_0_11_157
*345 FILLER_0_11_161
*346 FILLER_0_11_28
*347 FILLER_0_11_34
*348 FILLER_0_11_50
*349 FILLER_0_11_66
*350 FILLER_0_11_70
*351 FILLER_0_11_87
*352 FILLER_0_11_94
*353 FILLER_0_12_107
*354 FILLER_0_12_122
*355 FILLER_0_12_134
*356 FILLER_0_12_141
*357 FILLER_0_12_153
*358 FILLER_0_12_161
*359 FILLER_0_12_3
*360 FILLER_0_12_41
*361 FILLER_0_12_48
*362 FILLER_0_12_56
*363 FILLER_0_12_63
*364 FILLER_0_12_67
*365 FILLER_0_12_7
*366 FILLER_0_12_85
*367 FILLER_0_13_120
*368 FILLER_0_13_127
*369 FILLER_0_13_139
*370 FILLER_0_13_15
*371 FILLER_0_13_151
*372 FILLER_0_13_159
*373 FILLER_0_13_26
*374 FILLER_0_13_3
*375 FILLER_0_13_47
*376 FILLER_0_13_72
*377 FILLER_0_13_81
*378 FILLER_0_13_93
*379 FILLER_0_14_108
*380 FILLER_0_14_119
*381 FILLER_0_14_147
*382 FILLER_0_14_155
*383 FILLER_0_14_26
*384 FILLER_0_14_35
*385 FILLER_0_14_47
*386 FILLER_0_14_54
*387 FILLER_0_14_67
*388 FILLER_0_14_85
*389 FILLER_0_14_95
*390 FILLER_0_15_108
*391 FILLER_0_15_113
*392 FILLER_0_15_137
*393 FILLER_0_15_149
*394 FILLER_0_15_161
*395 FILLER_0_15_23
*396 FILLER_0_15_45
*397 FILLER_0_15_53
*398 FILLER_0_15_57
*399 FILLER_0_15_70
*400 FILLER_0_15_87
*401 FILLER_0_15_99
*402 FILLER_0_16_100
*403 FILLER_0_16_133
*404 FILLER_0_16_139
*405 FILLER_0_16_149
*406 FILLER_0_16_161
*407 FILLER_0_16_29
*408 FILLER_0_16_3
*409 FILLER_0_16_51
*410 FILLER_0_16_7
*411 FILLER_0_16_92
*412 FILLER_0_17_104
*413 FILLER_0_17_121
*414 FILLER_0_17_133
*415 FILLER_0_17_145
*416 FILLER_0_17_15
*417 FILLER_0_17_157
*418 FILLER_0_17_3
*419 FILLER_0_17_32
*420 FILLER_0_17_36
*421 FILLER_0_17_41
*422 FILLER_0_17_54
*423 FILLER_0_17_57
*424 FILLER_0_17_66
*425 FILLER_0_17_75
*426 FILLER_0_17_83
*427 FILLER_0_18_109
*428 FILLER_0_18_121
*429 FILLER_0_18_133
*430 FILLER_0_18_139
*431 FILLER_0_18_141
*432 FILLER_0_18_153
*433 FILLER_0_18_16
*434 FILLER_0_18_161
*435 FILLER_0_18_22
*436 FILLER_0_18_29
*437 FILLER_0_18_41
*438 FILLER_0_18_49
*439 FILLER_0_18_58
*440 FILLER_0_18_79
*441 FILLER_0_18_97
*442 FILLER_0_19_106
*443 FILLER_0_19_113
*444 FILLER_0_19_125
*445 FILLER_0_19_137
*446 FILLER_0_19_149
*447 FILLER_0_19_15
*448 FILLER_0_19_161
*449 FILLER_0_19_3
*450 FILLER_0_19_35
*451 FILLER_0_19_42
*452 FILLER_0_19_55
*453 FILLER_0_19_57
*454 FILLER_0_19_67
*455 FILLER_0_19_79
*456 FILLER_0_19_89
*457 FILLER_0_19_94
*458 FILLER_0_1_105
*459 FILLER_0_1_111
*460 FILLER_0_1_113
*461 FILLER_0_1_125
*462 FILLER_0_1_137
*463 FILLER_0_1_149
*464 FILLER_0_1_161
*465 FILLER_0_1_19
*466 FILLER_0_1_31
*467 FILLER_0_1_43
*468 FILLER_0_1_55
*469 FILLER_0_1_57
*470 FILLER_0_1_69
*471 FILLER_0_1_7
*472 FILLER_0_1_81
*473 FILLER_0_1_93
*474 FILLER_0_20_103
*475 FILLER_0_20_115
*476 FILLER_0_20_127
*477 FILLER_0_20_139
*478 FILLER_0_20_141
*479 FILLER_0_20_15
*480 FILLER_0_20_153
*481 FILLER_0_20_161
*482 FILLER_0_20_24
*483 FILLER_0_20_29
*484 FILLER_0_20_3
*485 FILLER_0_20_38
*486 FILLER_0_20_46
*487 FILLER_0_20_53
*488 FILLER_0_20_71
*489 FILLER_0_20_80
*490 FILLER_0_20_85
*491 FILLER_0_21_10
*492 FILLER_0_21_107
*493 FILLER_0_21_111
*494 FILLER_0_21_113
*495 FILLER_0_21_125
*496 FILLER_0_21_137
*497 FILLER_0_21_149
*498 FILLER_0_21_155
*499 FILLER_0_21_18
*500 FILLER_0_21_26
*501 FILLER_0_21_43
*502 FILLER_0_21_47
*503 FILLER_0_21_52
*504 FILLER_0_21_6
*505 FILLER_0_21_84
*506 FILLER_0_22_104
*507 FILLER_0_22_116
*508 FILLER_0_22_128
*509 FILLER_0_22_141
*510 FILLER_0_22_153
*511 FILLER_0_22_16
*512 FILLER_0_22_161
*513 FILLER_0_22_25
*514 FILLER_0_22_29
*515 FILLER_0_22_3
*516 FILLER_0_22_42
*517 FILLER_0_22_46
*518 FILLER_0_22_59
*519 FILLER_0_22_63
*520 FILLER_0_22_70
*521 FILLER_0_22_79
*522 FILLER_0_23_109
*523 FILLER_0_23_113
*524 FILLER_0_23_125
*525 FILLER_0_23_137
*526 FILLER_0_23_149
*527 FILLER_0_23_15
*528 FILLER_0_23_161
*529 FILLER_0_23_3
*530 FILLER_0_23_31
*531 FILLER_0_23_53
*532 FILLER_0_23_67
*533 FILLER_0_23_79
*534 FILLER_0_23_97
*535 FILLER_0_24_107
*536 FILLER_0_24_119
*537 FILLER_0_24_131
*538 FILLER_0_24_139
*539 FILLER_0_24_141
*540 FILLER_0_24_15
*541 FILLER_0_24_153
*542 FILLER_0_24_161
*543 FILLER_0_24_3
*544 FILLER_0_24_35
*545 FILLER_0_24_47
*546 FILLER_0_24_58
*547 FILLER_0_24_64
*548 FILLER_0_24_72
*549 FILLER_0_24_95
*550 FILLER_0_25_111
*551 FILLER_0_25_113
*552 FILLER_0_25_125
*553 FILLER_0_25_137
*554 FILLER_0_25_149
*555 FILLER_0_25_157
*556 FILLER_0_25_21
*557 FILLER_0_25_33
*558 FILLER_0_25_41
*559 FILLER_0_25_48
*560 FILLER_0_25_65
*561 FILLER_0_25_77
*562 FILLER_0_25_87
*563 FILLER_0_25_9
*564 FILLER_0_25_99
*565 FILLER_0_26_100
*566 FILLER_0_26_112
*567 FILLER_0_26_124
*568 FILLER_0_26_136
*569 FILLER_0_26_141
*570 FILLER_0_26_15
*571 FILLER_0_26_153
*572 FILLER_0_26_27
*573 FILLER_0_26_29
*574 FILLER_0_26_3
*575 FILLER_0_26_60
*576 FILLER_0_26_88
*577 FILLER_0_27_100
*578 FILLER_0_27_113
*579 FILLER_0_27_121
*580 FILLER_0_27_133
*581 FILLER_0_27_139
*582 FILLER_0_27_14
*583 FILLER_0_27_141
*584 FILLER_0_27_153
*585 FILLER_0_27_161
*586 FILLER_0_27_26
*587 FILLER_0_27_29
*588 FILLER_0_27_41
*589 FILLER_0_27_49
*590 FILLER_0_27_55
*591 FILLER_0_27_57
*592 FILLER_0_27_69
*593 FILLER_0_27_76
*594 FILLER_0_27_85
*595 FILLER_0_27_93
*596 FILLER_0_2_109
*597 FILLER_0_2_121
*598 FILLER_0_2_133
*599 FILLER_0_2_139
*600 FILLER_0_2_141
*601 FILLER_0_2_153
*602 FILLER_0_2_157
*603 FILLER_0_2_21
*604 FILLER_0_2_27
*605 FILLER_0_2_29
*606 FILLER_0_2_41
*607 FILLER_0_2_53
*608 FILLER_0_2_65
*609 FILLER_0_2_77
*610 FILLER_0_2_83
*611 FILLER_0_2_85
*612 FILLER_0_2_9
*613 FILLER_0_2_97
*614 FILLER_0_3_105
*615 FILLER_0_3_111
*616 FILLER_0_3_113
*617 FILLER_0_3_125
*618 FILLER_0_3_137
*619 FILLER_0_3_149
*620 FILLER_0_3_15
*621 FILLER_0_3_161
*622 FILLER_0_3_27
*623 FILLER_0_3_3
*624 FILLER_0_3_39
*625 FILLER_0_3_51
*626 FILLER_0_3_55
*627 FILLER_0_3_57
*628 FILLER_0_3_69
*629 FILLER_0_3_81
*630 FILLER_0_3_93
*631 FILLER_0_4_109
*632 FILLER_0_4_121
*633 FILLER_0_4_133
*634 FILLER_0_4_139
*635 FILLER_0_4_141
*636 FILLER_0_4_153
*637 FILLER_0_4_161
*638 FILLER_0_4_23
*639 FILLER_0_4_27
*640 FILLER_0_4_36
*641 FILLER_0_4_42
*642 FILLER_0_4_50
*643 FILLER_0_4_62
*644 FILLER_0_4_74
*645 FILLER_0_4_82
*646 FILLER_0_4_85
*647 FILLER_0_4_97
*648 FILLER_0_5_101
*649 FILLER_0_5_105
*650 FILLER_0_5_111
*651 FILLER_0_5_117
*652 FILLER_0_5_130
*653 FILLER_0_5_142
*654 FILLER_0_5_154
*655 FILLER_0_5_3
*656 FILLER_0_5_55
*657 FILLER_0_5_57
*658 FILLER_0_5_69
*659 FILLER_0_5_81
*660 FILLER_0_5_9
*661 FILLER_0_5_93
*662 FILLER_0_6_114
*663 FILLER_0_6_136
*664 FILLER_0_6_149
*665 FILLER_0_6_157
*666 FILLER_0_6_17
*667 FILLER_0_6_26
*668 FILLER_0_6_29
*669 FILLER_0_6_46
*670 FILLER_0_6_7
*671 FILLER_0_6_71
*672 FILLER_0_6_83
*673 FILLER_0_6_85
*674 FILLER_0_6_92
*675 FILLER_0_6_98
*676 FILLER_0_7_105
*677 FILLER_0_7_111
*678 FILLER_0_7_113
*679 FILLER_0_7_117
*680 FILLER_0_7_125
*681 FILLER_0_7_137
*682 FILLER_0_7_149
*683 FILLER_0_7_15
*684 FILLER_0_7_161
*685 FILLER_0_7_21
*686 FILLER_0_7_3
*687 FILLER_0_7_40
*688 FILLER_0_7_47
*689 FILLER_0_7_7
*690 FILLER_0_7_77
*691 FILLER_0_7_85
*692 FILLER_0_7_98
*693 FILLER_0_8_113
*694 FILLER_0_8_131
*695 FILLER_0_8_139
*696 FILLER_0_8_141
*697 FILLER_0_8_153
*698 FILLER_0_8_161
*699 FILLER_0_8_23
*700 FILLER_0_8_36
*701 FILLER_0_8_51
*702 FILLER_0_8_63
*703 FILLER_0_8_78
*704 FILLER_0_9_118
*705 FILLER_0_9_147
*706 FILLER_0_9_159
*707 FILLER_0_9_3
*708 FILLER_0_9_50
*709 FILLER_0_9_57
*710 FILLER_0_9_7
*711 FILLER_0_9_72
*712 FILLER_0_9_98
*713 PHY_0
*714 PHY_1
*715 PHY_10
*716 PHY_11
*717 PHY_12
*718 PHY_13
*719 PHY_14
*720 PHY_15
*721 PHY_16
*722 PHY_17
*723 PHY_18
*724 PHY_19
*725 PHY_2
*726 PHY_20
*727 PHY_21
*728 PHY_22
*729 PHY_23
*730 PHY_24
*731 PHY_25
*732 PHY_26
*733 PHY_27
*734 PHY_28
*735 PHY_29
*736 PHY_3
*737 PHY_30
*738 PHY_31
*739 PHY_32
*740 PHY_33
*741 PHY_34
*742 PHY_35
*743 PHY_36
*744 PHY_37
*745 PHY_38
*746 PHY_39
*747 PHY_4
*748 PHY_40
*749 PHY_41
*750 PHY_42
*751 PHY_43
*752 PHY_44
*753 PHY_45
*754 PHY_46
*755 PHY_47
*756 PHY_48
*757 PHY_49
*758 PHY_5
*759 PHY_50
*760 PHY_51
*761 PHY_52
*762 PHY_53
*763 PHY_54
*764 PHY_55
*765 PHY_6
*766 PHY_7
*767 PHY_8
*768 PHY_9
*769 TAP_100
*770 TAP_101
*771 TAP_102
*772 TAP_103
*773 TAP_104
*774 TAP_105
*775 TAP_106
*776 TAP_107
*777 TAP_108
*778 TAP_109
*779 TAP_110
*780 TAP_111
*781 TAP_112
*782 TAP_113
*783 TAP_114
*784 TAP_115
*785 TAP_116
*786 TAP_117
*787 TAP_118
*788 TAP_119
*789 TAP_120
*790 TAP_121
*791 TAP_122
*792 TAP_123
*793 TAP_124
*794 TAP_125
*795 TAP_126
*796 TAP_127
*797 TAP_128
*798 TAP_129
*799 TAP_130
*800 TAP_56
*801 TAP_57
*802 TAP_58
*803 TAP_59
*804 TAP_60
*805 TAP_61
*806 TAP_62
*807 TAP_63
*808 TAP_64
*809 TAP_65
*810 TAP_66
*811 TAP_67
*812 TAP_68
*813 TAP_69
*814 TAP_70
*815 TAP_71
*816 TAP_72
*817 TAP_73
*818 TAP_74
*819 TAP_75
*820 TAP_76
*821 TAP_77
*822 TAP_78
*823 TAP_79
*824 TAP_80
*825 TAP_81
*826 TAP_82
*827 TAP_83
*828 TAP_84
*829 TAP_85
*830 TAP_86
*831 TAP_87
*832 TAP_88
*833 TAP_89
*834 TAP_90
*835 TAP_91
*836 TAP_92
*837 TAP_93
*838 TAP_94
*839 TAP_95
*840 TAP_96
*841 TAP_97
*842 TAP_98
*843 TAP_99
*844 _219_
*845 _220_
*846 _221_
*847 _222_
*848 _223_
*849 _224_
*850 _225_
*851 _226_
*852 _227_
*853 _228_
*854 _229_
*855 _230_
*856 _231_
*857 _232_
*858 _233_
*859 _234_
*860 _235_
*861 _236_
*862 _237_
*863 _238_
*864 _239_
*865 _240_
*866 _241_
*867 _242_
*868 _243_
*869 _244_
*870 _245_
*871 _246_
*872 _247_
*873 _248_
*874 _249_
*875 _250_
*876 _251_
*877 _252_
*878 _253_
*879 _254_
*880 _255_
*881 _256_
*882 _257_
*883 _258_
*884 _259_
*885 _260_
*886 _261_
*887 _262_
*888 _263_
*889 _264_
*890 _265_
*891 _266_
*892 _267_
*893 _268_
*894 _269_
*895 _270_
*896 _271_
*897 _272_
*898 _273_
*899 _274_
*900 _275_
*901 _276_
*902 _277_
*903 _278_
*904 _279_
*905 _280_
*906 _281_
*907 _282_
*908 _283_
*909 _284_
*910 _285_
*911 _286_
*912 _287_
*913 _288_
*914 _289_
*915 _290_
*916 _291_
*917 _292_
*918 _293_
*919 _294_
*920 _295_
*921 _296_
*922 _297_
*923 _298_
*924 _299_
*925 _300_
*926 _301_
*927 _302_
*928 _303_
*929 _304_
*930 _305_
*931 _306_
*932 _307_
*933 _308_
*934 _309_
*935 _310_
*936 _311_
*937 _312_
*938 _313_
*939 _314_
*940 _315_
*941 _316_
*942 _317_
*943 _318_
*944 _319_
*945 _320_
*946 _321_
*947 _322_
*948 _323_
*949 _324_
*950 _325_
*951 _326_
*952 _327_
*953 _328_
*954 _329_
*955 _330_
*956 _331_
*957 _332_
*958 _333_
*959 _334_
*960 _335_
*961 _336_
*962 _337_
*963 _338_
*964 _339_
*965 _340_
*966 _341_
*967 _342_
*968 _343_
*969 _344_
*970 _345_
*971 _346_
*972 _347_
*973 _348_
*974 _349_
*975 _350_
*976 _351_
*977 _352_
*978 _353_
*979 _354_
*980 _355_
*981 _356_
*982 _357_
*983 _358_
*984 _359_
*985 _360_
*986 _361_
*987 _362_
*988 _363_
*989 _364_
*990 _365_
*991 _366_
*992 _367_
*993 _368_
*994 _369_
*995 _370_
*996 _371_
*997 _372_
*998 _373_
*999 _374_
*1000 _375_
*1001 _376_
*1002 _377_
*1003 _378_
*1004 _379_
*1005 _380_
*1006 _381_
*1007 _382_
*1008 _383_
*1009 _384_
*1010 _385_
*1011 _386_
*1012 _387_
*1013 _388_
*1014 _389_
*1015 _390_
*1016 _391_
*1017 _392_
*1018 _393_
*1019 _394_
*1020 _395_
*1021 _396_
*1022 _397_
*1023 _398_
*1024 _399_
*1025 _400_
*1026 _401_
*1027 _402_
*1028 _403_
*1029 _404_
*1030 _405_
*1031 _406_
*1032 _407_
*1033 _408_
*1034 _409_
*1035 _410_
*1036 _411_
*1037 _412_
*1038 _413_
*1039 _414_
*1040 _415_
*1041 _416_
*1042 _417_
*1043 _418_
*1044 _419_
*1045 _420_
*1046 _421_
*1047 _422_
*1048 _423_
*1049 _424_
*1050 _425_
*1051 _426_
*1052 _427_
*1053 _428_
*1054 _429_
*1055 _430_
*1056 _431_
*1057 _432_
*1058 _433_
*1059 _434_
*1060 _435_
*1061 _436_
*1062 _437_
*1063 _438_
*1064 _439_
*1065 _440_
*1066 _441_
*1067 _442_
*1068 _443_
*1069 _444_
*1070 _445_
*1071 _446_
*1072 _447_
*1073 _448_
*1074 _449_
*1075 _450_
*1076 _451_
*1077 clkbuf_0_clk
*1078 clkbuf_1_0__f_clk
*1079 clkbuf_1_1__f_clk
*1080 fanout37
*1081 hold1
*1082 hold10
*1083 hold11
*1084 hold12
*1085 hold13
*1086 hold2
*1087 hold3
*1088 hold4
*1089 hold5
*1090 hold6
*1091 hold7
*1092 hold8
*1093 hold9
*1094 input1
*1095 input10
*1096 input11
*1097 input12
*1098 input13
*1099 input14
*1100 input15
*1101 input16
*1102 input17
*1103 input18
*1104 input19
*1105 input2
*1106 input20
*1107 input21
*1108 input22
*1109 input3
*1110 input4
*1111 input5
*1112 input6
*1113 input7
*1114 input8
*1115 input9
*1116 output23
*1117 output24
*1118 output25
*1119 output26
*1120 output27
*1121 output28
*1122 output29
*1123 output30
*1124 output31
*1125 output32
*1126 output33
*1127 output34
*1128 output35
*1129 output36

*PORTS
clk I
data_in[0] I
data_in[1] I
data_in[2] I
data_in[3] I
data_in[4] I
data_in[5] I
data_in[6] I
data_in[7] I
int4_out[0] O
int4_out[1] O
int4_out[2] O
int4_out[3] O
is_outlier O
round_mode I
rst_n I
scale[0] I
scale[1] I
scale[2] I
scale[3] I
sideband_out[0] O
sideband_out[1] O
sideband_out[2] O
sideband_out[3] O
sideband_out[4] O
sideband_out[5] O
sideband_out[6] O
sideband_out[7] O
threshold[0] I
threshold[1] I
threshold[2] I
threshold[3] I
threshold[4] I
threshold[5] I
threshold[6] I
threshold[7] I
valid_in I
valid_out O

*D_NET *3 0.00474153
*CONN
*P clk I
*I *1077:A I *D sky130_fd_sc_hd__clkbuf_16
*CAP
1 clk 0.00187488
2 *1077:A 0.00187488
3 *1077:A *1013:A 2.88888e-05
4 *1077:A *1013:B 8.06306e-05
5 *1077:A *66:10 7.96104e-06
6 *1077:A *68:10 0.00015729
7 *1077:A *167:8 0.000235378
8 *1077:A *213:93 4.04791e-05
9 *1077:A *214:55 0
10 *1077:A *215:16 0.000242027
11 *1077:A *217:8 0
12 *1077:A *217:17 4.22006e-05
13 *1077:A *311:32 0.000156919
*RES
1 clk *1077:A 34.6107 
*END

*D_NET *4 0.000501229
*CONN
*P data_in[0] I
*I *1094:A I *D sky130_fd_sc_hd__clkbuf_2
*CAP
1 data_in[0] 0.000250614
2 *1094:A 0.000250614
3 *1094:A *1061:A 0
*RES
1 data_in[0] *1094:A 5.16003 
*END

*D_NET *5 0.000558923
*CONN
*P data_in[1] I
*I *1105:A I *D sky130_fd_sc_hd__buf_1
*CAP
1 data_in[1] 0.000235688
2 *1105:A 0.000235688
3 *1105:A *263:29 8.75474e-05
*RES
1 data_in[1] *1105:A 5.61177 
*END

*D_NET *6 0.000878395
*CONN
*P data_in[2] I
*I *1109:A I *D sky130_fd_sc_hd__buf_1
*CAP
1 data_in[2] 0.000439198
2 *1109:A 0.000439198
*RES
1 data_in[2] *1109:A 11.04 
*END

*D_NET *7 0.000828765
*CONN
*P data_in[3] I
*I *1110:A I *D sky130_fd_sc_hd__clkbuf_4
*CAP
1 data_in[3] 0.000387849
2 *1110:A 0.000387849
3 *1110:A *307:20 5.30673e-05
*RES
1 data_in[3] *1110:A 10.44 
*END

*D_NET *8 0.000828765
*CONN
*P data_in[4] I
*I *1111:A I *D sky130_fd_sc_hd__clkbuf_4
*CAP
1 data_in[4] 0.000387849
2 *1111:A 0.000387849
3 *1111:A *307:20 5.30673e-05
*RES
1 data_in[4] *1111:A 10.44 
*END

*D_NET *9 0.000791765
*CONN
*P data_in[5] I
*I *1112:A I *D sky130_fd_sc_hd__buf_2
*CAP
1 data_in[5] 0.000380863
2 *1112:A 0.000380863
3 *1112:A *266:10 3.00381e-05
*RES
1 data_in[5] *1112:A 10.35 
*END

*D_NET *10 0.00176477
*CONN
*P data_in[6] I
*I *1113:A I *D sky130_fd_sc_hd__clkbuf_4
*CAP
1 data_in[6] 0.000819934
2 *1113:A 0.000819934
3 *1113:A *1114:A 0.0001249
*RES
1 data_in[6] *1113:A 17.955 
*END

*D_NET *11 0.000941477
*CONN
*P data_in[7] I
*I *1114:A I *D sky130_fd_sc_hd__clkbuf_2
*CAP
1 data_in[7] 0.000408289
2 *1114:A 0.000408289
3 *1113:A *1114:A 0.0001249
*RES
1 data_in[7] *1114:A 10.785 
*END

*D_NET *12 0.000658611
*CONN
*P int4_out[0] O
*I *1116:X O *D sky130_fd_sc_hd__clkbuf_4
*CAP
1 int4_out[0] 0.000329306
2 *1116:X 0.000329306
3 int4_out[0] *263:10 0
*RES
1 *1116:X int4_out[0] 8.17043 
*END

*D_NET *13 0.000599942
*CONN
*P int4_out[1] O
*I *1117:X O *D sky130_fd_sc_hd__clkbuf_4
*CAP
1 int4_out[1] 0.000280679
2 *1117:X 0.000280679
3 int4_out[1] *271:16 3.85835e-05
*RES
1 *1117:X int4_out[1] 5.86503 
*END

*D_NET *14 0.000885839
*CONN
*P int4_out[2] O
*I *1118:X O *D sky130_fd_sc_hd__clkbuf_4
*CAP
1 int4_out[2] 0.000434236
2 *1118:X 0.000434236
3 int4_out[2] *972:C 5.83121e-06
4 int4_out[2] *309:14 1.15364e-05
*RES
1 *1118:X int4_out[2] 10.53 
*END

*D_NET *15 0.000612718
*CONN
*P int4_out[3] O
*I *1119:X O *D sky130_fd_sc_hd__clkbuf_4
*CAP
1 int4_out[3] 0.000306359
2 *1119:X 0.000306359
3 int4_out[3] *1119:A 0
*RES
1 *1119:X int4_out[3] 7.24043 
*END

*D_NET *16 0.00266952
*CONN
*P is_outlier O
*I *1120:X O *D sky130_fd_sc_hd__clkbuf_4
*CAP
1 is_outlier 0.00121303
2 *1120:X 0.00121303
3 is_outlier *249:62 3.99395e-05
4 is_outlier *249:83 6.45236e-05
5 is_outlier *265:51 3.19967e-06
6 is_outlier *307:62 7.23602e-05
7 is_outlier *307:89 5.48224e-05
8 is_outlier *307:108 8.61788e-06
*RES
1 *1120:X is_outlier 7.61477 
*END

*D_NET *18 0.000568614
*CONN
*P rst_n I
*I *1115:A I *D sky130_fd_sc_hd__clkbuf_2
*CAP
1 rst_n 0.000284307
2 *1115:A 0.000284307
*RES
1 rst_n *1115:A 6.75697 
*END

*D_NET *19 0.000674395
*CONN
*P scale[0] I
*I *1095:A I *D sky130_fd_sc_hd__clkbuf_2
*CAP
1 scale[0] 0.000337198
2 *1095:A 0.000337198
*RES
1 scale[0] *1095:A 7.77697 
*END

*D_NET *20 0.00134172
*CONN
*P scale[1] I
*I *1096:A I *D sky130_fd_sc_hd__dlymetal6s2s_1
*CAP
1 scale[1] 0.00067086
2 *1096:A 0.00067086
*RES
1 scale[1] *1096:A 15.18 
*END

*D_NET *21 0.00151684
*CONN
*P scale[2] I
*I *1097:A I *D sky130_fd_sc_hd__clkbuf_2
*CAP
1 scale[2] 0.000637678
2 *1097:A 0.000637678
3 *1097:A *1108:A 0.000241483
*RES
1 scale[2] *1097:A 15.63 
*END

*D_NET *22 0.00114754
*CONN
*P scale[3] I
*I *1098:A I *D sky130_fd_sc_hd__clkbuf_2
*CAP
1 scale[3] 0.000573771
2 *1098:A 0.000573771
3 *1098:A sideband_out[5] 0
*RES
1 scale[3] *1098:A 10.4222 
*END

*D_NET *23 0.000656106
*CONN
*P sideband_out[0] O
*I *1121:X O *D sky130_fd_sc_hd__clkbuf_4
*CAP
1 sideband_out[0] 0.000328053
2 *1121:X 0.000328053
*RES
1 *1121:X sideband_out[0] 9.39 
*END

*D_NET *24 0.000582622
*CONN
*P sideband_out[1] O
*I *1122:X O *D sky130_fd_sc_hd__buf_2
*CAP
1 sideband_out[1] 0.000275068
2 *1122:X 0.000275068
3 sideband_out[1] *1122:A 3.24868e-05
*RES
1 *1122:X sideband_out[1] 5.4733 
*END

*D_NET *25 0.000656106
*CONN
*P sideband_out[2] O
*I *1123:X O *D sky130_fd_sc_hd__clkbuf_4
*CAP
1 sideband_out[2] 0.000328053
2 *1123:X 0.000328053
*RES
1 *1123:X sideband_out[2] 9.39 
*END

*D_NET *26 0.00094738
*CONN
*P sideband_out[3] O
*I *1124:X O *D sky130_fd_sc_hd__buf_2
*CAP
1 sideband_out[3] 0.000410405
2 *1124:X 0.000410405
3 sideband_out[3] *1101:A 0.00012657
*RES
1 *1124:X sideband_out[3] 10.53 
*END

*D_NET *27 0.000701558
*CONN
*P sideband_out[4] O
*I *1125:X O *D sky130_fd_sc_hd__buf_2
*CAP
1 sideband_out[4] 0.000350779
2 *1125:X 0.000350779
*RES
1 *1125:X sideband_out[4] 7.37197 
*END

*D_NET *28 0.000949756
*CONN
*P sideband_out[5] O
*I *1126:X O *D sky130_fd_sc_hd__clkbuf_4
*CAP
1 sideband_out[5] 0.000426573
2 *1126:X 0.000426573
3 sideband_out[5] *265:10 9.66106e-05
4 *1098:A sideband_out[5] 0
*RES
1 *1126:X sideband_out[5] 11.13 
*END

*D_NET *29 0.000656106
*CONN
*P sideband_out[6] O
*I *1127:X O *D sky130_fd_sc_hd__clkbuf_4
*CAP
1 sideband_out[6] 0.000328053
2 *1127:X 0.000328053
*RES
1 *1127:X sideband_out[6] 9.39 
*END

*D_NET *30 0.00046169
*CONN
*P sideband_out[7] O
*I *1128:X O *D sky130_fd_sc_hd__clkbuf_4
*CAP
1 sideband_out[7] 0.000230845
2 *1128:X 0.000230845
*RES
1 *1128:X sideband_out[7] 6.38543 
*END

*D_NET *31 0.000546907
*CONN
*P threshold[0] I
*I *1099:A I *D sky130_fd_sc_hd__clkbuf_1
*CAP
1 threshold[0] 0.000273453
2 *1099:A 0.000273453
3 *1099:A *870:B1 0
*RES
1 threshold[0] *1099:A 7.0587 
*END

*D_NET *32 0.000763257
*CONN
*P threshold[1] I
*I *1100:A I *D sky130_fd_sc_hd__buf_1
*CAP
1 threshold[1] 0.000381629
2 *1100:A 0.000381629
*RES
1 threshold[1] *1100:A 10.455 
*END

*D_NET *33 0.00104792
*CONN
*P threshold[2] I
*I *1101:A I *D sky130_fd_sc_hd__buf_1
*CAP
1 threshold[2] 0.000460673
2 *1101:A 0.000460673
3 sideband_out[3] *1101:A 0.00012657
*RES
1 threshold[2] *1101:A 9.5585 
*END

*D_NET *34 0.00163142
*CONN
*P threshold[3] I
*I *1102:A I *D sky130_fd_sc_hd__buf_1
*CAP
1 threshold[3] 0.000815709
2 *1102:A 0.000815709
*RES
1 threshold[3] *1102:A 17.82 
*END

*D_NET *35 0.000808347
*CONN
*P threshold[4] I
*I *1103:A I *D sky130_fd_sc_hd__buf_1
*CAP
1 threshold[4] 0.000390416
2 *1103:A 0.000390416
3 *1103:A *309:14 2.75145e-05
*RES
1 threshold[4] *1103:A 10.455 
*END

*D_NET *36 0.00082283
*CONN
*P threshold[5] I
*I *1104:A I *D sky130_fd_sc_hd__buf_1
*CAP
1 threshold[5] 0.000386434
2 *1104:A 0.000386434
3 *1104:A *307:20 4.99619e-05
*RES
1 threshold[5] *1104:A 10.455 
*END

*D_NET *37 0.000877785
*CONN
*P threshold[6] I
*I *1106:A I *D sky130_fd_sc_hd__clkbuf_1
*CAP
1 threshold[6] 0.000438892
2 *1106:A 0.000438892
*RES
1 threshold[6] *1106:A 11.04 
*END

*D_NET *38 0.000546774
*CONN
*P threshold[7] I
*I *1107:A I *D sky130_fd_sc_hd__dlymetal6s2s_1
*CAP
1 threshold[7] 0.000273387
2 *1107:A 0.000273387
3 *1107:A *263:10 0
*RES
1 threshold[7] *1107:A 7.40543 
*END

*D_NET *39 0.001037
*CONN
*P valid_in I
*I *1108:A I *D sky130_fd_sc_hd__buf_1
*CAP
1 valid_in 0.000387205
2 *1108:A 0.000387205
3 *1108:A *266:10 2.11084e-05
4 *1097:A *1108:A 0.000241483
*RES
1 valid_in *1108:A 9.91043 
*END

*D_NET *40 0.00074108
*CONN
*P valid_out O
*I *1129:X O *D sky130_fd_sc_hd__clkbuf_4
*CAP
1 valid_out 0.00037054
2 *1129:X 0.00037054
*RES
1 *1129:X valid_out 7.9137 
*END

*D_NET *41 0.000279304
*CONN
*I *1063:D I *D sky130_fd_sc_hd__dfrtp_1
*I *880:X O *D sky130_fd_sc_hd__o21ba_1
*CAP
1 *1063:D 9.10986e-05
2 *880:X 9.10986e-05
3 *1063:D *1119:A 9.71067e-05
4 *1063:D *293:66 0
*RES
1 *880:X *1063:D 8.775 
*END

*D_NET *42 0.0012675
*CONN
*I *1065:D I *D sky130_fd_sc_hd__dfrtp_1
*I *1036:X O *D sky130_fd_sc_hd__a22o_1
*CAP
1 *1065:D 0.000325959
2 *1036:X 0.000325959
3 *1065:D *1036:A2 7.1624e-05
4 *1065:D *1036:B2 4.72986e-05
5 *1065:D *266:22 0.000409804
6 *1065:D *277:28 1.53232e-05
7 *1065:D *293:62 7.15297e-05
*RES
1 *1036:X *1065:D 13.995 
*END

*D_NET *43 0.000596036
*CONN
*I *1066:D I *D sky130_fd_sc_hd__dfrtp_1
*I *1040:X O *D sky130_fd_sc_hd__a22o_1
*CAP
1 *1066:D 0.000184732
2 *1040:X 0.000184732
3 *1066:D *1066:CLK 2.68464e-05
4 *1066:D *1067:RESET_B 4.78564e-05
5 *1066:D *273:16 0.000151869
*RES
1 *1040:X *1066:D 10.335 
*END

*D_NET *44 0.000570038
*CONN
*I *1067:D I *D sky130_fd_sc_hd__dfrtp_1
*I *1044:X O *D sky130_fd_sc_hd__a22o_1
*CAP
1 *1067:D 0.00020415
2 *1044:X 0.00020415
3 *1067:D *266:22 0.000114524
4 *1067:D *267:91 5.31158e-06
5 *1067:D *293:62 4.19029e-05
*RES
1 *1044:X *1067:D 10.755 
*END

*D_NET *45 0.000515642
*CONN
*I *1068:D I *D sky130_fd_sc_hd__dfrtp_1
*I *1046:X O *D sky130_fd_sc_hd__a21bo_1
*CAP
1 *1068:D 0.000180494
2 *1046:X 0.000180494
3 *1068:D *265:51 7.03276e-05
4 *1068:D *267:91 1.27028e-05
5 *1068:D *293:66 7.1624e-05
*RES
1 *1046:X *1068:D 10.02 
*END

*D_NET *46 0.00066021
*CONN
*I *1069:D I *D sky130_fd_sc_hd__dfrtp_1
*I *1048:X O *D sky130_fd_sc_hd__a31o_1
*CAP
1 *1069:D 0.000211183
2 *1048:X 0.000211183
3 *1069:D *1060:B1 4.23878e-05
4 *1069:D *243:24 0.000195457
*RES
1 *1048:X *1069:D 10.41 
*END

*D_NET *47 0.000487568
*CONN
*I *1070:D I *D sky130_fd_sc_hd__dfrtp_1
*I *1050:X O *D sky130_fd_sc_hd__a31o_1
*CAP
1 *1070:D 0.000133153
2 *1050:X 0.000133153
3 *1070:D *1050:A2 2.75229e-05
4 *1070:D *1050:A3 2.8185e-05
5 *1070:D *209:14 0.00011852
6 *1070:D *211:128 4.70343e-05
*RES
1 *1050:X *1070:D 9.72 
*END

*D_NET *48 0.000347949
*CONN
*I *1071:D I *D sky130_fd_sc_hd__dfrtp_1
*I *1052:X O *D sky130_fd_sc_hd__a31o_1
*CAP
1 *1071:D 7.61877e-05
2 *1052:X 7.61877e-05
3 *1071:D *1052:A3 1.79174e-05
4 *1071:D *1054:A3 0.000114649
5 *1071:D *209:10 6.30072e-05
*RES
1 *1052:X *1071:D 9.03 
*END

*D_NET *49 0.000244966
*CONN
*I *1072:D I *D sky130_fd_sc_hd__dfrtp_1
*I *1054:X O *D sky130_fd_sc_hd__a31o_1
*CAP
1 *1072:D 7.11049e-05
2 *1054:X 7.11049e-05
3 *1072:D *1054:A3 5.13126e-05
4 *1072:D *1066:RESET_B 5.14439e-05
*RES
1 *1054:X *1072:D 8.775 
*END

*D_NET *50 0.000374603
*CONN
*I *1073:D I *D sky130_fd_sc_hd__dfrtp_1
*I *1056:X O *D sky130_fd_sc_hd__a31o_1
*CAP
1 *1073:D 7.27067e-05
2 *1056:X 7.27067e-05
3 *1073:D *1056:A1 4.82863e-05
4 *1073:D *1073:CLK 6.47516e-05
5 *1073:D *310:28 0.000116151
*RES
1 *1056:X *1073:D 9.03 
*END

*D_NET *51 0.000312141
*CONN
*I *1074:D I *D sky130_fd_sc_hd__dfrtp_1
*I *1058:X O *D sky130_fd_sc_hd__a31o_1
*CAP
1 *1074:D 0.00011065
2 *1058:X 0.00011065
3 *1074:D *210:8 3.68682e-05
4 *1074:D *263:10 5.39718e-05
*RES
1 *1058:X *1074:D 9.12 
*END

*D_NET *52 0.000870467
*CONN
*I *1075:D I *D sky130_fd_sc_hd__dfrtp_1
*I *1060:X O *D sky130_fd_sc_hd__a31o_1
*CAP
1 *1075:D 0.000280386
2 *1060:X 0.000280386
3 *1075:D *1061:B 5.83121e-06
4 *1075:D *1069:CLK 9.10058e-05
5 *1075:D *1076:RESET_B 0.000112279
6 *1075:D *261:33 0.00010058
*RES
1 *1060:X *1075:D 12.48 
*END

*D_NET *53 0.000740099
*CONN
*I *1076:D I *D sky130_fd_sc_hd__dfrtp_1
*I *1062:X O *D sky130_fd_sc_hd__a31o_1
*CAP
1 *1076:D 0.000201294
2 *1062:X 0.000201294
3 *1076:D *1061:A 0.000137895
4 *1076:D *1076:CLK 9.32375e-05
5 *1076:D *209:32 0.000106379
*RES
1 *1062:X *1076:D 12.105 
*END

*D_NET *54 0.00203196
*CONN
*I *921:A I *D sky130_fd_sc_hd__nor2_1
*I *908:A2 I *D sky130_fd_sc_hd__o21ai_2
*I *909:C I *D sky130_fd_sc_hd__or3_1
*I *896:X O *D sky130_fd_sc_hd__and3_1
*CAP
1 *921:A 4.71779e-06
2 *908:A2 0.000149175
3 *909:C 1.16779e-05
4 *896:X 0.000118786
5 *54:18 0.000419449
6 *54:10 0.0003821
7 *908:A2 *908:A1 4.60584e-05
8 *908:A2 *908:B1 0.000163204
9 *908:A2 *910:B 0.000241483
10 *908:A2 *65:8 2.39856e-05
11 *908:A2 *66:10 4.9253e-06
12 *909:C *906:A 3.13354e-05
13 *909:C *65:8 5.4155e-06
14 *921:A *55:20 0
15 *54:10 *921:B 0.000131958
16 *54:10 *79:12 9.16019e-05
17 *54:18 *906:A 0.00019898
18 *54:18 *55:20 0
19 *54:18 *65:8 7.10593e-06
*RES
1 *896:X *54:10 5.8125 
2 *54:10 *54:18 5.7875 
3 *54:18 *909:C 1.96 
4 *54:18 *908:A2 5.515 
5 *54:10 *921:A 3.8325 
*END

*D_NET *55 0.00539346
*CONN
*I *934:B1_N I *D sky130_fd_sc_hd__a21bo_1
*I *1021:A I *D sky130_fd_sc_hd__and2_1
*I *918:A_N I *D sky130_fd_sc_hd__nand3b_1
*I *1009:A1 I *D sky130_fd_sc_hd__mux2_1
*I *1011:A1 I *D sky130_fd_sc_hd__o21ai_1
*I *907:A I *D sky130_fd_sc_hd__xnor2_1
*I *897:Y O *D sky130_fd_sc_hd__nand2_2
*CAP
1 *934:B1_N 0.000378647
2 *1021:A 0
3 *918:A_N 0.00020697
4 *1009:A1 0
5 *1011:A1 0.000145127
6 *907:A 0
7 *897:Y 0
8 *55:53 0.000265345
9 *55:20 0.000628043
10 *55:10 0.000604553
11 *55:6 0.000298062
12 *55:4 0.000496697
13 *918:A_N *924:B 0.000378769
14 *918:A_N *1021:B 8.53011e-05
15 *918:A_N *179:37 9.13235e-05
16 *918:A_N *272:24 0.000203967
17 *934:B1_N *919:B 0
18 *934:B1_N *76:21 0
19 *934:B1_N *245:10 0.000115026
20 *934:B1_N *245:51 0.000279272
21 *934:B1_N *264:30 0
22 *934:B1_N *311:46 6.29549e-05
23 *934:B1_N *311:62 2.79137e-05
24 *1011:A1 *906:A 9.78319e-05
25 *1011:A1 *906:B 0.000171633
26 *1011:A1 *907:B 4.66108e-05
27 *1011:A1 *1010:B 0.000201362
28 *1011:A1 *1011:A2 1.91597e-05
29 *1011:A1 *1012:A0 4.00541e-06
30 *1011:A1 *1012:A1 5.83121e-06
31 *1011:A1 *63:12 5.83121e-06
32 *1011:A1 *211:105 2.0514e-05
33 *1011:A1 *258:10 2.1433e-05
34 *55:6 *881:A 7.18107e-06
35 *55:6 *264:30 2.97339e-05
36 *55:6 *311:62 2.64607e-05
37 *55:10 *179:37 8.33066e-06
38 *55:10 *311:62 5.87935e-05
39 *55:20 *896:B 0
40 *55:20 *903:A 0
41 *55:20 *906:A 0.000113231
42 *55:20 *924:B 0
43 *55:20 *1010:B 0.000111639
44 *55:20 *1078:A 0
45 *55:20 *61:14 0
46 *55:20 *61:21 0.00012657
47 *55:20 *79:12 0
48 *55:20 *258:10 3.79168e-05
49 *55:20 *310:135 0
50 *55:53 *264:30 1.14192e-05
51 *921:A *55:20 0
52 *54:18 *55:20 0
*RES
1 *897:Y *55:4 1.6 
2 *55:4 *55:6 1.485 
3 *55:6 *55:10 4.145 
4 *55:10 *55:20 10.4338 
5 *55:20 *907:A 1.6 
6 *55:20 *1011:A1 9.79625 
7 *55:10 *1009:A1 3.6 
8 *55:6 *55:53 1.065 
9 *55:53 *918:A_N 11.525 
10 *55:53 *1021:A 1.6 
11 *55:4 *934:B1_N 11.78 
*END

*D_NET *56 0.00341209
*CONN
*I *905:A I *D sky130_fd_sc_hd__nor2_1
*I *904:A I *D sky130_fd_sc_hd__and2_1
*I *1010:A I *D sky130_fd_sc_hd__nand2_1
*I *898:X O *D sky130_fd_sc_hd__a31o_1
*CAP
1 *905:A 0
2 *904:A 0
3 *1010:A 0.000767356
4 *898:X 0.000297468
5 *56:16 0.000808923
6 *56:12 0.000339035
7 *1010:A *906:B 5.01207e-05
8 *1010:A *1012:A1 4.96849e-05
9 *1010:A *217:40 0
10 *1010:A *217:44 0
11 *56:12 *892:A_N 0.000216863
12 *56:12 *892:B 3.90833e-05
13 *56:12 *894:A_N 4.99619e-05
14 *56:12 *894:B 7.8936e-05
15 *56:12 *1058:A1 7.4027e-05
16 *56:12 *61:14 0.00012657
17 *56:12 *257:8 4.16262e-05
18 *56:12 *258:10 0.000161204
19 *56:12 *267:10 1.53032e-05
20 *56:16 *1010:B 0
21 *56:16 *61:14 4.4465e-05
22 *56:16 *61:21 8.65905e-05
23 *56:16 *258:10 0.000164874
*RES
1 *898:X *56:12 13.295 
2 *56:12 *56:16 1.845 
3 *56:16 *1010:A 10.3239 
4 *56:16 *904:A 1.6 
5 *56:12 *905:A 1.6 
*END

*D_NET *57 0.000384415
*CONN
*I *903:A I *D sky130_fd_sc_hd__xnor2_1
*I *899:Y O *D sky130_fd_sc_hd__nand2_1
*CAP
1 *903:A 8.83819e-05
2 *899:Y 8.83819e-05
3 *903:A *903:B 4.61658e-05
4 *903:A *259:14 0
5 *903:A *309:117 8.8266e-05
6 *903:A *310:47 3.45588e-05
7 *903:A *310:135 3.86607e-05
8 *55:20 *903:A 0
*RES
1 *899:Y *903:A 9.63 
*END

*D_NET *58 0.00136312
*CONN
*I *902:B I *D sky130_fd_sc_hd__and3_1
*I *1006:B I *D sky130_fd_sc_hd__nand2_1
*I *900:Y O *D sky130_fd_sc_hd__nand2_1
*CAP
1 *902:B 0
2 *1006:B 0.000256246
3 *900:Y 0.000119654
4 *58:6 0.0003759
5 *1006:B *884:A 8.35157e-05
6 *1006:B *900:A 3.93467e-05
7 *1006:B *915:A2 7.9642e-06
8 *1006:B *1007:B1 0.000130388
9 *1006:B *246:21 0.000119247
10 *1006:B *310:100 0.000130397
11 *58:6 *900:A 5.26816e-05
12 *58:6 *900:B 4.77807e-05
*RES
1 *900:Y *58:6 3.085 
2 *58:6 *1006:B 9.755 
3 *58:6 *902:B 1.6 
*END

*D_NET *59 0.00136974
*CONN
*I *1007:A2 I *D sky130_fd_sc_hd__o21ai_1
*I *1008:A2 I *D sky130_fd_sc_hd__a31o_1
*I *902:C I *D sky130_fd_sc_hd__and3_1
*I *901:X O *D sky130_fd_sc_hd__or2_1
*CAP
1 *1007:A2 0.000119343
2 *1008:A2 0
3 *902:C 6.50105e-05
4 *901:X 6.04201e-05
5 *59:25 0.000216267
6 *59:6 0.000222354
7 *902:C *899:A 7.1624e-05
8 *902:C *1045:C 2.44715e-05
9 *902:C *246:23 4.1588e-05
10 *902:C *249:8 0.000101177
11 *902:C *249:14 5.0579e-05
12 *902:C *311:62 2.33054e-05
13 *1007:A2 *165:14 0.000115162
14 *1007:A2 *246:36 0
15 *1007:A2 *249:14 4.04632e-05
16 *59:6 *1008:A3 8.41384e-05
17 *59:25 *1008:A3 8.23457e-05
18 *59:25 *1009:S 2.69443e-06
19 *59:25 *249:14 4.87939e-05
*RES
1 *901:X *59:6 2.395 
2 *59:6 *902:C 7.715 
3 *59:6 *59:25 3.41 
4 *59:25 *1008:A2 3.6 
5 *59:25 *1007:A2 5.745 
*END

*D_NET *60 0.000904146
*CONN
*I *903:B I *D sky130_fd_sc_hd__xnor2_1
*I *902:X O *D sky130_fd_sc_hd__and3_1
*CAP
1 *903:B 0.000263931
2 *902:X 0.000263931
3 *903:B *891:B1 1.59154e-05
4 *903:B *900:B 9.12494e-06
5 *903:B *924:B 0
6 *903:B *249:8 0.000152776
7 *903:B *259:14 0.000152303
8 *903:B *310:135 0
9 *903:A *903:B 4.61658e-05
*RES
1 *902:X *903:B 12.195 
*END

*D_NET *61 0.00210212
*CONN
*I *904:B I *D sky130_fd_sc_hd__and2_1
*I *1010:B I *D sky130_fd_sc_hd__nand2_1
*I *905:B I *D sky130_fd_sc_hd__nor2_1
*I *903:Y O *D sky130_fd_sc_hd__xnor2_1
*CAP
1 *904:B 0
2 *1010:B 0.000278832
3 *905:B 0
4 *903:Y 0.000184481
5 *61:21 0.000307572
6 *61:14 0.000213221
7 *1010:B *906:B 8.55012e-05
8 *1010:B *1012:A1 9.47267e-06
9 *1010:B *63:12 0
10 *1010:B *168:6 4.36983e-05
11 *1010:B *211:105 0.000118623
12 *1010:B *258:10 0.000124471
13 *61:14 *1060:A1 0
14 *61:21 *258:10 3.90495e-05
15 *1011:A1 *1010:B 0.000201362
16 *55:20 *1010:B 0.000111639
17 *55:20 *61:14 0
18 *55:20 *61:21 0.00012657
19 *56:12 *61:14 0.00012657
20 *56:16 *1010:B 0
21 *56:16 *61:14 4.4465e-05
22 *56:16 *61:21 8.65905e-05
*RES
1 *903:Y *61:14 8.915 
2 *61:14 *905:B 1.6 
3 *61:14 *61:21 1.485 
4 *61:21 *1010:B 11.4875 
5 *61:21 *904:B 1.6 
*END

*D_NET *62 0.000858086
*CONN
*I *906:A I *D sky130_fd_sc_hd__nor2_1
*I *904:X O *D sky130_fd_sc_hd__and2_1
*CAP
1 *906:A 0.000141912
2 *904:X 0.000141912
3 *906:A *906:B 8.52883e-05
4 *906:A *907:B 3.34788e-05
5 *906:A *65:8 1.41165e-05
6 *909:C *906:A 3.13354e-05
7 *1011:A1 *906:A 9.78319e-05
8 *54:18 *906:A 0.00019898
9 *55:20 *906:A 0.000113231
*RES
1 *904:X *906:A 7.115 
*END

*D_NET *63 0.00209263
*CONN
*I *1011:A2 I *D sky130_fd_sc_hd__o21ai_1
*I *906:B I *D sky130_fd_sc_hd__nor2_1
*I *905:Y O *D sky130_fd_sc_hd__nor2_1
*CAP
1 *1011:A2 3.75508e-05
2 *906:B 0.000339447
3 *905:Y 0.000295493
4 *63:12 0.000672491
5 *906:B *907:B 8.52883e-05
6 *906:B *1012:A1 0
7 *906:B *1092:A 0
8 *63:12 *849:A 0.000202662
9 *63:12 *211:105 4.21621e-05
10 *906:A *906:B 8.52883e-05
11 *1010:A *906:B 5.01207e-05
12 *1010:B *906:B 8.55012e-05
13 *1010:B *63:12 0
14 *1011:A1 *906:B 0.000171633
15 *1011:A1 *1011:A2 1.91597e-05
16 *1011:A1 *63:12 5.83121e-06
*RES
1 *905:Y *63:12 9.68 
2 *63:12 *906:B 11.825 
3 *63:12 *1011:A2 2.05 
*END

*D_NET *64 0.000421008
*CONN
*I *907:B I *D sky130_fd_sc_hd__xnor2_1
*I *906:Y O *D sky130_fd_sc_hd__nor2_1
*CAP
1 *907:B 5.42232e-05
2 *906:Y 5.42232e-05
3 *907:B *65:8 8.52845e-05
4 *907:B *258:10 6.18991e-05
5 *906:A *907:B 3.34788e-05
6 *906:B *907:B 8.52883e-05
7 *1011:A1 *907:B 4.66108e-05
*RES
1 *906:Y *907:B 5.03 
*END

*D_NET *65 0.000940678
*CONN
*I *908:B1 I *D sky130_fd_sc_hd__o21ai_2
*I *909:A I *D sky130_fd_sc_hd__or3_1
*I *907:Y O *D sky130_fd_sc_hd__xnor2_1
*CAP
1 *908:B1 2.44061e-05
2 *909:A 0
3 *907:Y 9.14001e-05
4 *65:8 0.000115806
5 *908:B1 *908:A1 0.00013638
6 *65:8 *908:A1 0.000115035
7 *65:8 *258:10 0.000158539
8 *906:A *65:8 1.41165e-05
9 *907:B *65:8 8.52845e-05
10 *908:A2 *908:B1 0.000163204
11 *908:A2 *65:8 2.39856e-05
12 *909:C *65:8 5.4155e-06
13 *54:18 *65:8 7.10593e-06
*RES
1 *907:Y *65:8 4.39 
2 *65:8 *909:A 1.6 
3 *65:8 *908:B1 3.085 
*END

*D_NET *66 0.00376974
*CONN
*I *910:A I *D sky130_fd_sc_hd__nand2_2
*I *1012:S I *D sky130_fd_sc_hd__mux2_1
*I *908:Y O *D sky130_fd_sc_hd__o21ai_2
*CAP
1 *910:A 6.12664e-05
2 *1012:S 0.000269864
3 *908:Y 0.000337989
4 *66:10 0.000669119
5 *910:A *213:93 0.000226848
6 *910:A *215:16 0.000215963
7 *1012:S *858:A 4.66108e-05
8 *1012:S *223:16 0.00015737
9 *1012:S *309:117 0.000477016
10 *1012:S *310:30 4.66108e-05
11 *1012:S *310:43 0.000554852
12 *66:10 *851:B 4.99619e-05
13 *66:10 *858:B 1.33293e-05
14 *66:10 *910:B 2.66586e-05
15 *66:10 *213:93 0.000179008
16 *66:10 *215:16 0.00011379
17 *66:10 *217:8 0
18 *66:10 *217:17 0
19 *66:10 *307:114 0.000200292
20 *66:10 *307:123 0.000110306
21 *908:A2 *66:10 4.9253e-06
22 *1077:A *66:10 7.96104e-06
*RES
1 *908:Y *66:10 10.335 
2 *66:10 *1012:S 12.705 
3 *66:10 *910:A 6.255 
*END

*D_NET *67 0.00190486
*CONN
*I *910:B I *D sky130_fd_sc_hd__nand2_2
*I *909:X O *D sky130_fd_sc_hd__or3_1
*CAP
1 *910:B 0.000561211
2 *909:X 0.000561211
3 *910:B *858:B 7.36562e-05
4 *910:B *217:23 0.000194694
5 *910:B *262:6 4.82919e-05
6 *910:B *276:22 0.00013612
7 *910:B *307:114 6.15341e-05
8 *910:B *311:46 0
9 *908:A2 *910:B 0.000241483
10 *66:10 *910:B 2.66586e-05
*RES
1 *909:X *910:B 16.95 
*END

*D_NET *68 0.00303366
*CONN
*I *1005:A0 I *D sky130_fd_sc_hd__mux2_1
*I *1015:A1 I *D sky130_fd_sc_hd__o211ai_2
*I *923:A I *D sky130_fd_sc_hd__xor2_1
*I *1014:A1 I *D sky130_fd_sc_hd__o22a_1
*I *910:Y O *D sky130_fd_sc_hd__nand2_2
*CAP
1 *1005:A0 0
2 *1015:A1 0
3 *923:A 0.000139854
4 *1014:A1 0
5 *910:Y 0.000171964
6 *68:41 0.000319699
7 *68:29 0.000540353
8 *68:10 0.000532472
9 *923:A *923:B 6.72833e-06
10 *923:A *1005:S 0
11 *923:A *311:46 1.42598e-05
12 *68:10 *215:16 1.56261e-05
13 *68:10 *217:17 1.52184e-05
14 *68:10 *217:81 9.77914e-05
15 *68:10 *276:22 0.000120655
16 *68:29 *859:A 2.69217e-05
17 *68:29 *859:B 0
18 *68:29 *1005:S 8.46818e-05
19 *68:29 *1014:A2 0.000165528
20 *68:29 *1015:B1 8.60783e-05
21 *68:29 *215:16 2.21697e-05
22 *68:29 *217:81 2.83135e-05
23 *68:29 *217:98 3.17611e-05
24 *68:41 *1015:B1 5.73111e-05
25 *68:41 *1015:C1 6.90254e-05
26 *68:41 *80:12 0.000194914
27 *68:41 *163:10 3.54721e-05
28 *68:41 *272:26 9.95743e-05
29 *1077:A *68:10 0.00015729
*RES
1 *910:Y *68:10 7.14 
2 *68:10 *1014:A1 3.6 
3 *68:10 *68:29 8.435 
4 *68:29 *68:41 8.2 
5 *68:41 *923:A 7.79 
6 *68:41 *1015:A1 1.6 
7 *68:29 *1005:A0 1.6 
*END

*D_NET *69 0.00143755
*CONN
*I *925:A I *D sky130_fd_sc_hd__nand3_1
*I *926:B1 I *D sky130_fd_sc_hd__a21o_1
*I *914:A1 I *D sky130_fd_sc_hd__a21bo_1
*I *911:X O *D sky130_fd_sc_hd__and2_1
*CAP
1 *925:A 6.66759e-05
2 *926:B1 8.66336e-05
3 *914:A1 0
4 *911:X 6.52939e-05
5 *69:14 0.00015306
6 *69:8 0.000198396
7 *925:A *925:B 8.80368e-05
8 *925:A *309:43 9.05592e-05
9 *926:B1 *912:B1 2.93137e-05
10 *926:B1 *912:B2 0.00014835
11 *926:B1 *1044:B2 1.54665e-05
12 *926:B1 *70:10 6.72833e-06
13 *926:B1 *84:12 5.08389e-05
14 *926:B1 *246:78 8.53113e-06
15 *926:B1 *309:49 1.23331e-05
16 *69:8 *1044:B2 8.23457e-05
17 *69:14 *911:B 4.66108e-05
18 *69:14 *912:B1 0.000120417
19 *69:14 *925:B 6.72649e-05
20 *69:14 *1044:B2 3.34271e-05
21 *69:14 *309:43 3.93225e-05
22 *69:14 *309:49 2.79424e-05
*RES
1 *911:X *69:8 4.395 
2 *69:8 *69:14 4.01 
3 *69:14 *914:A1 1.6 
4 *69:14 *926:B1 8.045 
5 *69:8 *925:A 5.3025 
*END

*D_NET *70 0.00135926
*CONN
*I *926:A2 I *D sky130_fd_sc_hd__a21o_1
*I *914:A2 I *D sky130_fd_sc_hd__a21bo_1
*I *925:C I *D sky130_fd_sc_hd__nand3_1
*I *912:X O *D sky130_fd_sc_hd__a22o_1
*CAP
1 *926:A2 0.000128405
2 *914:A2 0
3 *925:C 0.000139185
4 *912:X 1.01769e-05
5 *70:10 0.000179329
6 *70:6 0.000178726
7 *925:C *1067:RESET_B 3.6888e-05
8 *925:C *83:20 3.02731e-05
9 *925:C *84:12 0.000108123
10 *925:C *247:94 2.8531e-05
11 *926:A2 *912:B2 0.000115224
12 *926:A2 *926:A1 1.65432e-05
13 *926:A2 *1067:RESET_B 1.7635e-05
14 *926:A2 *72:12 9.17613e-05
15 *926:A2 *84:12 0
16 *926:A2 *246:97 0
17 *926:A2 *247:73 1.34503e-05
18 *926:A2 *247:86 2.28623e-05
19 *70:6 *912:B2 3.69049e-05
20 *70:6 *1044:B2 4.66108e-05
21 *70:10 *912:B1 6.07575e-06
22 *70:10 *912:B2 5.68119e-05
23 *70:10 *1044:B2 8.9013e-05
24 *926:B1 *70:10 6.72833e-06
*RES
1 *912:X *70:6 2.05 
2 *70:6 *70:10 1.155 
3 *70:10 *925:C 8.45 
4 *70:10 *914:A2 1.6 
5 *70:6 *926:A2 8.66 
*END

*D_NET *71 0.00178738
*CONN
*I *925:B I *D sky130_fd_sc_hd__nand3_1
*I *914:B1_N I *D sky130_fd_sc_hd__a21bo_1
*I *926:A1 I *D sky130_fd_sc_hd__a21o_1
*I *913:Y O *D sky130_fd_sc_hd__nand4_2
*CAP
1 *925:B 0.000222624
2 *914:B1_N 0
3 *926:A1 9.62091e-05
4 *913:Y 0
5 *71:19 0.000266476
6 *71:4 0.000140062
7 *925:B *1036:B2 1.07743e-05
8 *925:B *246:97 0.000227511
9 *925:B *309:43 2.45099e-05
10 *925:B *309:49 2.25226e-05
11 *926:A1 *246:78 8.49205e-05
12 *926:A1 *246:97 5.0128e-05
13 *926:A1 *247:73 0.000307348
14 *71:19 *246:97 7.28318e-05
15 *71:19 *247:65 9.50342e-06
16 *71:19 *249:83 1.61461e-05
17 *71:19 *309:49 6.39674e-05
18 *925:A *925:B 8.80368e-05
19 *926:A2 *926:A1 1.65432e-05
20 *69:14 *925:B 6.72649e-05
*RES
1 *913:Y *71:4 1.6 
2 *71:4 *926:A1 4.84 
3 *71:4 *71:19 3.38 
4 *71:19 *914:B1_N 3.6 
5 *71:19 *925:B 8.45625 
*END

*D_NET *72 0.00155927
*CONN
*I *916:B I *D sky130_fd_sc_hd__nand3_1
*I *917:B1 I *D sky130_fd_sc_hd__a21o_1
*I *914:X O *D sky130_fd_sc_hd__a21bo_1
*CAP
1 *916:B 2.37813e-05
2 *917:B1 4.88582e-05
3 *914:X 0.000248756
4 *72:12 0.000321396
5 *916:B *916:A 2.30292e-05
6 *917:B1 *916:A 0.000167726
7 *917:B1 *916:C 0.000124007
8 *917:B1 *917:A1 0
9 *917:B1 *74:14 5.4155e-06
10 *72:12 *912:B1 4.66108e-05
11 *72:12 *912:B2 6.88217e-05
12 *72:12 *924:B 0
13 *72:12 *246:70 0.000165918
14 *72:12 *247:73 0.000180066
15 *72:12 *272:24 0
16 *72:12 *307:50 4.31189e-05
17 *926:A2 *72:12 9.17613e-05
*RES
1 *914:X *72:12 11.51 
2 *72:12 *917:B1 3.445 
3 *72:12 *916:B 2.05 
*END

*D_NET *73 0.000644849
*CONN
*I *916:C I *D sky130_fd_sc_hd__nand3_1
*I *917:A2 I *D sky130_fd_sc_hd__a21o_1
*I *915:X O *D sky130_fd_sc_hd__a22o_1
*CAP
1 *916:C 0.000139711
2 *917:A2 0
3 *915:X 5.2724e-05
4 *73:8 0.000192435
5 *916:C *915:A1 4.00541e-06
6 *916:C *916:A 4.21973e-05
7 *916:C *917:A1 9.53428e-06
8 *916:C *251:27 7.68414e-06
9 *73:8 *915:A2 5.83121e-06
10 *73:8 *917:A1 2.31547e-05
11 *73:8 *251:27 4.35648e-05
12 *917:B1 *916:C 0.000124007
*RES
1 *915:X *73:8 2.665 
2 *73:8 *917:A2 1.6 
3 *73:8 *916:C 4.135 
*END

*D_NET *74 0.00156461
*CONN
*I *934:A1 I *D sky130_fd_sc_hd__a21bo_1
*I *919:A I *D sky130_fd_sc_hd__and2_1
*I *918:B I *D sky130_fd_sc_hd__nand3b_1
*I *916:Y O *D sky130_fd_sc_hd__nand3_1
*CAP
1 *934:A1 2.96894e-05
2 *919:A 6.48965e-05
3 *918:B 1.14098e-05
4 *916:Y 0.000217221
5 *74:29 0.000135882
6 *74:14 0.000269927
7 *918:B *918:C 1.02153e-05
8 *918:B *934:A2 5.09202e-05
9 *919:A *919:B 0.000115253
10 *919:A *76:21 6.45236e-05
11 *919:A *264:30 9.65007e-05
12 *934:A1 *934:A2 3.57349e-05
13 *934:A1 *179:37 8.35106e-05
14 *74:14 *916:A 7.00889e-06
15 *74:14 *918:C 2.05095e-05
16 *74:14 *934:A2 8.58182e-06
17 *74:14 *75:6 7.03425e-05
18 *74:29 *934:A2 0.000146408
19 *74:29 *179:37 0.000120655
20 *917:B1 *74:14 5.4155e-06
*RES
1 *916:Y *74:14 5.68 
2 *74:14 *918:B 2.4475 
3 *74:14 *74:29 1.485 
4 *74:29 *919:A 7.745 
5 *74:29 *934:A1 2.395 
*END

*D_NET *75 0.00128403
*CONN
*I *934:A2 I *D sky130_fd_sc_hd__a21bo_1
*I *918:C I *D sky130_fd_sc_hd__nand3b_1
*I *917:X O *D sky130_fd_sc_hd__a21o_1
*CAP
1 *934:A2 0.000125423
2 *918:C 4.17345e-05
3 *917:X 0.000178724
4 *75:6 0.000345881
5 *918:C *916:A 0
6 *934:A2 *76:8 8.63479e-05
7 *75:6 *916:A 0.000163204
8 *918:B *918:C 1.02153e-05
9 *918:B *934:A2 5.09202e-05
10 *934:A1 *934:A2 3.57349e-05
11 *74:14 *918:C 2.05095e-05
12 *74:14 *934:A2 8.58182e-06
13 *74:14 *75:6 7.03425e-05
14 *74:29 *934:A2 0.000146408
*RES
1 *917:X *75:6 4.81 
2 *75:6 *918:C 2.77 
3 *75:6 *934:A2 4.93 
*END

*D_NET *76 0.00165782
*CONN
*I *968:A1 I *D sky130_fd_sc_hd__a21oi_1
*I *935:B I *D sky130_fd_sc_hd__and3_1
*I *919:B I *D sky130_fd_sc_hd__and2_1
*I *918:Y O *D sky130_fd_sc_hd__nand3b_1
*CAP
1 *968:A1 9.11839e-05
2 *935:B 0.000158063
3 *919:B 9.70706e-05
4 *918:Y 0.000125357
5 *76:21 0.000346794
6 *76:8 0.000319974
7 *919:B *264:30 9.31547e-06
8 *919:B *272:24 4.94457e-05
9 *935:B *968:B1 5.05437e-05
10 *935:B *92:12 5.38986e-06
11 *935:B *245:51 0
12 *935:B *264:24 4.43871e-06
13 *935:B *264:30 4.07468e-05
14 *968:A1 *93:18 4.77757e-05
15 *76:21 *92:12 3.32631e-05
16 *76:21 *245:51 0
17 *76:21 *264:30 1.23331e-05
18 *919:A *919:B 0.000115253
19 *919:A *76:21 6.45236e-05
20 *934:A2 *76:8 8.63479e-05
21 *934:B1_N *919:B 0
22 *934:B1_N *76:21 0
*RES
1 *918:Y *76:8 5.085 
2 *76:8 *919:B 5.685 
3 *76:8 *76:21 2.0175 
4 *76:21 *935:B 5.9025 
5 *76:21 *968:A1 4.7325 
*END

*D_NET *77 0.0008781
*CONN
*I *922:A I *D sky130_fd_sc_hd__or2b_1
*I *936:B I *D sky130_fd_sc_hd__xnor2_1
*I *919:X O *D sky130_fd_sc_hd__and2_1
*CAP
1 *922:A 8.40897e-05
2 *936:B 6.52131e-05
3 *919:X 0.000123687
4 *77:6 0.000272989
5 *922:A *272:26 0.000110767
6 *936:B *936:A 7.01359e-05
7 *936:B *245:51 7.23602e-05
8 *77:6 *272:24 3.10816e-05
9 *77:6 *272:26 4.77757e-05
*RES
1 *919:X *77:6 3.085 
2 *77:6 *936:B 7.085 
3 *77:6 *922:A 2.74 
*END

*D_NET *78 0.00028815
*CONN
*I *921:B I *D sky130_fd_sc_hd__nor2_1
*I *920:Y O *D sky130_fd_sc_hd__a21oi_1
*CAP
1 *921:B 7.80961e-05
2 *920:Y 7.80961e-05
3 *54:10 *921:B 0.000131958
*RES
1 *920:Y *921:B 8.835 
*END

*D_NET *79 0.00225286
*CONN
*I *936:A I *D sky130_fd_sc_hd__xnor2_1
*I *922:B_N I *D sky130_fd_sc_hd__or2b_1
*I *921:Y O *D sky130_fd_sc_hd__nor2_1
*CAP
1 *936:A 0.000181124
2 *922:B_N 6.40904e-05
3 *921:Y 0.000412887
4 *79:12 0.000658101
5 *922:B_N *272:24 3.26889e-05
6 *922:B_N *272:26 4.60123e-05
7 *936:A *245:51 8.47845e-05
8 *79:12 *896:B 3.96153e-05
9 *79:12 *217:40 6.10259e-05
10 *79:12 *245:10 0.000219917
11 *79:12 *245:16 0.000131525
12 *79:12 *245:51 9.14729e-05
13 *79:12 *309:117 2.68526e-05
14 *79:12 *310:43 4.10306e-05
15 *79:12 *311:46 0
16 *936:B *936:A 7.01359e-05
17 *54:10 *79:12 9.16019e-05
18 *55:20 *79:12 0
*RES
1 *921:Y *79:12 11.91 
2 *79:12 *922:B_N 4.755 
3 *79:12 *936:A 6.81 
*END

*D_NET *80 0.00232446
*CONN
*I *1014:A2 I *D sky130_fd_sc_hd__o22a_1
*I *923:B I *D sky130_fd_sc_hd__xor2_1
*I *922:X O *D sky130_fd_sc_hd__or2b_1
*CAP
1 *1014:A2 0.000290365
2 *923:B 0.00012939
3 *922:X 0.000250204
4 *80:12 0.00066996
5 *923:B *1005:A1 8.52972e-05
6 *923:B *311:46 1.08758e-05
7 *1014:A2 *859:A 3.41176e-05
8 *1014:A2 *1005:A1 0.000159179
9 *1014:A2 *1005:S 1.42674e-05
10 *1014:A2 *217:81 0.000113891
11 *1014:A2 *217:98 9.12494e-06
12 *80:12 *1005:S 0.000110785
13 *80:12 *163:10 6.90254e-05
14 *80:12 *272:26 1.08036e-05
15 *923:A *923:B 6.72833e-06
16 *68:29 *1014:A2 0.000165528
17 *68:41 *80:12 0.000194914
*RES
1 *922:X *80:12 9.665 
2 *80:12 *923:B 3.79 
3 *80:12 *1014:A2 11.24 
*END

*D_NET *81 0.000469294
*CONN
*I *1005:A1 I *D sky130_fd_sc_hd__mux2_1
*I *923:X O *D sky130_fd_sc_hd__xor2_1
*CAP
1 *1005:A1 5.62051e-05
2 *923:X 5.62051e-05
3 *1005:A1 *1005:S 0.000112408
4 *923:B *1005:A1 8.52972e-05
5 *1014:A2 *1005:A1 0.000159179
*RES
1 *923:X *1005:A1 5.375 
*END

*D_NET *82 0.00271004
*CONN
*I *949:B1 I *D sky130_fd_sc_hd__a21o_1
*I *933:A1 I *D sky130_fd_sc_hd__a21bo_1
*I *938:B I *D sky130_fd_sc_hd__nand3_1
*I *924:X O *D sky130_fd_sc_hd__and2_1
*CAP
1 *949:B1 0.000101011
2 *933:A1 2.5781e-05
3 *938:B 6.90598e-05
4 *924:X 0.000392667
5 *82:10 9.48408e-05
6 *82:8 0.000493678
7 *933:A1 *933:A2 2.62602e-05
8 *933:A1 *96:10 4.66108e-05
9 *933:A1 *212:61 2.21074e-05
10 *938:B *933:A2 8.4325e-05
11 *938:B *933:B1_N 4.77807e-05
12 *938:B *89:15 8.35157e-05
13 *938:B *90:18 3.13922e-05
14 *938:B *96:10 2.15454e-05
15 *938:B *212:61 3.5678e-06
16 *949:B1 *950:A 5.83121e-06
17 *949:B1 *96:10 0.000179504
18 *949:B1 *132:19 0.000171105
19 *82:8 *982:A2 5.59034e-05
20 *82:8 *982:B1 0.000151136
21 *82:8 *96:10 2.85623e-05
22 *82:8 *132:19 0.000112087
23 *82:8 *272:24 0.000220721
24 *82:8 *307:42 0.000133956
25 *82:8 *307:50 0.000107088
*RES
1 *924:X *82:8 13.14 
2 *82:8 *82:10 2 
3 *82:10 *938:B 3.7 
4 *82:10 *933:A1 2.395 
5 *82:8 *949:B1 6.195 
*END

*D_NET *83 0.00196913
*CONN
*I *932:B I *D sky130_fd_sc_hd__nand3_1
*I *931:A1 I *D sky130_fd_sc_hd__a21o_1
*I *925:Y O *D sky130_fd_sc_hd__nand3_1
*CAP
1 *932:B 0
2 *931:A1 9.39334e-05
3 *925:Y 0.000252532
4 *83:20 0.000346466
5 *931:A1 *931:A2 4.77769e-05
6 *931:A1 *931:B1 4.77769e-05
7 *931:A1 *932:A 0.00016276
8 *931:A1 *309:43 0.000193516
9 *83:20 *931:A2 1.38207e-05
10 *83:20 *974:D 0.000156771
11 *83:20 *1036:B2 0.000158564
12 *83:20 *1067:RESET_B 9.12494e-06
13 *83:20 *213:30 4.0852e-05
14 *83:20 *247:86 9.95896e-06
15 *83:20 *247:94 0.000161976
16 *83:20 *247:111 0.000151247
17 *83:20 *249:91 9.17857e-05
18 *925:C *83:20 3.02731e-05
*RES
1 *925:Y *83:20 12.14 
2 *83:20 *931:A1 8.45 
3 *83:20 *932:B 1.6 
*END

*D_NET *84 0.00190858
*CONN
*I *931:A2 I *D sky130_fd_sc_hd__a21o_1
*I *932:C I *D sky130_fd_sc_hd__nand3_1
*I *926:X O *D sky130_fd_sc_hd__a21o_1
*CAP
1 *931:A2 0.000182039
2 *932:C 0
3 *926:X 0.000223527
4 *84:12 0.000405567
5 *931:A2 *931:B1 2.27275e-05
6 *931:A2 *212:61 0.000155608
7 *931:A2 *213:30 2.1363e-05
8 *931:A2 *247:94 5.31158e-06
9 *931:A2 *309:43 0.000182084
10 *84:12 *912:B2 6.54361e-06
11 *84:12 *247:94 5.57095e-05
12 *84:12 *309:43 0.000294133
13 *84:12 *309:49 0.000133409
14 *925:C *84:12 0.000108123
15 *926:A2 *84:12 0
16 *926:B1 *84:12 5.08389e-05
17 *931:A1 *931:A2 4.77769e-05
18 *83:20 *931:A2 1.38207e-05
*RES
1 *926:X *84:12 9.36 
2 *84:12 *932:C 3.6 
3 *84:12 *931:A2 7.845 
*END

*D_NET *85 0.00119351
*CONN
*I *930:A1 I *D sky130_fd_sc_hd__a21bo_1
*I *940:B I *D sky130_fd_sc_hd__nand3_1
*I *941:B1 I *D sky130_fd_sc_hd__a21o_1
*I *927:X O *D sky130_fd_sc_hd__and2_1
*CAP
1 *930:A1 8.19866e-05
2 *940:B 6.07033e-05
3 *941:B1 0
4 *927:X 4.93172e-05
5 *85:15 0.000186152
6 *85:6 9.27796e-05
7 *930:A1 *1118:A 0.000113964
8 *930:A1 *86:26 0.000120186
9 *930:A1 *265:68 2.4997e-05
10 *930:A1 *265:85 1.73877e-05
11 *940:B *940:C 4.66108e-05
12 *940:B *941:A1 0.000159227
13 *940:B *86:26 4.21973e-05
14 *940:B *87:23 4.77719e-05
15 *940:B *98:14 8.34281e-06
16 *85:6 *927:A 8.40269e-05
17 *85:6 *86:26 1.16578e-05
18 *85:6 *99:12 2.75145e-05
19 *85:15 *86:26 1.86882e-05
*RES
1 *927:X *85:6 2.74 
2 *85:6 *941:B1 1.6 
3 *85:6 *85:15 0.81 
4 *85:15 *940:B 3.43 
5 *85:15 *930:A1 8 
*END

*D_NET *86 0.00106828
*CONN
*I *930:A2 I *D sky130_fd_sc_hd__a21bo_1
*I *941:A2 I *D sky130_fd_sc_hd__a21o_1
*I *940:C I *D sky130_fd_sc_hd__nand3_1
*I *928:X O *D sky130_fd_sc_hd__a22o_1
*CAP
1 *930:A2 0
2 *941:A2 0
3 *940:C 1.85987e-05
4 *928:X 0.000122846
5 *86:26 0.00016184
6 *86:14 0.000266088
7 *940:C *98:14 5.83121e-06
8 *86:14 *932:A 1.88904e-05
9 *86:14 *88:8 2.88322e-05
10 *86:14 *212:61 1.34687e-05
11 *86:14 *265:68 7.23602e-05
12 *86:26 *265:68 0.000120186
13 *930:A1 *86:26 0.000120186
14 *940:B *940:C 4.66108e-05
15 *940:B *86:26 4.21973e-05
16 *85:6 *86:26 1.16578e-05
17 *85:15 *86:26 1.86882e-05
*RES
1 *928:X *86:14 7.79 
2 *86:14 *86:26 7.495 
3 *86:26 *940:C 2.05 
4 *86:26 *941:A2 1.6 
5 *86:14 *930:A2 1.6 
*END

*D_NET *87 0.00193956
*CONN
*I *941:A1 I *D sky130_fd_sc_hd__a21o_1
*I *940:A I *D sky130_fd_sc_hd__nand3_1
*I *930:B1_N I *D sky130_fd_sc_hd__a21bo_1
*I *929:Y O *D sky130_fd_sc_hd__nand4_1
*CAP
1 *941:A1 0.000171293
2 *940:A 0
3 *930:B1_N 0
4 *929:Y 0.000263309
5 *87:23 0.000320175
6 *87:10 0.000412191
7 *87:10 *928:A1 0.000132951
8 *87:10 *974:D 0.000158543
9 *87:10 *1118:A 5.86496e-05
10 *87:10 *212:14 0
11 *87:10 *246:103 4.2444e-05
12 *87:23 *1118:A 0.000114838
13 *87:23 *98:14 5.81675e-05
14 *87:23 *212:14 0
15 *940:B *941:A1 0.000159227
16 *940:B *87:23 4.77719e-05
*RES
1 *929:Y *87:10 7.995 
2 *87:10 *930:B1_N 3.6 
3 *87:10 *87:23 5.705 
4 *87:23 *940:A 1.6 
5 *87:23 *941:A1 4.045 
*END

*D_NET *88 0.00101472
*CONN
*I *931:B1 I *D sky130_fd_sc_hd__a21o_1
*I *932:A I *D sky130_fd_sc_hd__nand3_1
*I *930:X O *D sky130_fd_sc_hd__a21bo_1
*CAP
1 *931:B1 8.87701e-05
2 *932:A 0.000168304
3 *930:X 2.37968e-05
4 *88:8 0.00028087
5 *931:B1 *89:15 0
6 *931:B1 *309:43 1.17036e-05
7 *932:A *246:97 4.28112e-06
8 *932:A *265:68 0.000107383
9 *932:A *265:85 0
10 *932:A *309:43 1.48065e-05
11 *88:8 *309:43 3.38178e-05
12 *931:A1 *931:B1 4.77769e-05
13 *931:A1 *932:A 0.00016276
14 *931:A2 *931:B1 2.27275e-05
15 *86:14 *932:A 1.88904e-05
16 *86:14 *88:8 2.88322e-05
*RES
1 *930:X *88:8 4.3425 
2 *88:8 *932:A 7.6425 
3 *88:8 *931:B1 5.3475 
*END

*D_NET *89 0.00127823
*CONN
*I *933:A2 I *D sky130_fd_sc_hd__a21bo_1
*I *949:A2 I *D sky130_fd_sc_hd__a21o_1
*I *938:C I *D sky130_fd_sc_hd__nand3_1
*I *931:X O *D sky130_fd_sc_hd__a21o_1
*CAP
1 *933:A2 0.000179842
2 *949:A2 5.93589e-05
3 *938:C 0
4 *931:X 3.85006e-05
5 *89:15 0.000378521
6 *89:6 0.000177821
7 *933:A2 *212:61 7.77289e-06
8 *949:A2 *949:A1 7.65431e-06
9 *949:A2 *132:19 9.14049e-05
10 *949:A2 *307:42 9.30787e-05
11 *89:6 *212:61 3.56402e-05
12 *89:15 *212:61 1.45348e-05
13 *931:B1 *89:15 0
14 *933:A1 *933:A2 2.62602e-05
15 *938:B *933:A2 8.4325e-05
16 *938:B *89:15 8.35157e-05
*RES
1 *931:X *89:6 2.395 
2 *89:6 *938:C 1.6 
3 *89:6 *89:15 1.845 
4 *89:15 *949:A2 7.11875 
5 *89:15 *933:A2 4.045 
*END

*D_NET *90 0.00159256
*CONN
*I *949:A1 I *D sky130_fd_sc_hd__a21o_1
*I *933:B1_N I *D sky130_fd_sc_hd__a21bo_1
*I *938:A I *D sky130_fd_sc_hd__nand3_1
*I *932:Y O *D sky130_fd_sc_hd__nand3_1
*CAP
1 *949:A1 0.000216133
2 *933:B1_N 1.04738e-05
3 *938:A 0
4 *932:Y 0.000215428
5 *90:18 5.56943e-05
6 *90:10 0.000476782
7 *933:B1_N *96:10 2.10905e-05
8 *949:A1 *307:42 0.000154865
9 *949:A1 *309:43 0
10 *90:10 *974:D 0.000186026
11 *90:10 *213:30 4.09679e-05
12 *90:10 *307:42 8.91129e-05
13 *90:18 *96:10 1.08758e-05
14 *90:18 *212:61 2.82864e-05
15 *938:B *933:B1_N 4.77807e-05
16 *938:B *90:18 3.13922e-05
17 *949:A2 *949:A1 7.65431e-06
*RES
1 *932:Y *90:10 6.9 
2 *90:10 *90:18 3.17 
3 *90:18 *938:A 1.6 
4 *90:18 *933:B1_N 2.05 
5 *90:10 *949:A1 6.63 
*END

*D_NET *91 0.00238501
*CONN
*I *968:B1 I *D sky130_fd_sc_hd__a21oi_1
*I *935:A I *D sky130_fd_sc_hd__and3_1
*I *933:X O *D sky130_fd_sc_hd__a21bo_1
*CAP
1 *968:B1 0.000163748
2 *935:A 0
3 *933:X 0.000371344
4 *91:12 0.000535092
5 *968:B1 *924:A 5.37018e-05
6 *968:B1 *924:B 0
7 *968:B1 *968:A2 0.000114298
8 *968:B1 *969:B 3.06882e-05
9 *968:B1 *92:12 5.73568e-06
10 *968:B1 *93:18 0.000109517
11 *91:12 *924:A 1.34594e-05
12 *91:12 *1038:A1 0.000116212
13 *91:12 *1038:B2 0.000152433
14 *91:12 *264:24 0.000198325
15 *91:12 *264:30 5.47609e-05
16 *91:12 *272:24 0.000415149
17 *935:B *968:B1 5.05437e-05
*RES
1 *933:X *91:12 16.1 
2 *91:12 *935:A 1.6 
3 *91:12 *968:B1 5.905 
*END

*D_NET *92 0.000531204
*CONN
*I *968:A2 I *D sky130_fd_sc_hd__a21oi_1
*I *935:C I *D sky130_fd_sc_hd__and3_1
*I *934:X O *D sky130_fd_sc_hd__a21bo_1
*CAP
1 *968:A2 6.75663e-05
2 *935:C 0
3 *934:X 4.14464e-05
4 *92:12 0.000109013
5 *968:A2 *93:18 8.04647e-05
6 *92:12 *264:30 7.4027e-05
7 *935:B *92:12 5.38986e-06
8 *968:B1 *968:A2 0.000114298
9 *968:B1 *92:12 5.73568e-06
10 *76:21 *92:12 3.32631e-05
*RES
1 *934:X *92:12 6.635 
2 *92:12 *935:C 1.6 
3 *92:12 *968:A2 3.4 
*END

*D_NET *93 0.00159093
*CONN
*I *937:A I *D sky130_fd_sc_hd__or2_1
*I *1003:A I *D sky130_fd_sc_hd__and2_1
*I *969:A I *D sky130_fd_sc_hd__nor2_1
*I *935:X O *D sky130_fd_sc_hd__and3_1
*CAP
1 *937:A 0
2 *1003:A 0.000144114
3 *969:A 0
4 *935:X 0.000180186
5 *93:25 0.000228857
6 *93:18 0.00026493
7 *1003:A *1003:B 4.82919e-05
8 *1003:A *162:10 6.65973e-05
9 *93:18 *969:B 2.33546e-05
10 *93:18 *127:10 1.6408e-05
11 *93:18 *214:80 1.08758e-05
12 *93:25 *937:B 8.65961e-05
13 *93:25 *127:10 0.000140379
14 *93:25 *214:80 0.000142584
15 *968:A1 *93:18 4.77757e-05
16 *968:A2 *93:18 8.04647e-05
17 *968:B1 *93:18 0.000109517
*RES
1 *935:X *93:18 5.77 
2 *93:18 *969:A 1.6 
3 *93:18 *93:25 3.21 
4 *93:25 *1003:A 8.195 
5 *93:25 *937:A 1.6 
*END

*D_NET *94 0.000951214
*CONN
*I *937:B I *D sky130_fd_sc_hd__or2_1
*I *1003:B I *D sky130_fd_sc_hd__and2_1
*I *936:Y O *D sky130_fd_sc_hd__xnor2_1
*CAP
1 *937:B 9.11408e-05
2 *1003:B 0.000136785
3 *936:Y 0
4 *94:6 0.000227926
5 *937:B *214:80 8.65961e-05
6 *937:B *245:51 0
7 *1003:B *179:37 0.000273878
8 *1003:B *245:51 0
9 *1003:A *1003:B 4.82919e-05
10 *93:25 *937:B 8.65961e-05
*RES
1 *936:Y *94:6 3.6 
2 *94:6 *1003:B 6.735 
3 *94:6 *937:B 5.52 
*END

*D_NET *95 0.000906715
*CONN
*I *1004:A1 I *D sky130_fd_sc_hd__a21oi_1
*I *1016:B_N I *D sky130_fd_sc_hd__or2b_1
*I *937:X O *D sky130_fd_sc_hd__or2_1
*CAP
1 *1004:A1 0.000206085
2 *1016:B_N 3.55506e-05
3 *937:X 2.97957e-05
4 *95:6 0.000271432
5 *1004:A1 *1004:B1 4.92096e-05
6 *1004:A1 *1016:A 4.66108e-05
7 *1004:A1 *1017:A 0.000162911
8 *1004:A1 *161:10 1.0183e-05
9 *1004:A1 *213:74 7.21296e-06
10 *1004:A1 *214:80 7.3335e-05
11 *95:6 *214:80 1.4389e-05
*RES
1 *937:X *95:6 2.05 
2 *95:6 *1016:B_N 2.215 
3 *95:6 *1004:A1 10.01 
*END

*D_NET *96 0.00219699
*CONN
*I *951:A1 I *D sky130_fd_sc_hd__a21oi_1
*I *950:A I *D sky130_fd_sc_hd__and3_2
*I *938:Y O *D sky130_fd_sc_hd__nand3_1
*CAP
1 *951:A1 7.79899e-05
2 *950:A 0.000253417
3 *938:Y 0.000155939
4 *96:10 0.000487347
5 *950:A *950:B 9.61344e-05
6 *950:A *950:C 8.49205e-05
7 *950:A *106:8 8.53113e-06
8 *950:A *109:6 3.1835e-05
9 *950:A *264:24 9.86611e-05
10 *950:A *272:24 4.65721e-05
11 *951:A1 *951:A2 6.68594e-05
12 *951:A1 *107:10 8.08439e-05
13 *951:A1 *132:19 5.55616e-05
14 *951:A1 *307:30 3.67545e-05
15 *96:10 *107:10 5.53249e-06
16 *96:10 *132:19 4.03082e-05
17 *96:10 *212:61 0.000156778
18 *96:10 *272:24 9.89827e-05
19 *933:A1 *96:10 4.66108e-05
20 *933:B1_N *96:10 2.10905e-05
21 *938:B *96:10 2.15454e-05
22 *949:B1 *950:A 5.83121e-06
23 *949:B1 *96:10 0.000179504
24 *82:8 *96:10 2.85623e-05
25 *90:18 *96:10 1.08758e-05
*RES
1 *938:Y *96:10 8.25 
2 *96:10 *950:A 12.73 
3 *96:10 *951:A1 6.045 
*END

*D_NET *97 0.00185501
*CONN
*I *948:A1 I *D sky130_fd_sc_hd__a21bo_1
*I *952:B I *D sky130_fd_sc_hd__nand3_1
*I *963:B1 I *D sky130_fd_sc_hd__a21o_1
*I *939:X O *D sky130_fd_sc_hd__and2_1
*CAP
1 *948:A1 0
2 *952:B 0.000185389
3 *963:B1 2.10949e-05
4 *939:X 7.34098e-05
5 *97:19 0.000252325
6 *97:6 0.000161441
7 *952:B *948:A2 0.000143833
8 *952:B *952:A 0.000139245
9 *952:B *963:A1 4.23612e-05
10 *952:B *963:A2 2.45964e-05
11 *952:B *104:8 8.40269e-05
12 *952:B *105:6 1.83756e-05
13 *952:B *105:23 1.83847e-05
14 *952:B *132:19 1.0471e-05
15 *952:B *309:43 0
16 *963:B1 *963:A1 1.16578e-05
17 *963:B1 *110:10 3.196e-05
18 *97:6 *939:B 0.000153816
19 *97:6 *964:A 3.57349e-05
20 *97:6 *110:10 0.000191343
21 *97:19 *939:B 1.68233e-05
22 *97:19 *963:A1 0.000139245
23 *97:19 *272:24 7.73954e-05
24 *97:19 *307:30 2.20784e-05
*RES
1 *939:X *97:6 3.775 
2 *97:6 *963:B1 2.05 
3 *97:6 *97:19 6.145 
4 *97:19 *952:B 10.175 
5 *97:19 *948:A1 1.6 
*END

*D_NET *98 0.00138237
*CONN
*I *947:A I *D sky130_fd_sc_hd__nand3_1
*I *946:A1 I *D sky130_fd_sc_hd__a21o_1
*I *940:Y O *D sky130_fd_sc_hd__nand3_1
*CAP
1 *947:A 0.000234617
2 *946:A1 0
3 *940:Y 0.000175922
4 *98:14 0.00041054
5 *947:A *946:A2 0.000124895
6 *947:A *947:B 4.68462e-05
7 *947:A *947:C 7.3151e-05
8 *947:A *103:14 0
9 *947:A *104:8 1.61831e-05
10 *947:A *105:6 1.16578e-05
11 *98:14 *946:A2 4.82919e-05
12 *98:14 *1118:A 0.000155928
13 *98:14 *103:14 1.19928e-05
14 *98:14 *212:14 0
15 *940:B *98:14 8.34281e-06
16 *940:C *98:14 5.83121e-06
17 *87:23 *98:14 5.81675e-05
*RES
1 *940:Y *98:14 8.735 
2 *98:14 *946:A1 1.6 
3 *98:14 *947:A 5.29 
*END

*D_NET *99 0.000896817
*CONN
*I *947:C I *D sky130_fd_sc_hd__nand3_1
*I *946:A2 I *D sky130_fd_sc_hd__a21o_1
*I *941:X O *D sky130_fd_sc_hd__a21o_1
*CAP
1 *947:C 1.85936e-05
2 *946:A2 5.03499e-05
3 *941:X 9.53908e-05
4 *99:12 0.000164334
5 *946:A2 *947:B 4.82863e-05
6 *946:A2 *103:14 7.05779e-05
7 *947:C *947:B 8.40269e-05
8 *99:12 *265:85 9.14049e-05
9 *947:A *946:A2 0.000124895
10 *947:A *947:C 7.3151e-05
11 *85:6 *99:12 2.75145e-05
12 *98:14 *946:A2 4.82919e-05
*RES
1 *941:X *99:12 7.175 
2 *99:12 *946:A2 3.445 
3 *99:12 *947:C 2.395 
*END

*D_NET *100 0.00150361
*CONN
*I *955:B1 I *D sky130_fd_sc_hd__a21o_1
*I *945:A1 I *D sky130_fd_sc_hd__a21bo_1
*I *954:B I *D sky130_fd_sc_hd__nand3_1
*I *942:X O *D sky130_fd_sc_hd__and2_1
*CAP
1 *955:B1 0.000117112
2 *945:A1 9.35203e-05
3 *954:B 4.57431e-05
4 *942:X 0
5 *100:13 0.000225543
6 *100:4 6.06535e-05
7 *945:A1 *954:C 8.23457e-05
8 *945:A1 *101:29 3.57349e-05
9 *945:A1 *115:18 6.33103e-05
10 *945:A1 *212:12 0.00012972
11 *945:A1 *296:59 0.000130664
12 *954:B *955:A1 4.66108e-05
13 *954:B *112:14 8.73389e-06
14 *954:B *296:59 5.83121e-06
15 *955:B1 *942:A 8.52803e-05
16 *955:B1 *955:A1 0.000220517
17 *955:B1 *955:A2 4.77719e-05
18 *955:B1 *296:49 1.87977e-05
19 *955:B1 *296:59 2.49909e-05
20 *100:13 *955:A1 3.57349e-05
21 *100:13 *296:59 2.49909e-05
*RES
1 *942:X *100:4 1.6 
2 *100:4 *954:B 2.395 
3 *100:4 *100:13 0.45 
4 *100:13 *945:A1 8.375 
5 *100:13 *955:B1 4.825 
*END

*D_NET *101 0.00206854
*CONN
*I *955:A2 I *D sky130_fd_sc_hd__a21o_1
*I *945:A2 I *D sky130_fd_sc_hd__a21bo_1
*I *954:C I *D sky130_fd_sc_hd__nand3_1
*I *943:X O *D sky130_fd_sc_hd__a22o_1
*CAP
1 *955:A2 0.000142025
2 *945:A2 2.09808e-05
3 *954:C 0.000198913
4 *943:X 0.000115949
5 *101:29 0.000196564
6 *101:12 0.000348421
7 *954:C *954:A 1.74869e-05
8 *954:C *102:20 0.000107205
9 *954:C *102:26 7.25423e-05
10 *954:C *115:18 7.18079e-05
11 *955:A2 *942:A 4.77719e-05
12 *955:A2 *1118:A 6.90972e-05
13 *955:A2 *102:20 7.98749e-06
14 *955:A2 *115:18 3.10907e-05
15 *101:12 *102:20 0.000153139
16 *101:12 *116:10 8.35106e-05
17 *101:12 *212:12 0.000157466
18 *101:29 *102:20 4.66108e-05
19 *101:29 *115:18 1.41165e-05
20 *945:A1 *954:C 8.23457e-05
21 *945:A1 *101:29 3.57349e-05
22 *955:B1 *955:A2 4.77719e-05
*RES
1 *943:X *101:12 8.285 
2 *101:12 *954:C 9.86 
3 *101:12 *101:29 0.795 
4 *101:29 *945:A2 1.96 
5 *101:29 *955:A2 8.48 
*END

*D_NET *102 0.00351092
*CONN
*I *945:B1_N I *D sky130_fd_sc_hd__a21bo_1
*I *954:A I *D sky130_fd_sc_hd__nand3_1
*I *955:A1 I *D sky130_fd_sc_hd__a21o_1
*I *944:Y O *D sky130_fd_sc_hd__nand4_2
*CAP
1 *945:B1_N 0
2 *954:A 1.60793e-05
3 *955:A1 0.000226207
4 *944:Y 0.000604051
5 *102:26 0.000311033
6 *102:20 0.000672798
7 *954:A *296:59 4.99581e-05
8 *102:20 *848:A 0
9 *102:20 *943:A2 8.23457e-05
10 *102:20 *103:14 3.79606e-05
11 *102:20 *115:18 0
12 *102:20 *116:10 0.000155601
13 *102:20 *212:12 3.19564e-05
14 *102:20 *267:91 0
15 *102:20 *296:59 0.000470876
16 *102:20 *296:71 7.53824e-05
17 *102:26 *296:59 6.88421e-05
18 *954:B *955:A1 4.66108e-05
19 *954:C *954:A 1.74869e-05
20 *954:C *102:20 0.000107205
21 *954:C *102:26 7.25423e-05
22 *955:A2 *102:20 7.98749e-06
23 *955:B1 *955:A1 0.000220517
24 *100:13 *955:A1 3.57349e-05
25 *101:12 *102:20 0.000153139
26 *101:29 *102:20 4.66108e-05
*RES
1 *944:Y *102:20 21.705 
2 *102:20 *102:26 3.32 
3 *102:26 *955:A1 6.465 
4 *102:26 *954:A 4.215 
5 *102:20 *945:B1_N 1.6 
*END

*D_NET *103 0.0010053
*CONN
*I *947:B I *D sky130_fd_sc_hd__nand3_1
*I *946:B1 I *D sky130_fd_sc_hd__a21o_1
*I *945:X O *D sky130_fd_sc_hd__a21bo_1
*CAP
1 *947:B 6.30394e-05
2 *946:B1 0
3 *945:X 0.000123991
4 *103:14 0.000187031
5 *947:B *104:8 6.97202e-05
6 *103:14 *1118:A 6.28843e-05
7 *103:14 *116:10 0.000198945
8 *946:A2 *947:B 4.82863e-05
9 *946:A2 *103:14 7.05779e-05
10 *947:A *947:B 4.68462e-05
11 *947:A *103:14 0
12 *947:C *947:B 8.40269e-05
13 *98:14 *103:14 1.19928e-05
14 *102:20 *103:14 3.79606e-05
*RES
1 *945:X *103:14 9.17 
2 *103:14 *946:B1 1.6 
3 *103:14 *947:B 3.43 
*END

*D_NET *104 0.0021615
*CONN
*I *952:C I *D sky130_fd_sc_hd__nand3_1
*I *948:A2 I *D sky130_fd_sc_hd__a21bo_1
*I *963:A2 I *D sky130_fd_sc_hd__a21o_1
*I *946:X O *D sky130_fd_sc_hd__a21o_1
*CAP
1 *952:C 0.000196502
2 *948:A2 0.000144242
3 *963:A2 5.64763e-05
4 *946:X 0
5 *104:8 0.000428395
6 *104:4 0.000424179
7 *948:A2 *990:A2 2.34602e-05
8 *952:C *265:85 0.000142617
9 *952:C *309:43 7.86987e-05
10 *963:A2 *952:A 0.000118527
11 *963:A2 *132:19 0.000160778
12 *104:8 *105:6 4.92604e-05
13 *947:A *104:8 1.61831e-05
14 *947:B *104:8 6.97202e-05
15 *952:B *948:A2 0.000143833
16 *952:B *963:A2 2.45964e-05
17 *952:B *104:8 8.40269e-05
*RES
1 *946:X *104:4 1.6 
2 *104:4 *104:8 3.915 
3 *104:8 *963:A2 7.4525 
4 *104:8 *948:A2 4.045 
5 *104:4 *952:C 9.41 
*END

*D_NET *105 0.00187264
*CONN
*I *963:A1 I *D sky130_fd_sc_hd__a21o_1
*I *948:B1_N I *D sky130_fd_sc_hd__a21bo_1
*I *952:A I *D sky130_fd_sc_hd__nand3_1
*I *947:Y O *D sky130_fd_sc_hd__nand3_1
*CAP
1 *963:A1 0.00022275
2 *948:B1_N 0
3 *952:A 0.000109696
4 *947:Y 0.000138264
5 *105:23 0.000252344
6 *105:6 0.000277553
7 *952:A *110:10 6.39736e-06
8 *952:A *132:19 4.84393e-05
9 *952:A *309:43 0
10 *963:A1 *110:10 3.48003e-05
11 *963:A1 *272:24 2.75538e-05
12 *963:A1 *307:30 0.00020613
13 *947:A *105:6 1.16578e-05
14 *952:B *952:A 0.000139245
15 *952:B *963:A1 4.23612e-05
16 *952:B *105:6 1.83756e-05
17 *952:B *105:23 1.83847e-05
18 *963:A2 *952:A 0.000118527
19 *963:B1 *963:A1 1.16578e-05
20 *97:19 *963:A1 0.000139245
21 *104:8 *105:6 4.92604e-05
*RES
1 *947:Y *105:6 3.43 
2 *105:6 *952:A 8.69 
3 *105:6 *105:23 0.45 
4 *105:23 *948:B1_N 1.6 
5 *105:23 *963:A1 10.76 
*END

*D_NET *106 0.00115585
*CONN
*I *951:B1 I *D sky130_fd_sc_hd__a21oi_1
*I *950:B I *D sky130_fd_sc_hd__and3_2
*I *948:X O *D sky130_fd_sc_hd__a21bo_1
*CAP
1 *951:B1 4.11553e-05
2 *950:B 0.000160724
3 *948:X 3.78203e-05
4 *106:8 0.0002397
5 *950:B *109:6 0.000196376
6 *950:B *272:24 9.78012e-05
7 *951:B1 *950:C 7.14699e-05
8 *951:B1 *951:A2 4.82863e-05
9 *951:B1 *109:6 4.23612e-05
10 *106:8 *264:24 3.09451e-05
11 *106:8 *272:24 8.45475e-05
12 *950:A *950:B 9.61344e-05
13 *950:A *106:8 8.53113e-06
*RES
1 *948:X *106:8 4.725 
2 *106:8 *950:B 6.555 
3 *106:8 *951:B1 4.74 
*END

*D_NET *107 0.0014213
*CONN
*I *950:C I *D sky130_fd_sc_hd__and3_2
*I *951:A2 I *D sky130_fd_sc_hd__a21oi_1
*I *949:X O *D sky130_fd_sc_hd__a21o_1
*CAP
1 *950:C 0.000199217
2 *951:A2 0.000149381
3 *949:X 5.75913e-05
4 *107:10 0.000406189
5 *950:C *109:6 3.11459e-05
6 *951:A2 *927:B 9.53428e-06
7 *951:A2 *307:30 1.19928e-05
8 *107:10 *272:24 0.000183043
9 *107:10 *307:30 1.52945e-05
10 *950:A *950:C 8.49205e-05
11 *951:A1 *951:A2 6.68594e-05
12 *951:A1 *107:10 8.08439e-05
13 *951:B1 *950:C 7.14699e-05
14 *951:B1 *951:A2 4.82863e-05
15 *96:10 *107:10 5.53249e-06
*RES
1 *949:X *107:10 7.745 
2 *107:10 *951:A2 3.7 
3 *107:10 *950:C 4.12 
*END

*D_NET *108 0.00172159
*CONN
*I *966:A1 I *D sky130_fd_sc_hd__o21ba_1
*I *970:A I *D sky130_fd_sc_hd__xor2_2
*I *965:A I *D sky130_fd_sc_hd__nor3b_1
*I *1000:A1 I *D sky130_fd_sc_hd__o21a_1
*I *950:X O *D sky130_fd_sc_hd__and3_2
*CAP
1 *966:A1 0
2 *970:A 5.67733e-05
3 *965:A 0.0001747
4 *1000:A1 0.000108736
5 *950:X 1.79538e-05
6 *108:25 0.000347076
7 *108:10 0.00027801
8 *108:6 7.1625e-05
9 *965:A *965:C_N 4.89295e-05
10 *965:A *967:A 0.00016031
11 *965:A *123:12 0
12 *965:A *245:138 5.98868e-05
13 *970:A *124:6 4.80182e-05
14 *1000:A1 *123:12 9.54399e-05
15 *1000:A1 *245:138 0
16 *1000:A1 *264:24 0
17 *108:6 *966:A2 4.89295e-05
18 *108:10 *966:A2 8.93381e-05
19 *108:25 *966:A2 1.16578e-05
20 *108:25 *966:B1_N 8.64421e-05
21 *108:25 *124:6 1.77595e-05
*RES
1 *950:X *108:6 2.05 
2 *108:6 *108:10 1.155 
3 *108:10 *1000:A1 7.595 
4 *108:10 *108:25 2.175 
5 *108:25 *965:A 9.23 
6 *108:25 *970:A 2.74 
7 *108:6 *966:A1 1.6 
*END

*D_NET *109 0.00196537
*CONN
*I *966:A2 I *D sky130_fd_sc_hd__o21ba_1
*I *965:B I *D sky130_fd_sc_hd__nor3b_1
*I *951:Y O *D sky130_fd_sc_hd__a21oi_1
*CAP
1 *966:A2 0.000135638
2 *965:B 0.000251363
3 *951:Y 0.00017995
4 *109:6 0.000566951
5 *965:B *965:C_N 2.04101e-05
6 *965:B *967:A 6.43067e-05
7 *965:B *990:B1 0.000130446
8 *965:B *991:B 9.06961e-05
9 *965:B *123:12 5.54034e-05
10 *965:B *264:24 0
11 *966:A2 *966:B1_N 1.85674e-05
12 *950:A *109:6 3.1835e-05
13 *950:B *109:6 0.000196376
14 *950:C *109:6 3.11459e-05
15 *951:B1 *109:6 4.23612e-05
16 *108:6 *966:A2 4.89295e-05
17 *108:10 *966:A2 8.93381e-05
18 *108:25 *966:A2 1.16578e-05
*RES
1 *951:Y *109:6 5.155 
2 *109:6 *965:B 10.55 
3 *109:6 *966:A2 4.42 
*END

*D_NET *110 0.00191534
*CONN
*I *964:A I *D sky130_fd_sc_hd__and3_1
*I *990:A1 I *D sky130_fd_sc_hd__a21oi_1
*I *952:Y O *D sky130_fd_sc_hd__nand3_1
*CAP
1 *964:A 4.56566e-05
2 *990:A1 8.02304e-05
3 *952:Y 0.000239547
4 *110:10 0.000365434
5 *964:A *939:B 4.47209e-05
6 *964:A *964:C 0.000233578
7 *964:A *264:14 2.86975e-05
8 *964:A *264:20 2.61633e-05
9 *990:A1 *953:A 6.20263e-05
10 *990:A1 *990:A2 0.000238131
11 *990:A1 *264:24 9.71067e-05
12 *110:10 *964:C 3.57349e-05
13 *110:10 *121:6 0.000118081
14 *952:A *110:10 6.39736e-06
15 *963:A1 *110:10 3.48003e-05
16 *963:B1 *110:10 3.196e-05
17 *97:6 *964:A 3.57349e-05
18 *97:6 *110:10 0.000191343
*RES
1 *952:Y *110:10 5.62 
2 *110:10 *990:A1 8.36 
3 *110:10 *964:A 3.775 
*END

*D_NET *111 0.0015619
*CONN
*I *962:A1 I *D sky130_fd_sc_hd__a21bo_1
*I *971:B I *D sky130_fd_sc_hd__nand3_1
*I *978:B1 I *D sky130_fd_sc_hd__a21o_1
*I *953:X O *D sky130_fd_sc_hd__and2_1
*CAP
1 *962:A1 3.45795e-05
2 *971:B 9.05396e-05
3 *978:B1 0
4 *953:X 4.95565e-05
5 *111:17 0.000189891
6 *111:10 0.000114329
7 *962:A1 *962:A2 8.35106e-05
8 *962:A1 *285:20 0.000119246
9 *971:B *962:A2 1.7635e-05
10 *971:B *971:A 1.77945e-05
11 *971:B *971:C 9.16486e-05
12 *971:B *134:8 2.69217e-05
13 *971:B *307:20 0.000109284
14 *111:10 *272:24 0.000132242
15 *111:10 *309:14 0.000130481
16 *111:17 *962:B1_N 4.66108e-05
17 *111:17 *119:19 0.000118081
18 *111:17 *285:20 0.00018955
*RES
1 *953:X *111:10 7.235 
2 *111:10 *978:B1 1.6 
3 *111:10 *111:17 1.83 
4 *111:17 *971:B 7.79 
5 *111:17 *962:A1 2.74 
*END

*D_NET *112 0.000840723
*CONN
*I *961:A I *D sky130_fd_sc_hd__nand3_1
*I *960:A1 I *D sky130_fd_sc_hd__a21o_1
*I *954:Y O *D sky130_fd_sc_hd__nand3_1
*CAP
1 *961:A 5.19577e-06
2 *960:A1 0.000168737
3 *954:Y 0.000140292
4 *112:14 0.000314225
5 *960:A1 *961:B 0.000161482
6 *112:14 *212:12 3.6227e-05
7 *112:14 *296:59 5.83121e-06
8 *954:B *112:14 8.73389e-06
*RES
1 *954:Y *112:14 7.79 
2 *112:14 *960:A1 4.045 
3 *112:14 *961:A 1.7125 
*END

*D_NET *113 0.00103162
*CONN
*I *960:A2 I *D sky130_fd_sc_hd__a21o_1
*I *961:C I *D sky130_fd_sc_hd__nand3_1
*I *955:X O *D sky130_fd_sc_hd__a21o_1
*CAP
1 *960:A2 0
2 *961:C 7.57851e-06
3 *955:X 0.000133245
4 *113:14 0.000140824
5 *961:C *961:B 4.89295e-05
6 *961:C *119:8 2.20014e-05
7 *113:14 *961:B 6.28488e-05
8 *113:14 *115:18 0.000109275
9 *113:14 *116:10 0.000109275
10 *113:14 *117:12 4.77769e-05
11 *113:14 *118:12 8.23457e-05
12 *113:14 *119:8 0.000267524
*RES
1 *955:X *113:14 9.86 
2 *113:14 *961:C 2.05 
3 *113:14 *960:A2 1.6 
*END

*D_NET *114 0.00119242
*CONN
*I *972:B I *D sky130_fd_sc_hd__nand3_1
*I *973:B1 I *D sky130_fd_sc_hd__a21o_1
*I *959:A1 I *D sky130_fd_sc_hd__a21bo_1
*I *956:X O *D sky130_fd_sc_hd__and2_1
*CAP
1 *972:B 0.000218438
2 *973:B1 5.02021e-05
3 *959:A1 0.000120847
4 *956:X 0.000100408
5 *114:10 0.000171049
6 *114:8 0.000318846
7 *959:A1 *973:A1 9.55262e-06
8 *959:A1 *973:A2 0.000197243
9 *959:A1 *975:A2 0
10 *972:B *972:A 0
11 *972:B *972:C 0
12 *973:B1 *973:A1 5.83121e-06
*RES
1 *956:X *114:8 4.98 
2 *114:8 *114:10 2 
3 *114:10 *959:A1 4.135 
4 *114:10 *973:B1 2.395 
5 *114:8 *972:B 6.555 
*END

*D_NET *115 0.00382747
*CONN
*I *972:C I *D sky130_fd_sc_hd__nand3_1
*I *973:A2 I *D sky130_fd_sc_hd__a21o_1
*I *959:A2 I *D sky130_fd_sc_hd__a21bo_1
*I *957:X O *D sky130_fd_sc_hd__a22o_1
*CAP
1 *972:C 0.000136908
2 *973:A2 7.28019e-05
3 *959:A2 0
4 *957:X 0.000736657
5 *115:20 7.28019e-05
6 *115:18 0.000873565
7 *972:C *972:A 0.000174919
8 *972:C *1118:A 0.000196089
9 *972:C *309:14 2.747e-05
10 *973:A2 *973:A1 2.88357e-05
11 *973:A2 *116:14 7.11365e-05
12 *115:18 *972:A 2.39947e-05
13 *115:18 *1118:A 0.000537516
14 *115:18 *116:10 0.000214776
15 *115:18 *266:10 4.40899e-05
16 *115:18 *266:12 4.92096e-05
17 *115:18 *274:41 7.4027e-05
18 *115:18 *296:59 0
19 int4_out[2] *972:C 5.83121e-06
20 *945:A1 *115:18 6.33103e-05
21 *954:C *115:18 7.18079e-05
22 *955:A2 *115:18 3.10907e-05
23 *959:A1 *973:A2 0.000197243
24 *972:B *972:C 0
25 *101:29 *115:18 1.41165e-05
26 *102:20 *115:18 0
27 *113:14 *115:18 0.000109275
*RES
1 *957:X *115:18 22.975 
2 *115:18 *115:20 2 
3 *115:20 *959:A2 1.6 
4 *115:20 *973:A2 3.775 
5 *115:18 *972:C 7.485 
*END

*D_NET *116 0.00426185
*CONN
*I *972:A I *D sky130_fd_sc_hd__nand3_1
*I *973:A1 I *D sky130_fd_sc_hd__a21o_1
*I *959:B1_N I *D sky130_fd_sc_hd__a21bo_1
*I *958:Y O *D sky130_fd_sc_hd__nand4_2
*CAP
1 *972:A 0.000219544
2 *973:A1 5.45899e-05
3 *959:B1_N 0
4 *958:Y 0.000697082
5 *116:14 0.000139281
6 *116:10 0.00100132
7 *972:A *309:14 0.000133784
8 *116:10 *943:A1 0.000272662
9 *116:10 *943:A2 2.10152e-05
10 *116:10 *956:A 0.000165809
11 *116:10 *958:B 0.000123225
12 *116:10 *1118:A 4.19884e-05
13 *116:10 *265:85 0.000315179
14 *959:A1 *973:A1 9.55262e-06
15 *972:B *972:A 0
16 *972:C *972:A 0.000174919
17 *973:A2 *973:A1 2.88357e-05
18 *973:A2 *116:14 7.11365e-05
19 *973:B1 *973:A1 5.83121e-06
20 *101:12 *116:10 8.35106e-05
21 *102:20 *116:10 0.000155601
22 *103:14 *116:10 0.000198945
23 *113:14 *116:10 0.000109275
24 *115:18 *972:A 2.39947e-05
25 *115:18 *116:10 0.000214776
*RES
1 *958:Y *116:10 19.23 
2 *116:10 *116:14 3.14 
3 *116:14 *959:B1_N 1.6 
4 *116:14 *973:A1 2.395 
5 *116:10 *972:A 8.55 
*END

*D_NET *117 0.000797589
*CONN
*I *961:B I *D sky130_fd_sc_hd__nand3_1
*I *960:B1 I *D sky130_fd_sc_hd__a21o_1
*I *959:X O *D sky130_fd_sc_hd__a21bo_1
*CAP
1 *961:B 8.83175e-05
2 *960:B1 0
3 *959:X 8.50029e-05
4 *117:12 0.00017332
5 *961:B *119:8 1.53876e-05
6 *117:12 *1118:A 0.000114524
7 *960:A1 *961:B 0.000161482
8 *961:C *961:B 4.89295e-05
9 *113:14 *961:B 6.28488e-05
10 *113:14 *117:12 4.77769e-05
*RES
1 *959:X *117:12 7.43 
2 *117:12 *960:B1 1.6 
3 *117:12 *961:B 4.135 
*END

*D_NET *118 0.00283773
*CONN
*I *978:A2 I *D sky130_fd_sc_hd__a21o_1
*I *971:C I *D sky130_fd_sc_hd__nand3_1
*I *962:A2 I *D sky130_fd_sc_hd__a21bo_1
*I *960:X O *D sky130_fd_sc_hd__a21o_1
*CAP
1 *978:A2 0
2 *971:C 4.84013e-05
3 *962:A2 7.77807e-05
4 *960:X 0.00022373
5 *118:22 0.000345374
6 *118:12 0.000442923
7 *962:A2 *285:20 2.20014e-05
8 *962:A2 *296:49 3.69766e-05
9 *962:A2 *307:20 8.73147e-06
10 *971:C *296:49 0.000121773
11 *971:C *307:20 1.10951e-05
12 *118:12 *956:B 0.000192714
13 *118:12 *978:A1 1.18384e-05
14 *118:12 *119:8 0.000554961
15 *118:12 *285:20 8.54923e-05
16 *118:22 *132:19 1.12082e-05
17 *118:22 *296:49 0.000358005
18 *118:22 *309:14 9.5799e-06
19 *962:A1 *962:A2 8.35106e-05
20 *971:B *962:A2 1.7635e-05
21 *971:B *971:C 9.16486e-05
22 *113:14 *118:12 8.23457e-05
*RES
1 *960:X *118:12 8.74 
2 *118:12 *118:22 3.7949 
3 *118:22 *962:A2 5.2275 
4 *118:22 *971:C 5.1075 
5 *118:12 *978:A2 1.6 
*END

*D_NET *119 0.00307185
*CONN
*I *962:B1_N I *D sky130_fd_sc_hd__a21bo_1
*I *971:A I *D sky130_fd_sc_hd__nand3_1
*I *978:A1 I *D sky130_fd_sc_hd__a21o_1
*I *961:Y O *D sky130_fd_sc_hd__nand3_1
*CAP
1 *962:B1_N 1.86396e-05
2 *971:A 9.17362e-05
3 *978:A1 2.28833e-05
4 *961:Y 0.000324653
5 *119:19 0.000191652
6 *119:8 0.000428812
7 *971:A *979:C 6.66283e-05
8 *971:A *272:24 3.3625e-05
9 *971:A *307:20 0.000128625
10 *978:A1 *285:20 4.77769e-05
11 *119:8 *212:12 0.000638533
12 *119:8 *285:20 1.07593e-05
13 *119:19 *285:20 1.33285e-05
14 *961:B *119:8 1.53876e-05
15 *961:C *119:8 2.20014e-05
16 *971:B *971:A 1.77945e-05
17 *111:17 *962:B1_N 4.66108e-05
18 *111:17 *119:19 0.000118081
19 *113:14 *119:8 0.000267524
20 *118:12 *978:A1 1.18384e-05
21 *118:12 *119:8 0.000554961
*RES
1 *961:Y *119:8 11.38 
2 *119:8 *978:A1 2.41 
3 *119:8 *119:19 1.485 
4 *119:19 *971:A 7.85 
5 *119:19 *962:B1_N 2.05 
*END

*D_NET *120 0.00140373
*CONN
*I *964:B I *D sky130_fd_sc_hd__and3_1
*I *990:B1 I *D sky130_fd_sc_hd__a21oi_1
*I *962:X O *D sky130_fd_sc_hd__a21bo_1
*CAP
1 *964:B 0
2 *990:B1 0.000189446
3 *962:X 0.000231965
4 *120:8 0.000421411
5 *990:B1 *966:B1_N 3.50033e-05
6 *990:B1 *967:A 1.16578e-05
7 *990:B1 *991:B 0.000118506
8 *990:B1 *264:24 0
9 *120:8 *953:A 0
10 *120:8 *991:B 0.00026529
11 *120:8 *264:24 0
12 *965:B *990:B1 0.000130446
*RES
1 *962:X *120:8 7.785 
2 *120:8 *990:B1 7.41 
3 *120:8 *964:B 3.6 
*END

*D_NET *121 0.00168791
*CONN
*I *964:C I *D sky130_fd_sc_hd__and3_1
*I *990:A2 I *D sky130_fd_sc_hd__a21oi_1
*I *963:X O *D sky130_fd_sc_hd__a21o_1
*CAP
1 *964:C 0.000245254
2 *990:A2 8.47866e-05
3 *963:X 9.16402e-05
4 *121:6 0.000421681
5 *964:C *264:14 3.04436e-05
6 *990:A2 *953:A 1.0397e-05
7 *990:A2 *272:24 0.000154726
8 *948:A2 *990:A2 2.34602e-05
9 *964:A *964:C 0.000233578
10 *990:A1 *990:A2 0.000238131
11 *110:10 *964:C 3.57349e-05
12 *110:10 *121:6 0.000118081
*RES
1 *963:X *121:6 2.74 
2 *121:6 *990:A2 8.615 
3 *121:6 *964:C 4.87 
*END

*D_NET *122 0.00167284
*CONN
*I *991:A I *D sky130_fd_sc_hd__nor2_1
*I *965:C_N I *D sky130_fd_sc_hd__nor3b_1
*I *966:B1_N I *D sky130_fd_sc_hd__o21ba_1
*I *964:X O *D sky130_fd_sc_hd__and3_1
*CAP
1 *991:A 8.75454e-05
2 *965:C_N 7.22001e-05
3 *966:B1_N 0.000204447
4 *964:X 0
5 *122:8 0.000366075
6 *122:6 0.000176973
7 *965:C_N *967:A 1.43253e-05
8 *966:B1_N *991:B 8.53113e-06
9 *966:B1_N *123:12 4.05358e-05
10 *991:A *980:A1 4.13481e-05
11 *991:A *980:B1 4.89295e-05
12 *991:A *991:B 0.000228194
13 *122:8 *991:B 0.000174386
14 *965:A *965:C_N 4.89295e-05
15 *965:B *965:C_N 2.04101e-05
16 *966:A2 *966:B1_N 1.85674e-05
17 *990:B1 *966:B1_N 3.50033e-05
18 *108:25 *966:B1_N 8.64421e-05
*RES
1 *964:X *122:6 3.6 
2 *122:6 *122:8 2.145 
3 *122:8 *966:B1_N 7.155 
4 *122:8 *965:C_N 5.01 
5 *122:6 *991:A 6.12 
*END

*D_NET *123 0.00219935
*CONN
*I *967:A I *D sky130_fd_sc_hd__nor2_1
*I *1000:A2 I *D sky130_fd_sc_hd__o21a_1
*I *1028:A_N I *D sky130_fd_sc_hd__and2b_1
*I *965:Y O *D sky130_fd_sc_hd__nor3b_1
*CAP
1 *967:A 0.000316299
2 *1000:A2 0
3 *1028:A_N 0.0001423
4 *965:Y 0
5 *123:12 0.000380131
6 *123:4 0.000554131
7 *967:A *967:B 3.26889e-05
8 *1028:A_N *1000:B1 0.000236918
9 *1028:A_N *1001:B1 9.49063e-05
10 *123:12 *245:138 0
11 *123:12 *264:24 0
12 *965:A *967:A 0.00016031
13 *965:A *123:12 0
14 *965:B *967:A 6.43067e-05
15 *965:B *123:12 5.54034e-05
16 *965:C_N *967:A 1.43253e-05
17 *966:B1_N *123:12 4.05358e-05
18 *990:B1 *967:A 1.16578e-05
19 *1000:A1 *123:12 9.54399e-05
*RES
1 *965:Y *123:4 1.6 
2 *123:4 *123:12 7.705 
3 *123:12 *1028:A_N 5.08 
4 *123:12 *1000:A2 1.6 
5 *123:4 *967:A 6.565 
*END

*D_NET *124 0.00156705
*CONN
*I *967:B I *D sky130_fd_sc_hd__nor2_1
*I *1031:A1 I *D sky130_fd_sc_hd__o21ba_1
*I *966:X O *D sky130_fd_sc_hd__o21ba_1
*CAP
1 *967:B 0.000105473
2 *1031:A1 0.000256761
3 *966:X 0.00022561
4 *124:6 0.000587844
5 *967:B *1001:B1 0
6 *967:B *1024:A 0
7 *967:B *125:8 1.16578e-05
8 *967:B *141:48 7.23602e-05
9 *1031:A1 *1031:A2 5.4155e-06
10 *1031:A1 *1032:A2 0
11 *1031:A1 *128:12 9.4087e-05
12 *1031:A1 *128:28 0.000109377
13 *967:A *967:B 3.26889e-05
14 *970:A *124:6 4.80182e-05
15 *108:25 *124:6 1.77595e-05
*RES
1 *966:X *124:6 4.12 
2 *124:6 *1031:A1 5.875 
3 *124:6 *967:B 7.535 
*END

*D_NET *125 0.00145129
*CONN
*I *1001:A1 I *D sky130_fd_sc_hd__a31o_1
*I *993:A I *D sky130_fd_sc_hd__and4_1
*I *1024:A I *D sky130_fd_sc_hd__inv_2
*I *967:Y O *D sky130_fd_sc_hd__nor2_1
*CAP
1 *1001:A1 0
2 *993:A 0.000103058
3 *1024:A 1.77753e-05
4 *967:Y 9.20615e-05
5 *125:19 0.000175236
6 *125:8 0.000182015
7 *993:A *1001:A2 0.00018305
8 *993:A *1002:B1 0.000270647
9 *993:A *1026:C1 2.05583e-05
10 *993:A *144:20 2.4997e-05
11 *993:A *183:10 5.39718e-05
12 *125:19 *1001:B1 0.000160641
13 *125:19 *1002:B1 1.19928e-05
14 *125:19 *1026:C1 0
15 *125:19 *157:14 5.53774e-05
16 *125:19 *157:23 0
17 *125:19 *182:8 8.82557e-05
18 *967:B *1024:A 0
19 *967:B *125:8 1.16578e-05
*RES
1 *967:Y *125:8 3.1 
2 *125:8 *1024:A 1.96 
3 *125:8 *125:19 2.535 
4 *125:19 *993:A 9.275 
5 *125:19 *1001:A1 1.6 
*END

*D_NET *126 0.000153924
*CONN
*I *969:B I *D sky130_fd_sc_hd__nor2_1
*I *968:Y O *D sky130_fd_sc_hd__a21oi_1
*CAP
1 *969:B 4.64359e-05
2 *968:Y 4.64359e-05
3 *969:B *924:A 0
4 *969:B *127:10 7.00889e-06
5 *968:B1 *969:B 3.06882e-05
6 *93:18 *969:B 2.33546e-05
*RES
1 *968:Y *969:B 4.37 
*END

*D_NET *127 0.00402401
*CONN
*I *970:B I *D sky130_fd_sc_hd__xor2_2
*I *1000:B1 I *D sky130_fd_sc_hd__o21a_1
*I *969:Y O *D sky130_fd_sc_hd__nor2_1
*CAP
1 *970:B 5.12097e-05
2 *1000:B1 0.000126003
3 *969:Y 0.000791102
4 *127:10 0.000968314
5 *970:B *141:48 0.000208484
6 *970:B *245:138 0.000195238
7 *1000:B1 *1001:B1 1.19928e-05
8 *127:10 *994:A 1.87027e-05
9 *127:10 *997:C 6.06948e-05
10 *127:10 *1022:A3 5.2063e-05
11 *127:10 *1037:A 0.000237249
12 *127:10 *1042:B1 0.000101159
13 *127:10 *1043:A1 3.89366e-05
14 *127:10 *141:12 0.000243926
15 *127:10 *141:48 0.000108322
16 *127:10 *160:8 0
17 *127:10 *162:10 2.46089e-05
18 *127:10 *173:10 0
19 *127:10 *245:72 0.000159476
20 *127:10 *245:138 0.000225813
21 *969:B *127:10 7.00889e-06
22 *1028:A_N *1000:B1 0.000236918
23 *93:18 *127:10 1.6408e-05
24 *93:25 *127:10 0.000140379
*RES
1 *969:Y *127:10 19.08 
2 *127:10 *1000:B1 6.12 
3 *127:10 *970:B 4.4 
*END

*D_NET *128 0.00228343
*CONN
*I *1031:A2 I *D sky130_fd_sc_hd__o21ba_1
*I *1001:A2 I *D sky130_fd_sc_hd__a31o_1
*I *1028:B I *D sky130_fd_sc_hd__and2b_1
*I *993:B I *D sky130_fd_sc_hd__and4_1
*I *970:X O *D sky130_fd_sc_hd__xor2_2
*CAP
1 *1031:A2 4.8792e-05
2 *1001:A2 5.43844e-05
3 *1028:B 0
4 *993:B 0.000193259
5 *970:X 0
6 *128:28 0.000229137
7 *128:12 0.000348943
8 *128:4 0.000281646
9 *993:B *1001:B1 1.61831e-05
10 *993:B *1029:A2 0.000387891
11 *993:B *151:10 8.49205e-05
12 *1001:A2 *1026:C1 0.000162325
13 *1001:A2 *150:8 0
14 *1031:A2 *1030:A2 5.83121e-06
15 *1031:A2 *1030:B1 0
16 *128:12 *1001:B1 0
17 *128:12 *141:48 7.81876e-05
18 *128:12 *144:20 0
19 *993:A *1001:A2 0.00018305
20 *1031:A1 *1031:A2 5.4155e-06
21 *1031:A1 *128:12 9.4087e-05
22 *1031:A1 *128:28 0.000109377
*RES
1 *970:X *128:4 1.6 
2 *128:4 *128:12 7.12 
3 *128:12 *993:B 6.115 
4 *128:12 *1028:B 1.6 
5 *128:4 *128:28 2.175 
6 *128:28 *1001:A2 7.745 
7 *128:28 *1031:A2 2.41 
*END

*D_NET *129 0.00306576
*CONN
*I *979:A I *D sky130_fd_sc_hd__and3_1
*I *980:A1 I *D sky130_fd_sc_hd__a21oi_1
*I *971:Y O *D sky130_fd_sc_hd__nand3_1
*CAP
1 *979:A 1.36534e-05
2 *980:A1 0.000296177
3 *971:Y 0.000231476
4 *129:10 0.000541307
5 *979:A *979:C 4.66108e-05
6 *979:A *285:20 4.66108e-05
7 *980:A1 *980:B1 0.000324918
8 *980:A1 *988:B1 2.08971e-05
9 *980:A1 *135:10 7.08297e-05
10 *980:A1 *138:6 1.19028e-05
11 *980:A1 *245:138 0.000217481
12 *129:10 *977:A1 0.000271087
13 *129:10 *984:A 1.01158e-05
14 *129:10 *986:B 2.0231e-05
15 *129:10 *133:14 0.000385419
16 *129:10 *134:8 0.000272871
17 *129:10 *135:10 8.09264e-05
18 *129:10 *245:138 0.00015356
19 *129:10 *296:49 8.34281e-06
20 *991:A *980:A1 4.13481e-05
*RES
1 *971:Y *129:10 11.025 
2 *129:10 *980:A1 9.39 
3 *129:10 *979:A 4.05 
*END

*D_NET *130 0.0011839
*CONN
*I *975:A1 I *D sky130_fd_sc_hd__a21o_1
*I *976:A I *D sky130_fd_sc_hd__and3_1
*I *972:Y O *D sky130_fd_sc_hd__nand3_1
*CAP
1 *975:A1 0
2 *976:A 0.000117677
3 *972:Y 0.0002766
4 *130:12 0.000394276
5 *976:A *975:A2 9.12671e-06
6 *976:A *976:B 2.27064e-05
7 *976:A *976:C 0.000122821
8 *130:12 *132:19 5.31158e-06
9 *130:12 *309:14 0.000235378
*RES
1 *972:Y *130:12 9.41 
2 *130:12 *976:A 3.79 
3 *130:12 *975:A1 1.6 
*END

*D_NET *131 0.000794844
*CONN
*I *976:B I *D sky130_fd_sc_hd__and3_1
*I *975:A2 I *D sky130_fd_sc_hd__a21o_1
*I *973:X O *D sky130_fd_sc_hd__a21o_1
*CAP
1 *976:B 0.000219054
2 *975:A2 4.68874e-05
3 *973:X 4.01247e-05
4 *131:6 0.000306066
5 *976:B *976:C 2.86767e-05
6 *976:B *133:14 0.000122202
7 *959:A1 *975:A2 0
8 *976:A *975:A2 9.12671e-06
9 *976:A *976:B 2.27064e-05
*RES
1 *973:X *131:6 2.05 
2 *131:6 *975:A2 2.47 
3 *131:6 *976:B 4.465 
*END

*D_NET *132 0.00366922
*CONN
*I *976:C I *D sky130_fd_sc_hd__and3_1
*I *975:B1 I *D sky130_fd_sc_hd__a21o_1
*I *981:A I *D sky130_fd_sc_hd__inv_2
*I *974:X O *D sky130_fd_sc_hd__and4_1
*CAP
1 *976:C 9.155e-05
2 *975:B1 0
3 *981:A 0.000181963
4 *974:X 0
5 *132:19 0.00075701
6 *132:4 0.000847423
7 *976:C *133:14 6.59799e-05
8 *981:A *974:D 0
9 *981:A *213:37 6.81928e-05
10 *981:A *213:54 8.73589e-05
11 *132:19 *307:30 0.000505744
12 *132:19 *307:42 0.000205821
13 *132:19 *309:14 0
14 *132:19 *309:43 0
15 *949:A2 *132:19 9.14049e-05
16 *949:B1 *132:19 0.000171105
17 *951:A1 *132:19 5.55616e-05
18 *952:A *132:19 4.84393e-05
19 *952:B *132:19 1.0471e-05
20 *963:A2 *132:19 0.000160778
21 *976:A *976:C 0.000122821
22 *976:B *976:C 2.86767e-05
23 *82:8 *132:19 0.000112087
24 *96:10 *132:19 4.03082e-05
25 *118:22 *132:19 1.12082e-05
26 *130:12 *132:19 5.31158e-06
*RES
1 *974:X *132:4 1.6 
2 *132:4 *981:A 4.99 
3 *132:4 *132:19 19.66 
4 *132:19 *975:B1 1.6 
5 *132:19 *976:C 3.955 
*END

*D_NET *133 0.00240707
*CONN
*I *977:A3 I *D sky130_fd_sc_hd__a31o_1
*I *985:B I *D sky130_fd_sc_hd__and2b_1
*I *975:X O *D sky130_fd_sc_hd__a21o_1
*CAP
1 *977:A3 0
2 *985:B 0.000283003
3 *975:X 0.000482041
4 *133:14 0.000765044
5 *985:B *985:A_N 0.000152373
6 *985:B *986:B 7.43727e-06
7 *985:B *285:20 6.01786e-05
8 *133:14 *985:A_N 7.27704e-06
9 *133:14 *986:B 3.60024e-06
10 *133:14 *134:8 7.25116e-05
11 *976:B *133:14 0.000122202
12 *976:C *133:14 6.59799e-05
13 *129:10 *133:14 0.000385419
*RES
1 *975:X *133:14 11.25 
2 *133:14 *985:B 8.04 
3 *133:14 *977:A3 3.6 
*END

*D_NET *134 0.00121668
*CONN
*I *977:B1 I *D sky130_fd_sc_hd__a31o_1
*I *985:A_N I *D sky130_fd_sc_hd__and2b_1
*I *976:X O *D sky130_fd_sc_hd__and3_1
*CAP
1 *977:B1 0
2 *985:A_N 0.000129241
3 *976:X 0.00013326
4 *134:8 0.000262501
5 *985:A_N *285:20 4.66108e-05
6 *985:A_N *296:49 0
7 *134:8 *296:49 0.000113115
8 *971:B *134:8 2.69217e-05
9 *985:B *985:A_N 0.000152373
10 *129:10 *134:8 0.000272871
11 *133:14 *985:A_N 7.27704e-06
12 *133:14 *134:8 7.25116e-05
*RES
1 *976:X *134:8 5.515 
2 *134:8 *985:A_N 8.195 
3 *134:8 *977:B1 1.6 
*END

*D_NET *135 0.0015316
*CONN
*I *979:B I *D sky130_fd_sc_hd__and3_1
*I *980:B1 I *D sky130_fd_sc_hd__a21oi_1
*I *977:X O *D sky130_fd_sc_hd__a31o_1
*CAP
1 *979:B 7.464e-05
2 *980:B1 0.000122888
3 *977:X 0.000116473
4 *135:10 0.000314001
5 *979:B *137:8 5.19006e-06
6 *979:B *285:20 4.41506e-05
7 *980:B1 *986:B 9.09788e-06
8 *980:B1 *991:B 7.53382e-05
9 *980:B1 *138:6 1.53881e-05
10 *135:10 *986:B 0.000145453
11 *135:10 *296:29 8.33796e-05
12 *980:A1 *980:B1 0.000324918
13 *980:A1 *135:10 7.08297e-05
14 *991:A *980:B1 4.89295e-05
15 *129:10 *135:10 8.09264e-05
*RES
1 *977:X *135:10 6.285 
2 *135:10 *980:B1 7.335 
3 *135:10 *979:B 4.755 
*END

*D_NET *136 0.00277776
*CONN
*I *979:C I *D sky130_fd_sc_hd__and3_1
*I *980:A2 I *D sky130_fd_sc_hd__a21oi_1
*I *978:X O *D sky130_fd_sc_hd__a21o_1
*CAP
1 *979:C 0.000574485
2 *980:A2 0.000312464
3 *978:X 0
4 *136:6 0.000886949
5 *979:C *272:24 0.000101302
6 *979:C *285:20 0.00057789
7 *979:C *307:20 1.7038e-05
8 *980:A2 *991:B 2.00026e-05
9 *980:A2 *272:24 7.1624e-05
10 *980:A2 *307:20 9.60417e-05
11 *980:A2 *307:30 6.72833e-06
12 *971:A *979:C 6.66283e-05
13 *979:A *979:C 4.66108e-05
*RES
1 *978:X *136:6 3.6 
2 *136:6 *980:A2 9.105 
3 *136:6 *979:C 11.7 
*END

*D_NET *137 0.00223764
*CONN
*I *999:A1 I *D sky130_fd_sc_hd__o21a_1
*I *987:A_N I *D sky130_fd_sc_hd__and4bb_1
*I *988:B1 I *D sky130_fd_sc_hd__o2bb2a_1
*I *992:A I *D sky130_fd_sc_hd__xor2_2
*I *979:X O *D sky130_fd_sc_hd__and3_1
*CAP
1 *999:A1 5.71636e-05
2 *987:A_N 0.000101619
3 *988:B1 7.80249e-05
4 *992:A 0.000152251
5 *979:X 5.78579e-05
6 *137:14 0.000294751
7 *137:12 0.000251735
8 *137:8 0.000200662
9 *987:A_N *987:B_N 1.19928e-05
10 *987:A_N *987:C 0.000164307
11 *987:A_N *141:48 5.93959e-05
12 *987:A_N *149:8 0.000230663
13 *988:B1 *987:B_N 7.90685e-05
14 *988:B1 *138:6 1.19028e-05
15 *992:A *141:48 0.000113222
16 *992:A *264:14 8.40213e-05
17 *999:A1 *285:20 6.81992e-05
18 *137:8 *285:20 4.90227e-05
19 *137:12 *264:14 7.15997e-05
20 *137:14 *141:48 5.0096e-05
21 *137:14 *264:14 2.39947e-05
22 *979:B *137:8 5.19006e-06
23 *980:A1 *988:B1 2.08971e-05
*RES
1 *979:X *137:8 2.755 
2 *137:8 *137:12 3.635 
3 *137:12 *137:14 1.125 
4 *137:14 *992:A 6.465 
5 *137:14 *988:B1 5.01 
6 *137:12 *987:A_N 6.465 
7 *137:8 *999:A1 2.74 
*END

*D_NET *138 0.00147134
*CONN
*I *988:B2 I *D sky130_fd_sc_hd__o2bb2a_1
*I *987:B_N I *D sky130_fd_sc_hd__and4bb_1
*I *980:Y O *D sky130_fd_sc_hd__a21oi_1
*CAP
1 *988:B2 0
2 *987:B_N 0.000174115
3 *980:Y 0.00012121
4 *138:6 0.000295324
5 *987:B_N *987:C 6.74239e-05
6 *987:B_N *987:D 4.66108e-05
7 *987:B_N *988:A2_N 4.77769e-05
8 *987:B_N *141:48 0.000107055
9 *987:B_N *146:18 0.000119247
10 *987:B_N *149:8 7.18107e-06
11 *138:6 *991:B 0.000123955
12 *138:6 *149:8 0.000231187
13 *980:A1 *138:6 1.19028e-05
14 *980:B1 *138:6 1.53881e-05
15 *987:A_N *987:B_N 1.19928e-05
16 *988:B1 *987:B_N 7.90685e-05
17 *988:B1 *138:6 1.19028e-05
*RES
1 *980:Y *138:6 4.81 
2 *138:6 *987:B_N 5.68 
3 *138:6 *988:B2 1.6 
*END

*D_NET *139 0.00090749
*CONN
*I *983:C I *D sky130_fd_sc_hd__and4_1
*I *995:B1 I *D sky130_fd_sc_hd__a22o_1
*I *981:Y O *D sky130_fd_sc_hd__inv_2
*CAP
1 *983:C 0.00015745
2 *995:B1 1.92299e-05
3 *981:Y 0.000144685
4 *139:6 0.000321365
5 *983:C *983:D 0.000175425
6 *983:C *995:A1 5.83121e-06
7 *995:B1 *995:B2 5.12969e-06
8 *139:6 *995:B2 3.29947e-05
9 *139:6 *213:54 4.53798e-05
*RES
1 *981:Y *139:6 4.12 
2 *139:6 *995:B1 1.96 
3 *139:6 *983:C 8.75 
*END

*D_NET *140 0.00199815
*CONN
*I *983:D I *D sky130_fd_sc_hd__and4_1
*I *995:B2 I *D sky130_fd_sc_hd__a22o_1
*I *982:X O *D sky130_fd_sc_hd__a22o_1
*CAP
1 *983:D 0.000168115
2 *995:B2 9.77498e-05
3 *982:X 0.000323869
4 *140:10 0.000589734
5 *983:D *1043:A3 9.12494e-06
6 *983:D *212:74 0.000192907
7 *983:D *212:88 1.84465e-05
8 *983:D *245:107 7.85442e-06
9 *140:10 *996:B 6.04372e-05
10 *140:10 *1038:A1 0.000119873
11 *140:10 *1043:A3 3.03465e-05
12 *140:10 *245:107 0.000160314
13 *140:10 *249:102 5.83121e-06
14 *983:C *983:D 0.000175425
15 *995:B1 *995:B2 5.12969e-06
16 *139:6 *995:B2 3.29947e-05
*RES
1 *982:X *140:10 8.025 
2 *140:10 *995:B2 5.01 
3 *140:10 *983:D 8.325 
*END

*D_NET *141 0.00552833
*CONN
*I *987:C I *D sky130_fd_sc_hd__and4bb_1
*I *988:A1_N I *D sky130_fd_sc_hd__o2bb2a_1
*I *1018:A I *D sky130_fd_sc_hd__nor2_1
*I *994:A I *D sky130_fd_sc_hd__inv_2
*I *983:X O *D sky130_fd_sc_hd__and4_1
*CAP
1 *987:C 0.000138558
2 *988:A1_N 0
3 *1018:A 6.78564e-05
4 *994:A 0.000194684
5 *983:X 0.000329263
6 *141:48 0.000656613
7 *141:12 0.000401785
8 *141:8 0.000986563
9 *987:C *987:D 0.000233597
10 *994:A *997:A 5.824e-05
11 *994:A *997:B 5.49536e-05
12 *994:A *997:C 5.83121e-06
13 *994:A *1042:A2 4.46772e-06
14 *994:A *1042:B1 7.03219e-05
15 *994:A *1067:RESET_B 0.00015971
16 *994:A *152:12 7.03276e-05
17 *994:A *154:8 0.000158547
18 *994:A *155:23 1.16236e-05
19 *994:A *245:72 1.78838e-05
20 *1018:A *997:B 8.53011e-05
21 *1018:A *997:C 3.33212e-06
22 *1018:A *155:23 0.00012398
23 *141:8 *983:A 7.47419e-06
24 *141:8 *212:74 1.14169e-05
25 *141:8 *245:76 2.58745e-05
26 *141:12 *144:20 0
27 *141:12 *160:8 0
28 *141:48 *1001:B1 0
29 *141:48 *144:14 4.21447e-06
30 *141:48 *144:20 0
31 *141:48 *245:138 0.000178361
32 *141:48 *264:14 0.000176072
33 *967:B *141:48 7.23602e-05
34 *970:B *141:48 0.000208484
35 *987:A_N *987:C 0.000164307
36 *987:A_N *141:48 5.93959e-05
37 *987:B_N *987:C 6.74239e-05
38 *987:B_N *141:48 0.000107055
39 *992:A *141:48 0.000113222
40 *127:10 *994:A 1.87027e-05
41 *127:10 *141:12 0.000243926
42 *127:10 *141:48 0.000108322
43 *128:12 *141:48 7.81876e-05
44 *137:14 *141:48 5.0096e-05
*RES
1 *983:X *141:8 7.155 
2 *141:8 *141:12 4.91 
3 *141:12 *994:A 10.325 
4 *141:12 *1018:A 3.43 
5 *141:8 *141:48 13.8013 
6 *141:48 *988:A1_N 1.6 
7 *141:48 *987:C 5.39875 
*END

*D_NET *142 0.000661216
*CONN
*I *986:A I *D sky130_fd_sc_hd__xnor2_2
*I *984:Y O *D sky130_fd_sc_hd__nand2_1
*CAP
1 *986:A 0.000183812
2 *984:Y 0.000183812
3 *986:A *984:A 0.000183587
4 *986:A *144:10 4.77807e-05
5 *986:A *296:29 6.22246e-05
*RES
1 *984:Y *986:A 7.115 
*END

*D_NET *143 0.000541532
*CONN
*I *986:B I *D sky130_fd_sc_hd__xnor2_2
*I *985:X O *D sky130_fd_sc_hd__and2b_1
*CAP
1 *986:B 0.000130075
2 *985:X 0.000130075
3 *986:B *977:A1 4.77807e-05
4 *986:B *296:29 4.77807e-05
5 *980:B1 *986:B 9.09788e-06
6 *985:B *986:B 7.43727e-06
7 *129:10 *986:B 2.0231e-05
8 *133:14 *986:B 3.60024e-06
9 *135:10 *986:B 0.000145453
*RES
1 *985:X *986:B 10.05 
*END

*D_NET *144 0.0047021
*CONN
*I *988:A2_N I *D sky130_fd_sc_hd__o2bb2a_1
*I *987:D I *D sky130_fd_sc_hd__and4bb_1
*I *998:A I *D sky130_fd_sc_hd__and2_1
*I *1019:A I *D sky130_fd_sc_hd__xnor2_1
*I *986:Y O *D sky130_fd_sc_hd__xnor2_2
*CAP
1 *988:A2_N 3.37871e-05
2 *987:D 0.000105931
3 *998:A 0.000176921
4 *1019:A 0
5 *986:Y 0.000226582
6 *144:20 0.000574474
7 *144:14 0.000633729
8 *144:10 0.000390614
9 *987:D *992:B 0.000156408
10 *987:D *146:18 0.000167144
11 *987:D *157:14 0.000189455
12 *998:A *998:B 0.000144913
13 *998:A *1033:C 6.81992e-05
14 *144:10 *992:B 5.62661e-05
15 *144:10 *999:B1 6.90545e-05
16 *144:10 *264:14 0.000145664
17 *144:14 *992:B 6.12027e-05
18 *144:14 *264:14 7.36136e-05
19 *144:20 *998:B 8.52972e-05
20 *144:20 *1001:B1 0.000114492
21 *144:20 *1002:B1 0.00046762
22 *144:20 *1019:B 4.77807e-05
23 *144:20 *1020:A 0.000104787
24 *144:20 *150:8 0
25 *144:20 *157:14 0.000129365
26 *144:20 *160:8 7.38184e-05
27 *986:A *144:10 4.77807e-05
28 *987:B_N *987:D 4.66108e-05
29 *987:B_N *988:A2_N 4.77769e-05
30 *987:C *987:D 0.000233597
31 *993:A *144:20 2.4997e-05
32 *128:12 *144:20 0
33 *141:12 *144:20 0
34 *141:48 *144:14 4.21447e-06
35 *141:48 *144:20 0
*RES
1 *986:Y *144:10 8.235 
2 *144:10 *144:14 2.9025 
3 *144:14 *144:20 12.9725 
4 *144:20 *1019:A 1.6 
5 *144:20 *998:A 5.17 
6 *144:14 *987:D 8.3925 
7 *144:10 *988:A2_N 4.05 
*END

*D_NET *145 0.00220756
*CONN
*I *999:A2 I *D sky130_fd_sc_hd__o21a_1
*I *989:A I *D sky130_fd_sc_hd__nor2_1
*I *1026:A1 I *D sky130_fd_sc_hd__o221a_1
*I *987:X O *D sky130_fd_sc_hd__and4bb_1
*CAP
1 *999:A2 0.000317347
2 *989:A 0
3 *1026:A1 0.000210824
4 *987:X 0
5 *145:8 0.000342547
6 *145:6 0.00044907
7 *999:A2 *285:20 0.000182322
8 *1026:A1 *1023:A 0.00022649
9 *1026:A1 *1026:A2 4.41506e-05
10 *1026:A1 *1026:C1 3.26889e-05
11 *1026:A1 *1029:A1 9.50342e-06
12 *1026:A1 *1032:A1 0
13 *1026:A1 *146:18 9.12494e-06
14 *1026:A1 *147:8 6.62124e-05
15 *1026:A1 *150:8 0.000121142
16 *1026:A1 *157:14 0
17 *1026:A1 *157:23 3.70488e-05
18 *1026:A1 *182:8 7.68414e-06
19 *1026:A1 *182:21 1.47256e-05
20 *145:8 *146:18 0.000136679
*RES
1 *987:X *145:6 3.6 
2 *145:6 *145:8 2.655 
3 *145:8 *1026:A1 9.105 
4 *145:8 *989:A 3.6 
5 *145:6 *999:A2 8.97 
*END

*D_NET *146 0.00212596
*CONN
*I *1032:A1 I *D sky130_fd_sc_hd__o211a_1
*I *989:B I *D sky130_fd_sc_hd__nor2_1
*I *988:X O *D sky130_fd_sc_hd__o2bb2a_1
*CAP
1 *1032:A1 0.000260381
2 *989:B 0
3 *988:X 0.000429616
4 *146:18 0.000689997
5 *1032:A1 *1027:B 6.02123e-05
6 *1032:A1 *1029:B1 4.9968e-05
7 *1032:A1 *147:8 4.76659e-05
8 *1032:A1 *182:21 0.000155928
9 *1032:A1 *273:16 0
10 *987:B_N *146:18 0.000119247
11 *987:D *146:18 0.000167144
12 *1026:A1 *1032:A1 0
13 *1026:A1 *146:18 9.12494e-06
14 *145:8 *146:18 0.000136679
*RES
1 *988:X *146:18 12.395 
2 *146:18 *989:B 1.6 
3 *146:18 *1032:A1 10.58 
*END

*D_NET *147 0.00283888
*CONN
*I *1030:B1 I *D sky130_fd_sc_hd__o21ai_1
*I *1027:A I *D sky130_fd_sc_hd__nor2_1
*I *993:C I *D sky130_fd_sc_hd__and4_1
*I *989:Y O *D sky130_fd_sc_hd__nor2_1
*CAP
1 *1030:B1 8.5652e-05
2 *1027:A 0.000163665
3 *993:C 0.000199017
4 *989:Y 0.000126416
5 *147:12 0.00044356
6 *147:8 0.000292945
7 *993:C *1029:A2 3.18147e-05
8 *993:C *1033:C 1.08758e-05
9 *993:C *151:10 0.000122337
10 *1027:A *1033:C 4.7101e-05
11 *1030:B1 *1030:A2 0.000270167
12 *1030:B1 *1032:B1 1.52352e-05
13 *1030:B1 *1032:C1 0.000235471
14 *147:8 *1029:A1 9.1566e-05
15 *147:8 *1029:B1 7.4027e-05
16 *147:8 *182:21 0.000148092
17 *147:12 *1029:B1 0.000182349
18 *147:12 *1033:D_N 0.00018471
19 *1026:A1 *147:8 6.62124e-05
20 *1031:A2 *1030:B1 0
21 *1032:A1 *147:8 4.76659e-05
*RES
1 *989:Y *147:8 7.275 
2 *147:8 *147:12 4.145 
3 *147:12 *993:C 4.6 
4 *147:12 *1027:A 4.495 
5 *147:8 *1030:B1 6.84 
*END

*D_NET *148 0.0019095
*CONN
*I *991:B I *D sky130_fd_sc_hd__nor2_1
*I *990:Y O *D sky130_fd_sc_hd__a21oi_1
*CAP
1 *991:B 0.000402299
2 *990:Y 0.000402299
3 *965:B *991:B 9.06961e-05
4 *966:B1_N *991:B 8.53113e-06
5 *980:A2 *991:B 2.00026e-05
6 *980:B1 *991:B 7.53382e-05
7 *990:B1 *991:B 0.000118506
8 *991:A *991:B 0.000228194
9 *120:8 *991:B 0.00026529
10 *122:8 *991:B 0.000174386
11 *138:6 *991:B 0.000123955
*RES
1 *990:Y *991:B 16.545 
*END

*D_NET *149 0.00188836
*CONN
*I *999:B1 I *D sky130_fd_sc_hd__o21a_1
*I *992:B I *D sky130_fd_sc_hd__xor2_2
*I *991:Y O *D sky130_fd_sc_hd__nor2_1
*CAP
1 *999:B1 6.47546e-05
2 *992:B 9.15445e-05
3 *991:Y 0.000347351
4 *149:8 0.00050365
5 *992:B *157:14 3.18891e-05
6 *999:B1 *157:14 3.72081e-05
7 *987:A_N *149:8 0.000230663
8 *987:B_N *149:8 7.18107e-06
9 *987:D *992:B 0.000156408
10 *138:6 *149:8 0.000231187
11 *144:10 *992:B 5.62661e-05
12 *144:10 *999:B1 6.90545e-05
13 *144:14 *992:B 6.12027e-05
*RES
1 *991:Y *149:8 8.19 
2 *149:8 *992:B 4.655 
3 *149:8 *999:B1 5.235 
*END

*D_NET *150 0.00264349
*CONN
*I *1023:A I *D sky130_fd_sc_hd__inv_2
*I *1032:A2 I *D sky130_fd_sc_hd__o211a_1
*I *993:D I *D sky130_fd_sc_hd__and4_1
*I *992:X O *D sky130_fd_sc_hd__xor2_2
*CAP
1 *1023:A 0.000258812
2 *1032:A2 0.000156085
3 *993:D 0.000118483
4 *992:X 0.000139036
5 *150:10 0.00030792
6 *150:8 0.000431201
7 *993:D *1026:C1 6.8197e-05
8 *993:D *1029:A1 1.61461e-05
9 *993:D *1031:B1_N 0.00020779
10 *993:D *183:10 7.44375e-05
11 *1023:A *1026:A2 9.67677e-05
12 *1023:A *1026:C1 1.08758e-05
13 *1023:A *157:23 9.80943e-06
14 *1032:A2 *1030:A1 8.40269e-05
15 *1032:A2 *1030:A2 2.20732e-05
16 *1032:A2 *1032:B1 3.26889e-05
17 *1032:A2 *1032:C1 0.000170792
18 *150:8 *1026:C1 7.21296e-06
19 *150:8 *1029:A1 2.23485e-05
20 *150:8 *157:14 0
21 *150:10 *1026:C1 2.25075e-05
22 *150:10 *1029:A1 3.86529e-05
23 *1001:A2 *150:8 0
24 *1026:A1 *1023:A 0.00022649
25 *1026:A1 *150:8 0.000121142
26 *1031:A1 *1032:A2 0
27 *144:20 *150:8 0
*RES
1 *992:X *150:8 6.255 
2 *150:8 *150:10 0.87 
3 *150:10 *993:D 6.96 
4 *150:10 *1032:A2 6.84 
5 *150:8 *1023:A 7.53 
*END

*D_NET *151 0.00144615
*CONN
*I *1002:A1 I *D sky130_fd_sc_hd__a21o_1
*I *1020:A I *D sky130_fd_sc_hd__and3_1
*I *993:X O *D sky130_fd_sc_hd__and4_1
*CAP
1 *1002:A1 0
2 *1020:A 0.000205039
3 *993:X 0.000117785
4 *151:10 0.000322824
5 *1020:A *1002:B1 5.26765e-05
6 *1020:A *1020:C 7.19114e-05
7 *1020:A *1031:B1_N 9.92891e-05
8 *1020:A *1040:B1 3.59531e-06
9 *1020:A *1067:RESET_B 2.88357e-05
10 *1020:A *160:8 0
11 *1020:A *183:10 5.53249e-06
12 *1020:A *212:88 0
13 *151:10 *1002:B1 8.76033e-05
14 *151:10 *1029:A2 8.69182e-05
15 *151:10 *183:10 5.20968e-05
16 *993:B *151:10 8.49205e-05
17 *993:C *151:10 0.000122337
18 *144:20 *1020:A 0.000104787
*RES
1 *993:X *151:10 6.9 
2 *151:10 *1020:A 8.49 
3 *151:10 *1002:A1 3.6 
*END

*D_NET *152 0.000618042
*CONN
*I *997:A I *D sky130_fd_sc_hd__and3_1
*I *1042:A1 I *D sky130_fd_sc_hd__a21o_1
*I *994:Y O *D sky130_fd_sc_hd__inv_2
*CAP
1 *997:A 5.00621e-05
2 *1042:A1 0
3 *994:Y 9.04119e-05
4 *152:12 0.000140474
5 *997:A *997:B 2.0187e-05
6 *997:A *1042:B1 1.14192e-05
7 *997:A *153:8 2.21074e-05
8 *152:12 *154:8 8.46768e-05
9 *152:12 *245:72 7.01359e-05
10 *994:A *997:A 5.824e-05
11 *994:A *152:12 7.03276e-05
*RES
1 *994:Y *152:12 7.265 
2 *152:12 *1042:A1 1.6 
3 *152:12 *997:A 2.755 
*END

*D_NET *153 0.000925238
*CONN
*I *997:B I *D sky130_fd_sc_hd__and3_1
*I *1042:A2 I *D sky130_fd_sc_hd__a21o_1
*I *995:X O *D sky130_fd_sc_hd__a22o_1
*CAP
1 *997:B 0.000158878
2 *1042:A2 1.71319e-05
3 *995:X 0.000141665
4 *153:8 0.000317675
5 *153:8 *995:A1 5.83121e-06
6 *153:8 *1042:B1 8.35068e-05
7 *153:8 *1043:A3 1.35324e-05
8 *994:A *997:B 5.49536e-05
9 *994:A *1042:A2 4.46772e-06
10 *997:A *997:B 2.0187e-05
11 *997:A *153:8 2.21074e-05
12 *1018:A *997:B 8.53011e-05
*RES
1 *995:X *153:8 4.135 
2 *153:8 *1042:A2 1.96 
3 *153:8 *997:B 4.84 
*END

*D_NET *154 0.00234248
*CONN
*I *997:C I *D sky130_fd_sc_hd__and3_1
*I *1037:A I *D sky130_fd_sc_hd__inv_2
*I *1042:B1 I *D sky130_fd_sc_hd__a21o_1
*I *996:X O *D sky130_fd_sc_hd__and4_1
*CAP
1 *997:C 4.53237e-05
2 *1037:A 0.000133128
3 *1042:B1 0.000202885
4 *996:X 0.000161247
5 *154:29 0.000178452
6 *154:8 0.000364132
7 *997:C *1041:A 3.54721e-05
8 *1037:A *1022:A3 7.63515e-05
9 *1037:A *1041:A 4.28112e-06
10 *1037:A *160:8 0
11 *1042:B1 *245:72 5.56085e-05
12 *154:8 *996:D 4.66108e-05
13 *154:8 *1041:A 0.000100769
14 *154:8 *1067:RESET_B 7.37072e-05
15 *154:8 *245:107 4.77757e-05
16 *994:A *997:C 5.83121e-06
17 *994:A *1042:B1 7.03219e-05
18 *994:A *154:8 0.000158547
19 *997:A *1042:B1 1.14192e-05
20 *1018:A *997:C 3.33212e-06
21 *127:10 *997:C 6.06948e-05
22 *127:10 *1037:A 0.000237249
23 *127:10 *1042:B1 0.000101159
24 *152:12 *154:8 8.46768e-05
25 *153:8 *1042:B1 8.35068e-05
*RES
1 *996:X *154:8 5.86 
2 *154:8 *1042:B1 9.47 
3 *154:8 *154:29 2 
4 *154:29 *1037:A 6.51 
5 *154:29 *997:C 4.635 
*END

*D_NET *155 0.00177515
*CONN
*I *998:B I *D sky130_fd_sc_hd__and2_1
*I *1018:B I *D sky130_fd_sc_hd__nor2_1
*I *1041:A I *D sky130_fd_sc_hd__inv_2
*I *997:X O *D sky130_fd_sc_hd__and3_1
*CAP
1 *998:B 0.000228084
2 *1018:B 2.04889e-05
3 *1041:A 0.000133053
4 *997:X 0
5 *155:23 0.000364473
6 *155:4 0.000248953
7 *998:B *1019:B 4.23008e-05
8 *998:B *177:8 4.66108e-05
9 *1041:A *1067:RESET_B 0.000157937
10 *155:23 *1019:B 2.69153e-05
11 *994:A *155:23 1.16236e-05
12 *997:C *1041:A 3.54721e-05
13 *998:A *998:B 0.000144913
14 *1018:A *155:23 0.00012398
15 *1037:A *1041:A 4.28112e-06
16 *144:20 *998:B 8.52972e-05
17 *154:8 *1041:A 0.000100769
*RES
1 *997:X *155:4 1.6 
2 *155:4 *1041:A 8.57 
3 *155:4 *155:23 2.19 
4 *155:23 *1018:B 1.96 
5 *155:23 *998:B 5.86 
*END

*D_NET *156 0.000479541
*CONN
*I *1025:A I *D sky130_fd_sc_hd__inv_2
*I *1002:A2 I *D sky130_fd_sc_hd__a21o_1
*I *998:X O *D sky130_fd_sc_hd__and2_1
*CAP
1 *1025:A 0
2 *1002:A2 5.9287e-05
3 *998:X 9.36615e-05
4 *156:14 0.000152949
5 *1002:A2 *183:10 4.80058e-05
6 *156:14 *1031:B1_N 6.47357e-05
7 *156:14 *1033:C 9.12494e-06
8 *156:14 *1033:D_N 3.85753e-05
9 *156:14 *183:10 1.32026e-05
*RES
1 *998:X *156:14 7.79 
2 *156:14 *1002:A2 2.74 
3 *156:14 *1025:A 1.6 
*END

*D_NET *157 0.00226456
*CONN
*I *1026:B1 I *D sky130_fd_sc_hd__o221a_1
*I *1029:A1 I *D sky130_fd_sc_hd__o21a_1
*I *1001:A3 I *D sky130_fd_sc_hd__a31o_1
*I *999:X O *D sky130_fd_sc_hd__o21a_1
*CAP
1 *1026:B1 0
2 *1029:A1 0.000123716
3 *1001:A3 0
4 *999:X 0.000294476
5 *157:23 0.000189769
6 *157:14 0.000360529
7 *1029:A1 *1031:B1_N 0.000115847
8 *1029:A1 *1033:D_N 0.00018471
9 *157:14 *1002:B1 1.48096e-05
10 *157:14 *1026:B2 0
11 *157:14 *182:8 0.0001249
12 *157:23 *1026:B2 8.95547e-06
13 *157:23 *1026:C1 7.10578e-05
14 *157:23 *182:8 0.000107415
15 *987:D *157:14 0.000189455
16 *992:B *157:14 3.18891e-05
17 *993:D *1029:A1 1.61461e-05
18 *999:B1 *157:14 3.72081e-05
19 *1023:A *157:23 9.80943e-06
20 *1026:A1 *1029:A1 9.50342e-06
21 *1026:A1 *157:14 0
22 *1026:A1 *157:23 3.70488e-05
23 *125:19 *157:14 5.53774e-05
24 *125:19 *157:23 0
25 *144:20 *157:14 0.000129365
26 *147:8 *1029:A1 9.1566e-05
27 *150:8 *1029:A1 2.23485e-05
28 *150:8 *157:14 0
29 *150:10 *1029:A1 3.86529e-05
*RES
1 *999:X *157:14 12.305 
2 *157:14 *1001:A3 1.6 
3 *157:14 *157:23 2.19 
4 *157:23 *1029:A1 9.785 
5 *157:23 *1026:B1 1.6 
*END

*D_NET *158 0.00165573
*CONN
*I *1001:B1 I *D sky130_fd_sc_hd__a31o_1
*I *1000:X O *D sky130_fd_sc_hd__o21a_1
*CAP
1 *1001:B1 0.000587792
2 *1000:X 0.000587792
3 *1001:B1 *1002:B1 5.83121e-06
4 *1001:B1 *1029:A2 7.60965e-05
5 *967:B *1001:B1 0
6 *993:B *1001:B1 1.61831e-05
7 *1000:B1 *1001:B1 1.19928e-05
8 *1028:A_N *1001:B1 9.49063e-05
9 *125:19 *1001:B1 0.000160641
10 *128:12 *1001:B1 0
11 *141:48 *1001:B1 0
12 *144:20 *1001:B1 0.000114492
*RES
1 *1000:X *1001:B1 16.35 
*END

*D_NET *159 0.00165203
*CONN
*I *1002:B1 I *D sky130_fd_sc_hd__a21o_1
*I *1001:X O *D sky130_fd_sc_hd__a31o_1
*CAP
1 *1002:B1 0.000316917
2 *1001:X 0.000316917
3 *1002:B1 *1026:C1 8.65961e-05
4 *1002:B1 *183:10 2.04147e-05
5 *993:A *1002:B1 0.000270647
6 *1001:B1 *1002:B1 5.83121e-06
7 *1020:A *1002:B1 5.26765e-05
8 *125:19 *1002:B1 1.19928e-05
9 *144:20 *1002:B1 0.00046762
10 *151:10 *1002:B1 8.76033e-05
11 *157:14 *1002:B1 1.48096e-05
*RES
1 *1001:X *1002:B1 14.94 
*END

*D_NET *160 0.00154726
*CONN
*I *1017:B I *D sky130_fd_sc_hd__xnor2_1
*I *1004:A2 I *D sky130_fd_sc_hd__a21oi_1
*I *1002:X O *D sky130_fd_sc_hd__a21o_1
*CAP
1 *1017:B 4.79579e-05
2 *1004:A2 0.000196802
3 *1002:X 0.000372168
4 *160:8 0.000616928
5 *1004:A2 *1004:B1 1.16578e-05
6 *1004:A2 *1017:A 0
7 *1004:A2 *1034:A2 0
8 *1004:A2 *1034:B1 6.07412e-05
9 *1004:A2 *212:88 0
10 *1004:A2 *277:28 4.43682e-05
11 *1017:B *1040:B2 0.000122821
12 *160:8 *1033:A 0
13 *1020:A *160:8 0
14 *1037:A *160:8 0
15 *127:10 *160:8 0
16 *141:12 *160:8 0
17 *144:20 *160:8 7.38184e-05
*RES
1 *1002:X *160:8 9.06 
2 *160:8 *1004:A2 7.095 
3 *160:8 *1017:B 4.74 
*END

*D_NET *161 0.00106679
*CONN
*I *1004:B1 I *D sky130_fd_sc_hd__a21oi_1
*I *1016:A I *D sky130_fd_sc_hd__or2b_1
*I *1003:X O *D sky130_fd_sc_hd__and2_1
*CAP
1 *1004:B1 7.76413e-05
2 *1016:A 3.69588e-05
3 *1003:X 0.000163291
4 *161:10 0.000277891
5 *1004:B1 *1034:B1 3.25831e-05
6 *1004:B1 *179:37 0.000105266
7 *1004:B1 *277:28 2.75229e-05
8 *161:10 *850:A 0
9 *161:10 *179:37 0.00022798
10 *161:10 *213:74 0
11 *1004:A1 *1004:B1 4.92096e-05
12 *1004:A1 *1016:A 4.66108e-05
13 *1004:A1 *161:10 1.0183e-05
14 *1004:A2 *1004:B1 1.16578e-05
*RES
1 *1003:X *161:10 6.54 
2 *161:10 *1016:A 4.05 
3 *161:10 *1004:B1 5.685 
*END

*D_NET *162 0.00240188
*CONN
*I *1015:A2 I *D sky130_fd_sc_hd__o211ai_2
*I *1005:S I *D sky130_fd_sc_hd__mux2_1
*I *1004:Y O *D sky130_fd_sc_hd__a21oi_1
*CAP
1 *1015:A2 0
2 *1005:S 0.000217333
3 *1004:Y 0.000399899
4 *162:10 0.000617232
5 *1005:S *163:10 0.000106854
6 *162:10 *163:10 3.32198e-05
7 *162:10 *173:10 0.000422766
8 *162:10 *277:28 0.000191232
9 *923:A *1005:S 0
10 *1003:A *162:10 6.65973e-05
11 *1005:A1 *1005:S 0.000112408
12 *1014:A2 *1005:S 1.42674e-05
13 *68:29 *1005:S 8.46818e-05
14 *80:12 *1005:S 0.000110785
15 *127:10 *162:10 2.46089e-05
*RES
1 *1004:Y *162:10 11.145 
2 *162:10 *1005:S 8.64 
3 *162:10 *1015:A2 3.6 
*END

*D_NET *163 0.00225477
*CONN
*I *1034:A1 I *D sky130_fd_sc_hd__o31a_1
*I *1022:A1 I *D sky130_fd_sc_hd__a31o_1
*I *1005:X O *D sky130_fd_sc_hd__mux2_1
*CAP
1 *1034:A1 8.44961e-05
2 *1022:A1 0
3 *1005:X 0.00034708
4 *163:10 0.000431576
5 *1034:A1 *1034:A2 0.000109488
6 *1034:A1 *1034:B1 0.000118991
7 *1034:A1 *1040:B2 7.02799e-05
8 *163:10 *1015:C1 1.63329e-05
9 *163:10 *1034:A2 9.50342e-06
10 *163:10 *1034:B1 2.30797e-05
11 *163:10 *173:10 0.000489651
12 *163:10 *179:37 0.000309722
13 *163:10 *217:98 0
14 *163:10 *307:108 0
15 *1005:S *163:10 0.000106854
16 *68:41 *163:10 3.54721e-05
17 *80:12 *163:10 6.90254e-05
18 *162:10 *163:10 3.32198e-05
*RES
1 *1005:X *163:10 12.15 
2 *163:10 *1022:A1 3.6 
3 *163:10 *1034:A1 6.15 
*END

*D_NET *164 0.000954723
*CONN
*I *1008:A3 I *D sky130_fd_sc_hd__a31o_1
*I *1006:Y O *D sky130_fd_sc_hd__nand2_1
*CAP
1 *1008:A3 0.000186117
2 *1006:Y 0.000186117
3 *1008:A3 *901:A 2.49909e-05
4 *1008:A3 *1008:A1 0.000121659
5 *1008:A3 *1008:B1 4.02502e-05
6 *1008:A3 *249:14 2.86784e-05
7 *1008:A3 *249:18 8.23457e-05
8 *1008:A3 *309:59 0.000118081
9 *59:6 *1008:A3 8.41384e-05
10 *59:25 *1008:A3 8.23457e-05
*RES
1 *1006:Y *1008:A3 7.46 
*END

*D_NET *165 0.00120512
*CONN
*I *1021:B I *D sky130_fd_sc_hd__and2_1
*I *1008:B1 I *D sky130_fd_sc_hd__a31o_1
*I *1007:Y O *D sky130_fd_sc_hd__o21ai_1
*CAP
1 *1021:B 0.000136333
2 *1008:B1 4.96903e-05
3 *1007:Y 0.000204018
4 *165:14 0.000390041
5 *1008:B1 *1008:A1 4.77769e-05
6 *1008:B1 *249:14 4.77769e-05
7 *165:14 *924:B 6.56522e-05
8 *165:14 *1007:A1 2.31229e-05
9 *165:14 *246:70 0
10 *918:A_N *1021:B 8.53011e-05
11 *1007:A2 *165:14 0.000115162
12 *1008:A3 *1008:B1 4.02502e-05
*RES
1 *1007:Y *165:14 9.155 
2 *165:14 *1008:B1 2.74 
3 *165:14 *1021:B 3.775 
*END

*D_NET *166 0.000557764
*CONN
*I *1009:S I *D sky130_fd_sc_hd__mux2_1
*I *1008:X O *D sky130_fd_sc_hd__a31o_1
*CAP
1 *1009:S 0.000163302
2 *1008:X 0.000163302
3 *1009:S *900:B 5.21904e-05
4 *1009:S *924:B 7.1624e-05
5 *1009:S *311:62 0.000104652
6 *59:25 *1009:S 2.69443e-06
*RES
1 *1008:X *1009:S 10.515 
*END

*D_NET *167 0.00257591
*CONN
*I *1013:A I *D sky130_fd_sc_hd__nand2_1
*I *1014:B1 I *D sky130_fd_sc_hd__o22a_1
*I *1009:X O *D sky130_fd_sc_hd__mux2_1
*CAP
1 *1013:A 0.000291471
2 *1014:B1 0
3 *1009:X 0.00046783
4 *167:8 0.000759301
5 *1013:A *1013:B 0.000372524
6 *1013:A *223:16 3.5678e-06
7 *167:8 *1009:A0 0.000160319
8 *167:8 *1015:C1 3.56402e-05
9 *167:8 *1078:A 6.91124e-05
10 *167:8 *1079:A 0.000151873
11 *1077:A *1013:A 2.88888e-05
12 *1077:A *167:8 0.000235378
*RES
1 *1009:X *167:8 11.29 
2 *167:8 *1014:B1 1.6 
3 *167:8 *1013:A 7.765 
*END

*D_NET *168 0.00118376
*CONN
*I *1012:A0 I *D sky130_fd_sc_hd__mux2_1
*I *1011:B1 I *D sky130_fd_sc_hd__o21ai_1
*I *1010:Y O *D sky130_fd_sc_hd__nand2_1
*CAP
1 *1012:A0 0.000168572
2 *1011:B1 0
3 *1010:Y 1.28627e-05
4 *168:6 0.000181435
5 *1012:A0 *1012:A1 0.000439411
6 *1012:A0 *211:105 6.25091e-05
7 *1012:A0 *311:46 0.000246872
8 *168:6 *211:105 2.43929e-05
9 *1010:B *168:6 4.36983e-05
10 *1011:A1 *1012:A0 4.00541e-06
*RES
1 *1010:Y *168:6 2.395 
2 *168:6 *1011:B1 1.6 
3 *168:6 *1012:A0 11.405 
*END

*D_NET *169 0.00115811
*CONN
*I *1012:A1 I *D sky130_fd_sc_hd__mux2_1
*I *1011:Y O *D sky130_fd_sc_hd__o21ai_1
*CAP
1 *1012:A1 0.000326854
2 *1011:Y 0.000326854
3 *906:B *1012:A1 0
4 *1010:A *1012:A1 4.96849e-05
5 *1010:B *1012:A1 9.47267e-06
6 *1011:A1 *1012:A1 5.83121e-06
7 *1012:A0 *1012:A1 0.000439411
*RES
1 *1011:Y *1012:A1 12.285 
*END

*D_NET *170 0.00232719
*CONN
*I *1013:B I *D sky130_fd_sc_hd__nand2_1
*I *1014:B2 I *D sky130_fd_sc_hd__o22a_1
*I *1012:X O *D sky130_fd_sc_hd__mux2_1
*CAP
1 *1013:B 7.22631e-05
2 *1014:B2 0
3 *1012:X 0.000366667
4 *170:12 0.00043893
5 *170:12 *217:17 0.000114492
6 *170:12 *217:81 0.000170308
7 *170:12 *307:114 0.000283498
8 *170:12 *310:43 0.000427876
9 *1013:A *1013:B 0.000372524
10 *1077:A *1013:B 8.06306e-05
*RES
1 *1012:X *170:12 12.92 
2 *170:12 *1014:B2 1.6 
3 *170:12 *1013:B 4.495 
*END

*D_NET *171 0.00142319
*CONN
*I *1015:B1 I *D sky130_fd_sc_hd__o211ai_2
*I *1013:Y O *D sky130_fd_sc_hd__nand2_1
*CAP
1 *1015:B1 0.000340048
2 *1013:Y 0.000340048
3 *1015:B1 *860:A 0.000122337
4 *1015:B1 *860:B 5.03414e-05
5 *1015:B1 *874:A1 4.82863e-05
6 *1015:B1 *215:8 0.000105805
7 *1015:B1 *215:16 0.000158213
8 *1015:B1 *272:26 0.00011472
9 *68:29 *1015:B1 8.60783e-05
10 *68:41 *1015:B1 5.73111e-05
*RES
1 *1013:Y *1015:B1 14.97 
*END

*D_NET *172 0.000687349
*CONN
*I *1015:C1 I *D sky130_fd_sc_hd__o211ai_2
*I *1014:X O *D sky130_fd_sc_hd__o22a_1
*CAP
1 *1015:C1 0.000283175
2 *1014:X 0.000283175
3 *1015:C1 *307:114 0
4 *68:41 *1015:C1 6.90254e-05
5 *163:10 *1015:C1 1.63329e-05
6 *167:8 *1015:C1 3.56402e-05
*RES
1 *1014:X *1015:C1 11.415 
*END

*D_NET *173 0.00209548
*CONN
*I *1034:A2 I *D sky130_fd_sc_hd__o31a_1
*I *1022:A2 I *D sky130_fd_sc_hd__a31o_1
*I *1015:Y O *D sky130_fd_sc_hd__o211ai_2
*CAP
1 *1034:A2 0.000104246
2 *1022:A2 0
3 *1015:Y 0.000230836
4 *173:10 0.000335082
5 *1034:A2 *1022:A3 0.000192296
6 *1034:A2 *1034:B1 2.03162e-05
7 *1034:A2 *1040:B2 4.77807e-05
8 *173:10 *1022:A3 9.50342e-06
9 *173:10 *272:26 0.000124007
10 *1004:A2 *1034:A2 0
11 *1034:A1 *1034:A2 0.000109488
12 *127:10 *173:10 0
13 *162:10 *173:10 0.000422766
14 *163:10 *1034:A2 9.50342e-06
15 *163:10 *173:10 0.000489651
*RES
1 *1015:Y *173:10 10.455 
2 *173:10 *1022:A2 3.6 
3 *173:10 *1034:A2 6.45 
*END

*D_NET *174 0.000956462
*CONN
*I *1017:A I *D sky130_fd_sc_hd__xnor2_1
*I *1016:X O *D sky130_fd_sc_hd__or2b_1
*CAP
1 *1017:A 0.000251325
2 *1016:X 0.000251325
3 *1017:A *1034:B1 0
4 *1017:A *213:74 0.000280777
5 *1017:A *214:80 1.0124e-05
6 *1004:A1 *1017:A 0.000162911
7 *1004:A2 *1017:A 0
*RES
1 *1016:X *1017:A 12.105 
*END

*D_NET *175 0.000846092
*CONN
*I *1033:A I *D sky130_fd_sc_hd__or4b_1
*I *1020:B I *D sky130_fd_sc_hd__and3_1
*I *1017:Y O *D sky130_fd_sc_hd__xnor2_1
*CAP
1 *1033:A 5.70908e-05
2 *1020:B 0.000108413
3 *1017:Y 2.49363e-05
4 *175:8 0.00019044
5 *1020:B *1067:RESET_B 0.000160338
6 *1033:A *1040:B1 4.66108e-05
7 *1033:A *1067:RESET_B 4.66108e-05
8 *1033:A *212:88 6.97021e-05
9 *175:8 *1034:A3 7.03276e-05
10 *175:8 *212:88 7.1624e-05
11 *160:8 *1033:A 0
*RES
1 *1017:Y *175:8 4.47 
2 *175:8 *1020:B 5.805 
3 *175:8 *1033:A 4.92 
*END

*D_NET *176 0.000273081
*CONN
*I *1019:B I *D sky130_fd_sc_hd__xnor2_1
*I *1018:Y O *D sky130_fd_sc_hd__nor2_1
*CAP
1 *1019:B 7.80422e-05
2 *1018:Y 7.80422e-05
3 *998:B *1019:B 4.23008e-05
4 *144:20 *1019:B 4.77807e-05
5 *155:23 *1019:B 2.69153e-05
*RES
1 *1018:Y *1019:B 4.685 
*END

*D_NET *177 0.00198029
*CONN
*I *1031:B1_N I *D sky130_fd_sc_hd__o21ba_1
*I *1020:C I *D sky130_fd_sc_hd__and3_1
*I *1019:Y O *D sky130_fd_sc_hd__xnor2_1
*CAP
1 *1031:B1_N 0.000349113
2 *1020:C 0.000148522
3 *1019:Y 3.69588e-05
4 *177:8 0.000534594
5 *1020:C *1040:B1 4.77807e-05
6 *1020:C *1067:RESET_B 2.89157e-05
7 *1020:C *212:88 6.90254e-05
8 *1031:B1_N *1033:C 2.41227e-05
9 *1031:B1_N *1033:D_N 1.89097e-05
10 *1031:B1_N *183:10 7.82278e-05
11 *1031:B1_N *212:88 3.79318e-05
12 *993:D *1031:B1_N 0.00020779
13 *998:B *177:8 4.66108e-05
14 *1020:A *1020:C 7.19114e-05
15 *1020:A *1031:B1_N 9.92891e-05
16 *1029:A1 *1031:B1_N 0.000115847
17 *156:14 *1031:B1_N 6.47357e-05
*RES
1 *1019:Y *177:8 4.05 
2 *177:8 *1020:C 6.015 
3 *177:8 *1031:B1_N 11.49 
*END

*D_NET *178 0.00109188
*CONN
*I *1022:A3 I *D sky130_fd_sc_hd__a31o_1
*I *1020:X O *D sky130_fd_sc_hd__and3_1
*CAP
1 *1022:A3 0.000313573
2 *1020:X 0.000313573
3 *1022:A3 *1067:RESET_B 0.000134521
4 *1034:A2 *1022:A3 0.000192296
5 *1037:A *1022:A3 7.63515e-05
6 *127:10 *1022:A3 5.2063e-05
7 *173:10 *1022:A3 9.50342e-06
*RES
1 *1020:X *1022:A3 12.795 
*END

*D_NET *179 0.00752252
*CONN
*I *1034:B1 I *D sky130_fd_sc_hd__o31a_1
*I *1022:B1 I *D sky130_fd_sc_hd__a31o_1
*I *1045:C I *D sky130_fd_sc_hd__or3_1
*I *1021:X O *D sky130_fd_sc_hd__and2_1
*CAP
1 *1034:B1 9.88929e-05
2 *1022:B1 0
3 *1045:C 0.000738592
4 *1021:X 0
5 *179:37 0.00115658
6 *179:4 0.00179628
7 *1034:B1 *1040:B2 4.77807e-05
8 *1045:C *879:B 0.00013686
9 *1045:C *882:A 4.66108e-05
10 *1045:C *884:A 0.000420117
11 *1045:C *890:A 0.000121029
12 *1045:C *890:C 3.12916e-05
13 *1045:C *924:B 0.000177023
14 *1045:C *266:34 0.000135009
15 *1045:C *266:65 0.00012448
16 *1045:C *267:21 0.000155608
17 *1045:C *311:62 0.000255287
18 *1045:C *311:72 0.000121036
19 *179:37 *264:30 0.000372991
20 *179:37 *272:24 8.61915e-05
21 *902:C *1045:C 2.44715e-05
22 *918:A_N *179:37 9.13235e-05
23 *934:A1 *179:37 8.35106e-05
24 *1003:B *179:37 0.000273878
25 *1004:A2 *1034:B1 6.07412e-05
26 *1004:B1 *1034:B1 3.25831e-05
27 *1004:B1 *179:37 0.000105266
28 *1017:A *1034:B1 0
29 *1034:A1 *1034:B1 0.000118991
30 *1034:A2 *1034:B1 2.03162e-05
31 *55:10 *179:37 8.33066e-06
32 *74:29 *179:37 0.000120655
33 *161:10 *179:37 0.00022798
34 *163:10 *1034:B1 2.30797e-05
35 *163:10 *179:37 0.000309722
*RES
1 *1021:X *179:4 1.6 
2 *179:4 *1045:C 20.915 
3 *179:4 *179:37 25.44 
4 *179:37 *1022:B1 3.6 
5 *179:37 *1034:B1 6.195 
*END

*D_NET *180 0.00196085
*CONN
*I *1039:A2 I *D sky130_fd_sc_hd__a31o_1
*I *1043:A2 I *D sky130_fd_sc_hd__a31o_1
*I *1035:A3 I *D sky130_fd_sc_hd__a31o_1
*I *1022:X O *D sky130_fd_sc_hd__a31o_1
*CAP
1 *1039:A2 0
2 *1043:A2 5.89762e-05
3 *1035:A3 0.000175749
4 *1022:X 0.00012779
5 *180:25 0.000202083
6 *180:6 0.000446646
7 *1035:A3 *1035:B1 0.000122797
8 *1035:A3 *214:96 2.75145e-05
9 *1035:A3 *245:51 9.47972e-06
10 *1035:A3 *245:72 4.46754e-05
11 *1043:A2 *1039:A1 4.89295e-05
12 *1043:A2 *1039:A3 0.000268702
13 *1043:A2 *1043:A1 3.45187e-05
14 *1043:A2 *1043:A3 1.41095e-05
15 *1043:A2 *1043:B1 0.000121032
16 *180:6 *245:72 1.61831e-05
17 *180:6 *277:28 1.32843e-05
18 *180:25 *1035:B1 7.01303e-05
19 *180:25 *245:72 0.000158252
*RES
1 *1022:X *180:6 3.085 
2 *180:6 *1035:A3 4.84 
3 *180:6 *180:25 6.175 
4 *180:25 *1043:A2 4.12 
5 *180:25 *1039:A2 1.6 
*END

*D_NET *181 0.000405944
*CONN
*I *1026:A2 I *D sky130_fd_sc_hd__o221a_1
*I *1023:Y O *D sky130_fd_sc_hd__inv_2
*CAP
1 *1026:A2 0.000109208
2 *1023:Y 0.000109208
3 *1026:A2 *182:21 4.66108e-05
4 *1023:A *1026:A2 9.67677e-05
5 *1026:A1 *1026:A2 4.41506e-05
*RES
1 *1023:Y *1026:A2 5.375 
*END

*D_NET *182 0.00306663
*CONN
*I *1030:A1 I *D sky130_fd_sc_hd__o21ai_1
*I *1029:B1 I *D sky130_fd_sc_hd__o21a_1
*I *1026:B2 I *D sky130_fd_sc_hd__o221a_1
*I *1024:Y O *D sky130_fd_sc_hd__inv_2
*CAP
1 *1030:A1 0.000295123
2 *1029:B1 0.000103827
3 *1026:B2 1.91829e-05
4 *1024:Y 0.000364362
5 *182:21 0.000496579
6 *182:8 0.000481173
7 *1029:B1 *1027:B 7.29161e-05
8 *1030:A1 *1030:A2 7.92523e-06
9 *1030:A1 *1032:B1 0.000122801
10 *1030:A1 *1032:C1 9.80032e-06
11 *1026:A1 *182:8 7.68414e-06
12 *1026:A1 *182:21 1.47256e-05
13 *1026:A2 *182:21 4.66108e-05
14 *1032:A1 *1029:B1 4.9968e-05
15 *1032:A1 *182:21 0.000155928
16 *1032:A2 *1030:A1 8.40269e-05
17 *125:19 *182:8 8.82557e-05
18 *147:8 *1029:B1 7.4027e-05
19 *147:8 *182:21 0.000148092
20 *147:12 *1029:B1 0.000182349
21 *157:14 *1026:B2 0
22 *157:14 *182:8 0.0001249
23 *157:23 *1026:B2 8.95547e-06
24 *157:23 *182:8 0.000107415
*RES
1 *1024:Y *182:8 6.55 
2 *182:8 *1026:B2 1.96 
3 *182:8 *182:21 4.685 
4 *182:21 *1029:B1 6.51 
5 *182:21 *1030:A1 7.425 
*END

*D_NET *183 0.00275323
*CONN
*I *1026:C1 I *D sky130_fd_sc_hd__o221a_1
*I *1030:A2 I *D sky130_fd_sc_hd__o21ai_1
*I *1025:Y O *D sky130_fd_sc_hd__inv_2
*CAP
1 *1026:C1 0.00012798
2 *1030:A2 0.000479203
3 *1025:Y 0.000190488
4 *183:10 0.00079767
5 *1030:A2 *1032:C1 2.39856e-05
6 *993:A *1026:C1 2.05583e-05
7 *993:A *183:10 5.39718e-05
8 *993:D *1026:C1 6.8197e-05
9 *993:D *183:10 7.44375e-05
10 *1001:A2 *1026:C1 0.000162325
11 *1002:A2 *183:10 4.80058e-05
12 *1002:B1 *1026:C1 8.65961e-05
13 *1002:B1 *183:10 2.04147e-05
14 *1020:A *183:10 5.53249e-06
15 *1023:A *1026:C1 1.08758e-05
16 *1026:A1 *1026:C1 3.26889e-05
17 *1030:A1 *1030:A2 7.92523e-06
18 *1030:B1 *1030:A2 0.000270167
19 *1031:A2 *1030:A2 5.83121e-06
20 *1031:B1_N *183:10 7.82278e-05
21 *1032:A2 *1030:A2 2.20732e-05
22 *125:19 *1026:C1 0
23 *150:8 *1026:C1 7.21296e-06
24 *150:10 *1026:C1 2.25075e-05
25 *151:10 *183:10 5.20968e-05
26 *156:14 *183:10 1.32026e-05
27 *157:23 *1026:C1 7.10578e-05
*RES
1 *1025:Y *183:10 7.65 
2 *183:10 *1030:A2 9.225 
3 *183:10 *1026:C1 7.5 
*END

*D_NET *184 0.000581013
*CONN
*I *1027:B I *D sky130_fd_sc_hd__nor2_1
*I *1026:X O *D sky130_fd_sc_hd__o221a_1
*CAP
1 *1027:B 0.000223942
2 *1026:X 0.000223942
3 *1029:B1 *1027:B 7.29161e-05
4 *1032:A1 *1027:B 6.02123e-05
*RES
1 *1026:X *1027:B 10.875 
*END

*D_NET *185 0.00124154
*CONN
*I *1033:B I *D sky130_fd_sc_hd__or4b_1
*I *1027:Y O *D sky130_fd_sc_hd__nor2_1
*CAP
1 *1033:B 0.000551232
2 *1027:Y 0.000551232
3 *1033:B *1033:C 0
4 *1033:B *1040:B2 2.66696e-05
5 *1033:B *1067:RESET_B 0.000112408
*RES
1 *1027:Y *1033:B 15.81 
*END

*D_NET *186 0.0010708
*CONN
*I *1029:A2 I *D sky130_fd_sc_hd__o21a_1
*I *1028:X O *D sky130_fd_sc_hd__and2b_1
*CAP
1 *1029:A2 0.00024404
2 *1028:X 0.00024404
3 *993:B *1029:A2 0.000387891
4 *993:C *1029:A2 3.18147e-05
5 *1001:B1 *1029:A2 7.60965e-05
6 *151:10 *1029:A2 8.69182e-05
*RES
1 *1028:X *1029:A2 8.825 
*END

*D_NET *187 0.001498
*CONN
*I *1033:C I *D sky130_fd_sc_hd__or4b_1
*I *1029:X O *D sky130_fd_sc_hd__o21a_1
*CAP
1 *1033:C 0.000412806
2 *1029:X 0.000412806
3 *1033:C *1033:D_N 0.000343492
4 *1033:C *1040:B1 4.77769e-05
5 *1033:C *1067:RESET_B 4.89395e-05
6 *1033:C *212:88 7.27521e-05
7 *993:C *1033:C 1.08758e-05
8 *998:A *1033:C 6.81992e-05
9 *1027:A *1033:C 4.7101e-05
10 *1031:B1_N *1033:C 2.41227e-05
11 *1033:B *1033:C 0
12 *156:14 *1033:C 9.12494e-06
*RES
1 *1029:X *1033:C 19.495 
*END

*D_NET *188 0.000299501
*CONN
*I *1032:B1 I *D sky130_fd_sc_hd__o211a_1
*I *1030:Y O *D sky130_fd_sc_hd__o21ai_1
*CAP
1 *1032:B1 3.73963e-05
2 *1030:Y 3.73963e-05
3 *1032:B1 *1032:C1 5.39837e-05
4 *1030:A1 *1032:B1 0.000122801
5 *1030:B1 *1032:B1 1.52352e-05
6 *1032:A2 *1032:B1 3.26889e-05
*RES
1 *1030:Y *1032:B1 4.7 
*END

*D_NET *189 0.000709602
*CONN
*I *1032:C1 I *D sky130_fd_sc_hd__o211a_1
*I *1031:X O *D sky130_fd_sc_hd__o21ba_1
*CAP
1 *1032:C1 0.000107785
2 *1031:X 0.000107785
3 *1030:A1 *1032:C1 9.80032e-06
4 *1030:A2 *1032:C1 2.39856e-05
5 *1030:B1 *1032:C1 0.000235471
6 *1032:A2 *1032:C1 0.000170792
7 *1032:B1 *1032:C1 5.39837e-05
*RES
1 *1031:X *1032:C1 6.89 
*END

*D_NET *190 0.00151948
*CONN
*I *1033:D_N I *D sky130_fd_sc_hd__or4b_1
*I *1032:X O *D sky130_fd_sc_hd__o211a_1
*CAP
1 *1033:D_N 0.000369977
2 *1032:X 0.000369977
3 *1033:D_N *1040:B2 9.12494e-06
4 *1029:A1 *1033:D_N 0.00018471
5 *1031:B1_N *1033:D_N 1.89097e-05
6 *1033:C *1033:D_N 0.000343492
7 *147:12 *1033:D_N 0.00018471
8 *156:14 *1033:D_N 3.85753e-05
*RES
1 *1032:X *1033:D_N 15.765 
*END

*D_NET *191 0.000905659
*CONN
*I *1034:A3 I *D sky130_fd_sc_hd__o31a_1
*I *1033:X O *D sky130_fd_sc_hd__or4b_1
*CAP
1 *1034:A3 0.000265907
2 *1033:X 0.000265907
3 *1034:A3 *1040:B2 0.000303517
4 *175:8 *1034:A3 7.03276e-05
*RES
1 *1033:X *1034:A3 11.295 
*END

*D_NET *192 0.00173404
*CONN
*I *1035:B1 I *D sky130_fd_sc_hd__a31o_1
*I *1039:B1 I *D sky130_fd_sc_hd__a31o_1
*I *1043:B1 I *D sky130_fd_sc_hd__a31o_1
*I *1034:X O *D sky130_fd_sc_hd__o31a_1
*CAP
1 *1035:B1 8.83597e-05
2 *1039:B1 0
3 *1043:B1 2.56693e-05
4 *1034:X 0.000119516
5 *192:18 0.000164052
6 *192:10 0.000346258
7 *1035:B1 *245:72 0.000144883
8 *1043:B1 *1043:A1 0.000121032
9 *192:10 *1039:A1 7.46112e-05
10 *192:10 *1039:A3 1.99109e-05
11 *192:10 *1040:B2 0.000158564
12 *192:18 *996:D 3.3505e-05
13 *192:18 *1039:A3 0.000121151
14 *192:18 *245:72 2.56752e-06
15 *1035:A3 *1035:B1 0.000122797
16 *1043:A2 *1043:B1 0.000121032
17 *180:25 *1035:B1 7.01303e-05
*RES
1 *1034:X *192:10 4.24 
2 *192:10 *192:18 6.01 
3 *192:18 *1043:B1 2.74 
4 *192:18 *1039:B1 1.6 
5 *192:10 *1035:B1 8.12 
*END

*D_NET *193 0.00524194
*CONN
*I *1036:B2 I *D sky130_fd_sc_hd__a22o_1
*I *1035:X O *D sky130_fd_sc_hd__a31o_1
*CAP
1 *1036:B2 0.00183611
2 *1035:X 0.00183611
3 *1036:B2 *974:D 2.27064e-05
4 *1036:B2 *996:D 8.54576e-05
5 *1036:B2 *1036:A1 0.000328012
6 *1036:B2 *1036:A2 7.61531e-05
7 *1036:B2 *1036:B1 2.91756e-05
8 *1036:B2 *1043:A3 6.90254e-05
9 *1036:B2 *1044:A2 0.000196669
10 *1036:B2 *1044:B2 3.83194e-05
11 *1036:B2 *1067:RESET_B 0.000412992
12 *1036:B2 *1089:A 1.56428e-05
13 *1036:B2 *213:74 0
14 *1036:B2 *214:96 5.64768e-05
15 *1036:B2 *247:94 9.55262e-06
16 *1036:B2 *277:14 1.28996e-05
17 *925:B *1036:B2 1.07743e-05
18 *1065:D *1036:B2 4.72986e-05
19 *83:20 *1036:B2 0.000158564
*RES
1 *1035:X *1036:B2 36.715 
*END

*D_NET *194 0.000455463
*CONN
*I *1039:A1 I *D sky130_fd_sc_hd__a31o_1
*I *1037:Y O *D sky130_fd_sc_hd__inv_2
*CAP
1 *1039:A1 7.56868e-05
2 *1037:Y 7.56868e-05
3 *1039:A1 *1039:A3 2.20014e-05
4 *1039:A1 *1043:A1 0.000158547
5 *1043:A2 *1039:A1 4.89295e-05
6 *192:10 *1039:A1 7.46112e-05
*RES
1 *1037:Y *1039:A1 5.375 
*END

*D_NET *195 0.00103044
*CONN
*I *1039:A3 I *D sky130_fd_sc_hd__a31o_1
*I *1038:X O *D sky130_fd_sc_hd__a22o_1
*CAP
1 *1039:A3 0.000246284
2 *1038:X 0.000246284
3 *1039:A3 *1040:B2 0
4 *1039:A3 *1043:A3 1.16854e-05
5 *1039:A3 *214:96 9.44179e-05
6 *1039:A1 *1039:A3 2.20014e-05
7 *1043:A2 *1039:A3 0.000268702
8 *192:10 *1039:A3 1.99109e-05
9 *192:18 *1039:A3 0.000121151
*RES
1 *1038:X *1039:A3 8.165 
*END

*D_NET *196 0.00210214
*CONN
*I *1040:B2 I *D sky130_fd_sc_hd__a22o_1
*I *1039:X O *D sky130_fd_sc_hd__a31o_1
*CAP
1 *1040:B2 0.000657799
2 *1039:X 0.000657799
3 *1017:B *1040:B2 0.000122821
4 *1033:B *1040:B2 2.66696e-05
5 *1033:D_N *1040:B2 9.12494e-06
6 *1034:A1 *1040:B2 7.02799e-05
7 *1034:A2 *1040:B2 4.77807e-05
8 *1034:A3 *1040:B2 0.000303517
9 *1034:B1 *1040:B2 4.77807e-05
10 *1039:A3 *1040:B2 0
11 *192:10 *1040:B2 0.000158564
*RES
1 *1039:X *1040:B2 19.02 
*END

*D_NET *197 0.000924834
*CONN
*I *1043:A1 I *D sky130_fd_sc_hd__a31o_1
*I *1041:Y O *D sky130_fd_sc_hd__inv_2
*CAP
1 *1043:A1 0.000234248
2 *1041:Y 0.000234248
3 *1043:A1 *1043:A3 6.53683e-05
4 *1043:A1 *245:72 3.79351e-05
5 *1039:A1 *1043:A1 0.000158547
6 *1043:A2 *1043:A1 3.45187e-05
7 *1043:B1 *1043:A1 0.000121032
8 *127:10 *1043:A1 3.89366e-05
*RES
1 *1041:Y *1043:A1 12 
*END

*D_NET *198 0.00120343
*CONN
*I *1043:A3 I *D sky130_fd_sc_hd__a31o_1
*I *1042:X O *D sky130_fd_sc_hd__a21o_1
*CAP
1 *1043:A3 0.00034644
2 *1042:X 0.00034644
3 *1043:A3 *995:A1 8.23457e-05
4 *1043:A3 *996:C 1.3156e-05
5 *1043:A3 *996:D 0.000132834
6 *1043:A3 *213:54 0
7 *1043:A3 *245:72 0
8 *1043:A3 *245:107 6.90254e-05
9 *983:D *1043:A3 9.12494e-06
10 *1036:B2 *1043:A3 6.90254e-05
11 *1039:A3 *1043:A3 1.16854e-05
12 *1043:A1 *1043:A3 6.53683e-05
13 *1043:A2 *1043:A3 1.41095e-05
14 *140:10 *1043:A3 3.03465e-05
15 *153:8 *1043:A3 1.35324e-05
*RES
1 *1042:X *1043:A3 13.005 
*END

*D_NET *199 0.00330178
*CONN
*I *1044:B2 I *D sky130_fd_sc_hd__a22o_1
*I *1043:X O *D sky130_fd_sc_hd__a31o_1
*CAP
1 *1044:B2 0.000972179
2 *1043:X 0.000972179
3 *1044:B2 *911:B 0.000115861
4 *1044:B2 *912:B2 7.58267e-05
5 *1044:B2 *982:B1 0.000162335
6 *1044:B2 *1038:A2 6.92161e-05
7 *1044:B2 *1044:A2 4.77719e-05
8 *1044:B2 *1067:RESET_B 4.88478e-05
9 *1044:B2 *211:50 4.66108e-05
10 *1044:B2 *214:96 2.27064e-05
11 *1044:B2 *244:33 0.000134065
12 *1044:B2 *265:51 1.54665e-05
13 *1044:B2 *265:68 0.000119247
14 *1044:B2 *280:10 0.000194284
15 *1044:B2 *296:86 0
16 *926:B1 *1044:B2 1.54665e-05
17 *1036:B2 *1044:B2 3.83194e-05
18 *69:8 *1044:B2 8.23457e-05
19 *69:14 *1044:B2 3.34271e-05
20 *70:6 *1044:B2 4.66108e-05
21 *70:10 *1044:B2 8.9013e-05
*RES
1 *1043:X *1044:B2 22.635 
*END

*D_NET *200 0.000801968
*CONN
*I *1046:B1_N I *D sky130_fd_sc_hd__a21bo_1
*I *1045:X O *D sky130_fd_sc_hd__or3_1
*CAP
1 *1046:B1_N 0.000282739
2 *1045:X 0.000282739
3 *1046:B1_N *211:10 9.19433e-05
4 *1046:B1_N *243:65 0.000120417
5 *1046:B1_N *281:10 2.41307e-05
*RES
1 *1045:X *1046:B1_N 11.94 
*END

*D_NET *201 0.00053383
*CONN
*I *1048:B1 I *D sky130_fd_sc_hd__a31o_1
*I *1047:X O *D sky130_fd_sc_hd__and2_1
*CAP
1 *1048:B1 0.00025972
2 *1047:X 0.00025972
3 *1048:B1 *849:A 1.4389e-05
4 *1048:B1 *1060:A1 0
5 *1048:B1 *1092:A 0
*RES
1 *1047:X *1048:B1 11.07 
*END

*D_NET *202 0.00012285
*CONN
*I *1050:B1 I *D sky130_fd_sc_hd__a31o_1
*I *1049:X O *D sky130_fd_sc_hd__and2_1
*CAP
1 *1050:B1 4.6406e-05
2 *1049:X 4.6406e-05
3 *1050:B1 *1049:A 3.00381e-05
*RES
1 *1049:X *1050:B1 3.995 
*END

*D_NET *203 0.000207609
*CONN
*I *1052:B1 I *D sky130_fd_sc_hd__a31o_1
*I *1051:X O *D sky130_fd_sc_hd__and2_1
*CAP
1 *1052:B1 6.11542e-05
2 *1051:X 6.11542e-05
3 *1052:B1 *211:128 8.53011e-05
*RES
1 *1051:X *1052:B1 4.34 
*END

*D_NET *204 0.000103961
*CONN
*I *1054:B1 I *D sky130_fd_sc_hd__a31o_1
*I *1053:X O *D sky130_fd_sc_hd__and2_1
*CAP
1 *1054:B1 5.19806e-05
2 *1053:X 5.19806e-05
*RES
1 *1053:X *1054:B1 3.995 
*END

*D_NET *205 0.000822246
*CONN
*I *1056:B1 I *D sky130_fd_sc_hd__a31o_1
*I *1055:X O *D sky130_fd_sc_hd__and2_1
*CAP
1 *1056:B1 0.00016545
2 *1055:X 0.00016545
3 *1056:B1 *870:B1 1.19028e-05
4 *1056:B1 *1055:A 0.000203082
5 *1056:B1 *209:16 5.53249e-06
6 *1056:B1 *209:22 0.00016084
7 *1056:B1 *211:122 0.000109989
*RES
1 *1055:X *1056:B1 11.415 
*END

*D_NET *206 0.000918126
*CONN
*I *1058:B1 I *D sky130_fd_sc_hd__a31o_1
*I *1057:X O *D sky130_fd_sc_hd__and2_1
*CAP
1 *1058:B1 0.000153865
2 *1057:X 0.000153865
3 *1058:B1 *1074:RESET_B 0.000116151
4 *1058:B1 *209:45 7.63883e-05
5 *1058:B1 *209:58 0.000249914
6 *1058:B1 *265:10 8.55971e-05
7 *1058:B1 *276:22 8.23457e-05
*RES
1 *1057:X *1058:B1 11.67 
*END

*D_NET *207 0.00121477
*CONN
*I *1060:B1 I *D sky130_fd_sc_hd__a31o_1
*I *1059:X O *D sky130_fd_sc_hd__and2_1
*CAP
1 *1060:B1 0.000171084
2 *1059:X 0.000171084
3 *1060:B1 *1060:A1 0.000557311
4 *1060:B1 *1093:A 0
5 *1060:B1 *243:24 0.000272899
6 *1069:D *1060:B1 4.23878e-05
*RES
1 *1059:X *1060:B1 13.14 
*END

*D_NET *208 0.000357054
*CONN
*I *1062:B1 I *D sky130_fd_sc_hd__a31o_1
*I *1061:X O *D sky130_fd_sc_hd__and2_1
*CAP
1 *1062:B1 6.26557e-05
2 *1061:X 6.26557e-05
3 *1062:B1 *1062:A1 2.75229e-05
4 *1062:B1 *209:32 9.3553e-05
5 *1062:B1 *243:42 6.20248e-05
6 *1062:B1 *265:10 4.86422e-05
*RES
1 *1061:X *1062:B1 9.135 
*END

*D_NET *209 0.0150415
*CONN
*I *1054:A2 I *D sky130_fd_sc_hd__a31o_1
*I *1052:A2 I *D sky130_fd_sc_hd__a31o_1
*I *1050:A2 I *D sky130_fd_sc_hd__a31o_1
*I *1056:A2 I *D sky130_fd_sc_hd__a31o_1
*I *1048:A2 I *D sky130_fd_sc_hd__a31o_1
*I *1060:A2 I *D sky130_fd_sc_hd__a31o_1
*I *880:A2 I *D sky130_fd_sc_hd__o21ba_1
*I *845:A I *D sky130_fd_sc_hd__inv_2
*I *1058:A2 I *D sky130_fd_sc_hd__a31o_1
*I *1062:A2 I *D sky130_fd_sc_hd__a31o_1
*I *844:X O *D sky130_fd_sc_hd__clkbuf_4
*CAP
1 *1054:A2 0.000313254
2 *1052:A2 0
3 *1050:A2 3.28883e-05
4 *1056:A2 0
5 *1048:A2 2.0132e-05
6 *1060:A2 2.0132e-05
7 *880:A2 0.000204382
8 *845:A 6.69629e-05
9 *1058:A2 6.59044e-05
10 *1062:A2 0
11 *844:X 0
12 *209:58 0.00038298
13 *209:45 0.00034368
14 *209:32 0.000940598
15 *209:24 0.00104902
16 *209:22 0.00200863
17 *209:16 0.00184962
18 *209:14 0.000339764
19 *209:10 0.000492905
20 *209:4 0.000614835
21 *845:A *1057:B 0
22 *845:A *210:49 8.23457e-05
23 *880:A2 *1074:RESET_B 0.000196931
24 *880:A2 *211:10 0.000471901
25 *880:A2 *211:35 0.000204786
26 *880:A2 *293:66 0.000179245
27 *1050:A2 *1050:A1 2.01502e-05
28 *1050:A2 *1050:A3 1.08758e-05
29 *1054:A2 *1054:A3 0.000550707
30 *1054:A2 *211:132 0
31 *1058:A2 *1058:A1 5.83121e-06
32 *1058:A2 *211:10 1.19928e-05
33 *209:10 *844:A 2.65814e-06
34 *209:10 *1054:A3 0.000129545
35 *209:10 *211:128 3.75882e-06
36 *209:10 *211:132 0
37 *209:14 *1054:A3 1.64141e-05
38 *209:14 *211:128 0
39 *209:14 *243:121 0.000165053
40 *209:16 *211:122 8.66136e-05
41 *209:16 *211:128 0
42 *209:16 *243:110 7.00066e-05
43 *209:16 *243:121 3.05373e-05
44 *209:16 *310:28 4.38051e-05
45 *209:22 *1048:A1 0.000459885
46 *209:22 *1055:A 1.64132e-05
47 *209:22 *243:20 0.00073524
48 *209:22 *275:8 0
49 *209:22 *310:28 0.000227536
50 *209:22 *311:22 0.000168866
51 *209:24 *1060:A1 0.000347943
52 *209:24 *243:20 1.54665e-05
53 *209:24 *243:24 5.83923e-05
54 *209:32 *1061:A 0
55 *209:32 *1076:CLK 0.000139817
56 *209:32 *1076:RESET_B 0.000259505
57 *209:32 *243:24 7.18107e-06
58 *209:32 *243:42 1.77849e-05
59 *209:32 *243:48 1.22762e-05
60 *209:32 *265:10 7.78423e-05
61 *209:45 *211:10 0.000120888
62 *209:45 *243:48 3.48406e-05
63 *209:45 *265:10 4.11194e-05
64 *209:58 *1074:RESET_B 4.50017e-05
65 *209:58 *211:10 0.000324958
66 *1056:B1 *209:16 5.53249e-06
67 *1056:B1 *209:22 0.00016084
68 *1058:B1 *209:45 7.63883e-05
69 *1058:B1 *209:58 0.000249914
70 *1062:B1 *209:32 9.3553e-05
71 *1070:D *1050:A2 2.75229e-05
72 *1070:D *209:14 0.00011852
73 *1071:D *209:10 6.30072e-05
74 *1076:D *209:32 0.000106379
*RES
1 *844:X *209:4 1.6 
2 *209:4 *209:10 7.91 
3 *209:10 *209:14 4.38 
4 *209:14 *209:16 2.655 
5 *209:16 *209:22 34.46 
6 *209:22 *209:24 4.935 
7 *209:24 *209:32 13.97 
8 *209:32 *1062:A2 3.6 
9 *209:32 *209:45 3.21 
10 *209:45 *1058:A2 4.665 
11 *209:45 *209:58 3.93 
12 *209:58 *845:A 4.755 
13 *209:58 *880:A2 11.61 
14 *209:24 *1060:A2 1.96 
15 *209:22 *1048:A2 1.96 
16 *209:16 *1056:A2 3.6 
17 *209:14 *1050:A2 4.41 
18 *209:10 *1052:A2 3.6 
19 *209:4 *1054:A2 12.785 
*END

*D_NET *210 0.00579267
*CONN
*I *1057:A I *D sky130_fd_sc_hd__and2_1
*I *1045:A I *D sky130_fd_sc_hd__or3_1
*I *1059:A I *D sky130_fd_sc_hd__and2_1
*I *846:A I *D sky130_fd_sc_hd__buf_2
*I *1061:A I *D sky130_fd_sc_hd__and2_1
*I *845:Y O *D sky130_fd_sc_hd__inv_2
*CAP
1 *1057:A 0
2 *1045:A 4.65727e-05
3 *1059:A 0.000279397
4 *846:A 9.03513e-05
5 *1061:A 0.000152459
6 *845:Y 0
7 *210:49 0.000139689
8 *210:23 0.000449801
9 *210:8 0.000433723
10 *210:6 0.000294327
11 *846:A *1126:A 0
12 *846:A *265:10 0.000157595
13 *1045:A *1074:RESET_B 0.000180893
14 *1045:A *265:51 0.000180893
15 *1059:A *849:A 0.000289165
16 *1059:A *1059:B 7.22354e-05
17 *1059:A *1062:A1 0.000782763
18 *1059:A *211:88 0.000613749
19 *1061:A *243:48 5.39961e-05
20 *210:8 *243:48 0.000162318
21 *210:8 *243:65 0.000288244
22 *210:8 *263:10 0
23 *210:23 *849:A 0.000307043
24 *210:23 *1062:A1 0.000124007
25 *210:23 *243:42 1.6408e-05
26 *210:23 *243:48 5.05521e-05
27 *210:49 *1057:B 8.40213e-05
28 *210:49 *243:65 5.16348e-05
29 *210:49 *263:10 0
30 *210:49 *276:22 0.000233727
31 *845:A *210:49 8.23457e-05
32 *1074:D *210:8 3.68682e-05
33 *1076:D *1061:A 0.000137895
34 *1094:A *1061:A 0
35 *209:32 *1061:A 0
*RES
1 *845:Y *210:6 3.6 
2 *210:6 *210:8 5.205 
3 *210:8 *1061:A 6.705 
4 *210:8 *210:23 4.865 
5 *210:23 *846:A 7.49 
6 *210:23 *1059:A 11.725 
7 *210:6 *210:49 4.79 
8 *210:49 *1045:A 7.745 
9 *210:49 *1057:A 1.6 
*END

*D_NET *211 0.023417
*CONN
*I *1049:A I *D sky130_fd_sc_hd__and2_1
*I *1051:A I *D sky130_fd_sc_hd__and2_1
*I *1040:A1 I *D sky130_fd_sc_hd__a22o_1
*I *1053:A I *D sky130_fd_sc_hd__and2_1
*I *1055:A I *D sky130_fd_sc_hd__and2_1
*I *1047:A I *D sky130_fd_sc_hd__and2_1
*I *1044:A1 I *D sky130_fd_sc_hd__a22o_1
*I *1036:A1 I *D sky130_fd_sc_hd__a22o_1
*I *879:A I *D sky130_fd_sc_hd__nor2_1
*I *1046:A1 I *D sky130_fd_sc_hd__a21bo_1
*I *846:X O *D sky130_fd_sc_hd__buf_2
*CAP
1 *1049:A 0.000137357
2 *1051:A 0
3 *1040:A1 0.000755874
4 *1053:A 2.43388e-05
5 *1055:A 0.000173388
6 *1047:A 0
7 *1044:A1 0
8 *1036:A1 0.000235433
9 *879:A 1.65033e-05
10 *1046:A1 2.89741e-05
11 *846:X 0
12 *211:132 0.00133365
13 *211:128 0.000894314
14 *211:122 0.000691932
15 *211:105 0.00149169
16 *211:88 0.00202858
17 *211:50 0.000537145
18 *211:35 0.000834345
19 *211:10 0.00104083
20 *211:4 0.00141971
21 *879:A *1120:A 2.49909e-05
22 *879:A *261:91 4.66108e-05
23 *1036:A1 *1044:A2 4.97148e-05
24 *1036:A1 *277:14 0.000158337
25 *1040:A1 *1040:A2 0.000459807
26 *1040:A1 *1067:RESET_B 2.01565e-05
27 *1040:A1 *1117:A 0.000421821
28 *1046:A1 *1087:A 2.49909e-05
29 *1049:A *1049:B 5.05437e-05
30 *1049:A *1050:A1 0
31 *1053:A *1053:B 2.69217e-05
32 *1055:A *870:B1 0.000221883
33 *1055:A *1055:B 8.64599e-05
34 *1055:A *1073:RESET_B 0
35 *211:10 *1058:A1 0.000268838
36 *211:10 *243:48 7.87426e-05
37 *211:10 *243:65 0.000534401
38 *211:10 *281:10 0
39 *211:35 *879:B 0.000112284
40 *211:35 *880:A1 0.0001498
41 *211:35 *880:B1_N 0.000109825
42 *211:35 *1065:CLK 4.21314e-05
43 *211:35 *1081:A 4.66826e-05
44 *211:35 *1119:A 0
45 *211:35 *261:81 7.23602e-05
46 *211:35 *281:10 0
47 *211:50 *880:B1_N 6.15025e-06
48 *211:50 *1044:A2 3.06107e-05
49 *211:50 *1044:B1 6.65645e-05
50 *211:50 *1065:CLK 0.000179015
51 *211:50 *1120:A 2.09211e-05
52 *211:50 *244:33 0.000372467
53 *211:50 *244:35 1.7635e-05
54 *211:50 *267:91 0.000315557
55 *211:88 *849:A 0.000210775
56 *211:88 *1058:A1 0.000354377
57 *211:88 *1060:A1 0
58 *211:88 *1092:A 2.97004e-06
59 *211:88 *261:12 0
60 *211:88 *293:84 3.45117e-05
61 *211:105 *849:A 9.21005e-05
62 *211:105 *870:A2 5.90219e-05
63 *211:105 *871:A1_N 0.000270527
64 *211:105 *871:A2_N 4.75959e-05
65 *211:105 *872:B1 1.17409e-05
66 *211:105 *1047:B 4.99619e-05
67 *211:105 *1048:A1 0.000122801
68 *211:105 *1050:A1 3.67118e-05
69 *211:105 *1073:CLK 7.02326e-05
70 *211:105 *1092:A 0.000163204
71 *211:105 *213:93 8.00936e-05
72 *211:105 *214:23 0.00133432
73 *211:105 *217:126 2.10134e-05
74 *211:105 *310:28 1.54953e-05
75 *211:105 *311:32 0.000110668
76 *211:105 *311:46 0.000662828
77 *211:122 *1073:RESET_B 0
78 *211:128 *1051:B 5.09431e-05
79 *211:128 *1073:RESET_B 0
80 *211:132 *312:31 0.000708488
81 *211:132 *312:33 0.000181006
82 *880:A2 *211:10 0.000471901
83 *880:A2 *211:35 0.000204786
84 *1010:B *211:105 0.000118623
85 *1011:A1 *211:105 2.0514e-05
86 *1012:A0 *211:105 6.25091e-05
87 *1036:B2 *1036:A1 0.000328012
88 *1044:B2 *211:50 4.66108e-05
89 *1046:B1_N *211:10 9.19433e-05
90 *1050:B1 *1049:A 3.00381e-05
91 *1052:B1 *211:128 8.53011e-05
92 *1054:A2 *211:132 0
93 *1056:B1 *1055:A 0.000203082
94 *1056:B1 *211:122 0.000109989
95 *1058:A2 *211:10 1.19928e-05
96 *1059:A *211:88 0.000613749
97 *1070:D *211:128 4.70343e-05
98 *63:12 *211:105 4.21621e-05
99 *168:6 *211:105 2.43929e-05
100 *209:10 *211:128 3.75882e-06
101 *209:10 *211:132 0
102 *209:14 *211:128 0
103 *209:16 *211:122 8.66136e-05
104 *209:16 *211:128 0
105 *209:22 *1055:A 1.64132e-05
106 *209:45 *211:10 0.000120888
107 *209:58 *211:10 0.000324958
*RES
1 *846:X *211:4 1.6 
2 *211:4 *211:10 15.68 
3 *211:10 *1046:A1 4.05 
4 *211:10 *211:35 13.195 
5 *211:35 *879:A 4.05 
6 *211:35 *211:50 10.22 
7 *211:50 *1036:A1 11.075 
8 *211:50 *1044:A1 1.6 
9 *211:4 *211:88 20.99 
10 *211:88 *1047:A 1.6 
11 *211:88 *211:105 28.985 
12 *211:105 *1055:A 8.445 
13 *211:105 *211:122 4.3725 
14 *211:122 *211:128 8.1125 
15 *211:128 *211:132 14.345 
16 *211:132 *1053:A 4.05 
17 *211:132 *1040:A1 16.8 
18 *211:128 *1051:A 1.6 
19 *211:122 *1049:A 5.79 
*END

*D_NET *212 0.0157983
*CONN
*I *943:A2 I *D sky130_fd_sc_hd__a22o_1
*I *995:A2 I *D sky130_fd_sc_hd__a22o_1
*I *866:A I *D sky130_fd_sc_hd__xnor2_1
*I *1052:A1 I *D sky130_fd_sc_hd__a31o_1
*I *862:A1 I *D sky130_fd_sc_hd__o31a_1
*I *850:B I *D sky130_fd_sc_hd__or4_1
*I *983:B I *D sky130_fd_sc_hd__and4_1
*I *928:B1 I *D sky130_fd_sc_hd__a22o_1
*I *944:C I *D sky130_fd_sc_hd__nand4_2
*I *929:D I *D sky130_fd_sc_hd__nand4_1
*I *847:X O *D sky130_fd_sc_hd__clkbuf_4
*CAP
1 *943:A2 6.42126e-05
2 *995:A2 2.16365e-05
3 *866:A 0
4 *1052:A1 0.000686735
5 *862:A1 0
6 *850:B 0
7 *983:B 0
8 *928:B1 3.26341e-05
9 *944:C 8.49503e-05
10 *929:D 0.000111504
11 *847:X 0.000759016
12 *212:108 0.000822996
13 *212:97 0.000522836
14 *212:88 0.00159702
15 *212:74 0.00141751
16 *212:61 0.000880077
17 *212:42 0.000783167
18 *212:31 0.000140839
19 *212:14 0.000362143
20 *212:12 0.00107387
21 *928:B1 *928:A2 5.19006e-06
22 *929:D *944:B 0.000132821
23 *929:D *974:D 2.49909e-05
24 *929:D *1036:B1 1.78364e-05
25 *929:D *296:71 0.000127464
26 *929:D *296:86 1.08758e-05
27 *944:C *944:B 2.49909e-05
28 *944:C *213:30 0.000178714
29 *995:A2 *995:A1 4.89362e-05
30 *1052:A1 *872:B1 0
31 *1052:A1 *873:B2 0
32 *1052:A1 *874:B1 0
33 *1052:A1 *875:B1 7.1624e-05
34 *1052:A1 *876:A1 0.00027107
35 *1052:A1 *876:A2 5.13924e-05
36 *1052:A1 *876:B2 0.000131333
37 *1052:A1 *877:B2 8.48377e-05
38 *1052:A1 *1052:A3 8.41384e-05
39 *1052:A1 *231:16 2.87867e-05
40 *1052:A1 *273:16 0.000252495
41 *212:12 *296:59 0.000189269
42 *212:14 *944:B 5.05981e-05
43 *212:14 *1118:A 0
44 *212:14 *296:59 0.000478364
45 *212:14 *296:71 8.47495e-05
46 *212:42 *928:A2 3.67007e-05
47 *212:42 *928:B2 2.68526e-05
48 *212:42 *944:B 2.49909e-05
49 *212:42 *213:30 0.000182237
50 *212:61 *928:A2 2.76356e-05
51 *212:61 *983:A 4.93142e-05
52 *212:61 *213:30 0.00047351
53 *212:74 *983:A 3.7966e-05
54 *212:74 *245:93 0.000121487
55 *212:74 *245:107 7.9642e-06
56 *212:88 *850:A 0.000139245
57 *212:88 *1040:B1 0.000278971
58 *212:88 *213:74 0.000118321
59 *212:88 *213:81 2.75145e-05
60 *212:88 *245:107 1.7635e-05
61 *212:97 *862:A2 0.000186461
62 *212:97 *862:A3 5.12969e-06
63 *212:97 *213:81 9.07793e-05
64 *212:108 *873:A2 0
65 *212:108 *874:B1 0
66 *212:108 *273:16 0.000155176
67 *931:A2 *212:61 0.000155608
68 *933:A1 *212:61 2.21074e-05
69 *933:A2 *212:61 7.77289e-06
70 *938:B *212:61 3.5678e-06
71 *945:A1 *212:12 0.00012972
72 *983:D *212:74 0.000192907
73 *983:D *212:88 1.84465e-05
74 *1004:A2 *212:88 0
75 *1020:A *212:88 0
76 *1020:C *212:88 6.90254e-05
77 *1031:B1_N *212:88 3.79318e-05
78 *1033:A *212:88 6.97021e-05
79 *1033:C *212:88 7.27521e-05
80 *86:14 *212:61 1.34687e-05
81 *87:10 *212:14 0
82 *87:23 *212:14 0
83 *89:6 *212:61 3.56402e-05
84 *89:15 *212:61 1.45348e-05
85 *90:18 *212:61 2.82864e-05
86 *96:10 *212:61 0.000156778
87 *98:14 *212:14 0
88 *101:12 *212:12 0.000157466
89 *102:20 *943:A2 8.23457e-05
90 *102:20 *212:12 3.19564e-05
91 *112:14 *212:12 3.6227e-05
92 *116:10 *943:A2 2.10152e-05
93 *119:8 *212:12 0.000638533
94 *141:8 *212:74 1.14169e-05
95 *175:8 *212:88 7.1624e-05
*RES
1 *847:X *212:12 15.735 
2 *212:12 *212:14 6.48 
3 *212:14 *929:D 6.495 
4 *212:14 *212:31 2 
5 *212:31 *944:C 3.7 
6 *212:31 *212:42 1.83 
7 *212:42 *928:B1 2.215 
8 *212:42 *212:61 12.945 
9 *212:61 *983:B 1.6 
10 *212:61 *212:74 6.245 
11 *212:74 *212:88 12.5497 
12 *212:88 *850:B 1.6 
13 *212:88 *212:97 5.46 
14 *212:97 *862:A1 1.6 
15 *212:97 *212:108 4.685 
16 *212:108 *1052:A1 16.575 
17 *212:108 *866:A 3.6 
18 *212:74 *995:A2 4.05 
19 *212:12 *943:A2 4.74 
*END

*D_NET *213 0.0159952
*CONN
*I *944:D I *D sky130_fd_sc_hd__nand4_2
*I *996:C I *D sky130_fd_sc_hd__and4_1
*I *1038:A2 I *D sky130_fd_sc_hd__a22o_1
*I *862:A2 I *D sky130_fd_sc_hd__o31a_1
*I *865:A1 I *D sky130_fd_sc_hd__o21a_1
*I *1050:A1 I *D sky130_fd_sc_hd__a31o_1
*I *869:A I *D sky130_fd_sc_hd__xor2_1
*I *850:C I *D sky130_fd_sc_hd__or4_1
*I *982:A2 I *D sky130_fd_sc_hd__a22o_1
*I *974:C I *D sky130_fd_sc_hd__and4_1
*I *848:X O *D sky130_fd_sc_hd__clkbuf_4
*CAP
1 *944:D 0
2 *996:C 0.000154572
3 *1038:A2 4.76153e-05
4 *862:A2 7.55047e-05
5 *865:A1 3.71352e-05
6 *1050:A1 0.000848088
7 *869:A 3.43123e-05
8 *850:C 0
9 *982:A2 5.05291e-05
10 *974:C 0
11 *848:X 0.000136655
12 *213:93 0.00139216
13 *213:87 0.00064123
14 *213:81 0.000209272
15 *213:74 0.00135896
16 *213:60 0.00149581
17 *213:54 0.000609002
18 *213:37 0.000559655
19 *213:30 0.00107672
20 *213:12 0.00103002
21 *862:A2 *862:A3 0.000136084
22 *862:A2 *214:72 1.91597e-05
23 *865:A1 *865:A2 5.05521e-05
24 *865:A1 *217:98 0.000122331
25 *982:A2 *272:24 0.00011107
26 *1038:A2 *214:96 0.000114617
27 *1050:A1 *853:C_N 0.000119404
28 *1050:A1 *871:A1_N 2.01565e-05
29 *1050:A1 *877:A2 2.39856e-05
30 *1050:A1 *877:B1 7.13714e-05
31 *1050:A1 *877:B2 1.43396e-05
32 *1050:A1 *1050:A3 4.80285e-05
33 *1050:A1 *214:55 0
34 *1050:A1 *217:126 0
35 *1050:A1 *234:6 1.14169e-05
36 *1050:A1 *243:14 0.000103181
37 *1050:A1 *243:20 0.000132485
38 *213:12 *848:A 2.68526e-05
39 *213:12 *267:91 6.64943e-05
40 *213:30 *249:91 8.33066e-06
41 *213:30 *307:42 5.52388e-05
42 *213:37 *974:D 2.69217e-05
43 *213:54 *264:24 6.42722e-05
44 *213:60 *264:24 7.21086e-05
45 *213:74 *850:A 0
46 *213:74 *1040:B1 0.000143728
47 *213:74 *214:72 5.30673e-05
48 *213:74 *214:80 1.61831e-05
49 *213:74 *214:96 1.7635e-05
50 *213:74 *264:24 1.50487e-05
51 *213:81 *214:72 0.000112622
52 *213:87 *850:A 0
53 *213:87 *862:A3 0
54 *213:87 *862:B1 0
55 *213:87 *214:70 0.000160658
56 *213:87 *215:8 7.26629e-05
57 *213:93 *875:B2 7.1624e-05
58 *213:93 *214:55 0.00115152
59 *213:93 *214:70 2.14129e-05
60 *213:93 *215:8 0.000131181
61 *213:93 *215:16 0.000196975
62 *213:93 *217:126 8.40269e-05
63 *910:A *213:93 0.000226848
64 *931:A2 *213:30 2.1363e-05
65 *944:C *213:30 0.000178714
66 *981:A *213:37 6.81928e-05
67 *981:A *213:54 8.73589e-05
68 *1004:A1 *213:74 7.21296e-06
69 *1017:A *213:74 0.000280777
70 *1036:B2 *213:74 0
71 *1043:A3 *996:C 1.3156e-05
72 *1043:A3 *213:54 0
73 *1044:B2 *1038:A2 6.92161e-05
74 *1049:A *1050:A1 0
75 *1050:A2 *1050:A1 2.01502e-05
76 *1077:A *213:93 4.04791e-05
77 *66:10 *213:93 0.000179008
78 *82:8 *982:A2 5.59034e-05
79 *83:20 *213:30 4.0852e-05
80 *90:10 *213:30 4.09679e-05
81 *139:6 *213:54 4.53798e-05
82 *161:10 *213:74 0
83 *211:105 *1050:A1 3.67118e-05
84 *211:105 *213:93 8.00936e-05
85 *212:42 *213:30 0.000182237
86 *212:61 *213:30 0.00047351
87 *212:88 *213:74 0.000118321
88 *212:88 *213:81 2.75145e-05
89 *212:97 *862:A2 0.000186461
90 *212:97 *213:81 9.07793e-05
*RES
1 *848:X *213:12 7.775 
2 *213:12 *213:30 16.855 
3 *213:30 *974:C 1.6 
4 *213:30 *213:37 2.175 
5 *213:37 *982:A2 6.98 
6 *213:37 *213:54 6.6275 
7 *213:54 *213:60 2.3175 
8 *213:60 *213:74 10.0995 
9 *213:74 *850:C 1.6 
10 *213:74 *213:81 1.83 
11 *213:81 *213:87 4.505 
12 *213:87 *213:93 17.705 
13 *213:93 *869:A 2.215 
14 *213:93 *1050:A1 17.75 
15 *213:87 *865:A1 4.74 
16 *213:81 *862:A2 4.465 
17 *213:60 *1038:A2 5.1 
18 *213:54 *996:C 5.2275 
19 *213:12 *944:D 1.6 
*END

*D_NET *214 0.016179
*CONN
*I *862:A3 I *D sky130_fd_sc_hd__o31a_1
*I *850:D I *D sky130_fd_sc_hd__or4_1
*I *996:D I *D sky130_fd_sc_hd__and4_1
*I *1035:A2 I *D sky130_fd_sc_hd__a31o_1
*I *1038:B1 I *D sky130_fd_sc_hd__a22o_1
*I *982:B1 I *D sky130_fd_sc_hd__a22o_1
*I *865:A2 I *D sky130_fd_sc_hd__o21a_1
*I *868:B I *D sky130_fd_sc_hd__nand2_1
*I *871:A1_N I *D sky130_fd_sc_hd__o2bb2a_1
*I *1048:A1 I *D sky130_fd_sc_hd__a31o_1
*I *849:X O *D sky130_fd_sc_hd__buf_2
*CAP
1 *862:A3 0.000138772
2 *850:D 0
3 *996:D 0.000256807
4 *1035:A2 0
5 *1038:B1 0
6 *982:B1 0.000220907
7 *865:A2 0.000107985
8 *868:B 0
9 *871:A1_N 0.00014153
10 *1048:A1 0.000392568
11 *849:X 0
12 *214:96 0.000520405
13 *214:82 0.000299498
14 *214:80 0.00109275
15 *214:72 0.000992557
16 *214:70 0.000385548
17 *214:55 0.000702472
18 *214:35 0.000356774
19 *214:23 0.00156925
20 *214:4 0.00124225
21 *865:A2 *874:B2 1.48813e-05
22 *865:A2 *217:98 9.80032e-06
23 *871:A1_N *869:B 6.05715e-05
24 *871:A1_N *870:A2 0.000186396
25 *871:A1_N *234:6 4.77719e-05
26 *871:A1_N *243:20 8.22567e-05
27 *982:B1 *912:B1 3.5678e-06
28 *982:B1 *912:B2 0.000115973
29 *982:B1 *1038:B2 3.03989e-05
30 *982:B1 *1067:RESET_B 4.66108e-05
31 *982:B1 *249:91 4.66108e-05
32 *982:B1 *307:42 0.000152433
33 *996:D *1067:RESET_B 0.000121029
34 *996:D *245:72 0
35 *996:D *245:107 6.3292e-05
36 *1048:A1 *1092:A 0
37 *1048:A1 *243:20 0.000267159
38 *214:35 *869:B 0
39 *214:35 *311:22 7.33743e-05
40 *214:35 *311:32 0.000224278
41 *214:55 *853:B 3.23391e-05
42 *214:55 *853:C_N 0
43 *214:55 *869:B 0
44 *214:55 *874:B2 5.13029e-05
45 *214:55 *875:A2 7.61357e-05
46 *214:55 *217:126 0.000116158
47 *214:55 *223:16 0.000355583
48 *214:55 *243:20 0
49 *214:55 *273:16 0
50 *214:55 *310:28 0
51 *214:55 *311:32 1.44259e-05
52 *214:70 *862:B1 0
53 *214:70 *874:B2 1.22676e-05
54 *214:80 *245:51 0.000203755
55 *214:80 *264:24 0
56 *214:96 *245:51 4.66108e-05
57 *214:96 *264:24 0
58 *214:96 *277:28 8.66661e-05
59 *862:A2 *862:A3 0.000136084
60 *862:A2 *214:72 1.91597e-05
61 *865:A1 *865:A2 5.05521e-05
62 *937:B *214:80 8.65961e-05
63 *1004:A1 *214:80 7.3335e-05
64 *1017:A *214:80 1.0124e-05
65 *1035:A3 *214:96 2.75145e-05
66 *1036:B2 *996:D 8.54576e-05
67 *1036:B2 *214:96 5.64768e-05
68 *1038:A2 *214:96 0.000114617
69 *1039:A3 *214:96 9.44179e-05
70 *1043:A3 *996:D 0.000132834
71 *1044:B2 *982:B1 0.000162335
72 *1044:B2 *214:96 2.27064e-05
73 *1050:A1 *871:A1_N 2.01565e-05
74 *1050:A1 *214:55 0
75 *1077:A *214:55 0
76 *82:8 *982:B1 0.000151136
77 *93:18 *214:80 1.08758e-05
78 *93:25 *214:80 0.000142584
79 *95:6 *214:80 1.4389e-05
80 *154:8 *996:D 4.66108e-05
81 *192:18 *996:D 3.3505e-05
82 *209:22 *1048:A1 0.000459885
83 *211:105 *871:A1_N 0.000270527
84 *211:105 *1048:A1 0.000122801
85 *211:105 *214:23 0.00133432
86 *212:97 *862:A3 5.12969e-06
87 *213:74 *214:72 5.30673e-05
88 *213:74 *214:80 1.61831e-05
89 *213:74 *214:96 1.7635e-05
90 *213:81 *214:72 0.000112622
91 *213:87 *862:A3 0
92 *213:87 *214:70 0.000160658
93 *213:93 *214:55 0.00115152
94 *213:93 *214:70 2.14129e-05
*RES
1 *849:X *214:4 1.6 
2 *214:4 *1048:A1 14.66 
3 *214:4 *214:23 14.18 
4 *214:23 *214:35 6.215 
5 *214:35 *871:A1_N 10.0212 
6 *214:35 *868:B 1.6 
7 *214:23 *214:55 14.64 
8 *214:55 *865:A2 5.1 
9 *214:55 *214:70 4.145 
10 *214:70 *214:72 2.865 
11 *214:72 *214:80 13.055 
12 *214:80 *214:82 2 
13 *214:82 *214:96 10.615 
14 *214:96 *982:B1 11.435 
15 *214:96 *1038:B1 1.6 
16 *214:82 *1035:A2 1.6 
17 *214:80 *996:D 9.18 
18 *214:72 *850:D 1.6 
19 *214:70 *862:A3 4.135 
*END

*D_NET *215 0.00291765
*CONN
*I *859:B I *D sky130_fd_sc_hd__nand2_1
*I *851:C I *D sky130_fd_sc_hd__or3_1
*I *857:A2 I *D sky130_fd_sc_hd__o21a_1
*I *850:X O *D sky130_fd_sc_hd__or4_1
*CAP
1 *859:B 5.14194e-05
2 *851:C 0
3 *857:A2 1.72469e-05
4 *850:X 0.000222966
5 *215:16 0.000362125
6 *215:8 0.000619263
7 *857:A2 *851:A 5.09465e-05
8 *857:A2 *307:114 4.96386e-05
9 *857:A2 *307:123 4.75959e-05
10 *859:B *875:B2 3.12916e-05
11 *215:8 *860:B 1.94723e-05
12 *215:8 *875:B2 7.1624e-05
13 *215:8 *217:98 0
14 *215:16 *851:A 6.22349e-05
15 *215:16 *217:17 0
16 *215:16 *307:123 3.74161e-05
17 *910:A *215:16 0.000215963
18 *1015:B1 *215:8 0.000105805
19 *1015:B1 *215:16 0.000158213
20 *1077:A *215:16 0.000242027
21 *66:10 *215:16 0.00011379
22 *68:10 *215:16 1.56261e-05
23 *68:29 *859:B 0
24 *68:29 *215:16 2.21697e-05
25 *213:87 *215:8 7.26629e-05
26 *213:93 *215:8 0.000131181
27 *213:93 *215:16 0.000196975
*RES
1 *850:X *215:8 8.805 
2 *215:8 *215:16 11.075 
3 *215:16 *857:A2 2.395 
4 *215:16 *851:C 1.6 
5 *215:8 *859:B 4.41 
*END

*D_NET *216 0.000901469
*CONN
*I *853:B I *D sky130_fd_sc_hd__or3b_2
*I *854:B I *D sky130_fd_sc_hd__nand2_1
*I *851:X O *D sky130_fd_sc_hd__or3_1
*CAP
1 *853:B 6.63744e-05
2 *854:B 6.89852e-05
3 *851:X 7.06378e-05
4 *216:6 0.000205997
5 *853:B *878:A2 0.000117825
6 *853:B *223:16 0.000116165
7 *853:B *310:28 3.31282e-05
8 *854:B *851:A 0
9 *854:B *217:126 0.000124471
10 *854:B *310:28 4.89295e-05
11 *216:6 *1056:A1 3.1562e-06
12 *216:6 *217:126 1.34594e-05
13 *214:55 *853:B 3.23391e-05
*RES
1 *851:X *216:6 2.395 
2 *216:6 *854:B 3.355 
3 *216:6 *853:B 7.745 
*END

*D_NET *217 0.0149405
*CONN
*I *854:A I *D sky130_fd_sc_hd__nand2_1
*I *853:C_N I *D sky130_fd_sc_hd__or3b_2
*I *865:B1 I *D sky130_fd_sc_hd__o21a_1
*I *862:B1 I *D sky130_fd_sc_hd__o31a_1
*I *859:A I *D sky130_fd_sc_hd__nand2_1
*I *896:B I *D sky130_fd_sc_hd__and3_1
*I *1007:B1 I *D sky130_fd_sc_hd__o21ai_1
*I *1062:A1 I *D sky130_fd_sc_hd__a31o_1
*I *920:A2 I *D sky130_fd_sc_hd__a21oi_1
*I *857:B1 I *D sky130_fd_sc_hd__o21a_1
*I *852:X O *D sky130_fd_sc_hd__buf_2
*CAP
1 *854:A 0
2 *853:C_N 0.00010267
3 *865:B1 0
4 *862:B1 0.00013373
5 *859:A 6.25345e-05
6 *896:B 2.57189e-05
7 *1007:B1 0.000515206
8 *1062:A1 0.000462967
9 *920:A2 0
10 *857:B1 0
11 *852:X 0
12 *217:126 0.000487021
13 *217:98 0.000639748
14 *217:81 0.000695695
15 *217:44 0.00179355
16 *217:40 0.00103504
17 *217:23 0.000420594
18 *217:17 0.000515003
19 *217:8 0.000266586
20 *217:4 0.000489727
21 *853:C_N *855:B 3.45117e-05
22 *853:C_N *877:A2 0.000101303
23 *853:C_N *310:28 6.95473e-06
24 *1007:B1 *886:A2 3.1562e-06
25 *1007:B1 *888:B 3.64998e-06
26 *1007:B1 *891:A1 1.54707e-05
27 *1007:B1 *891:B2 6.71803e-06
28 *1007:B1 *915:A2 1.66783e-05
29 *1007:B1 *1007:A1 3.2603e-05
30 *1007:B1 *251:10 0.00010974
31 *1007:B1 *251:27 7.22242e-05
32 *1007:B1 *252:8 7.16986e-05
33 *1007:B1 *309:49 0.000103308
34 *1007:B1 *309:59 0.000172048
35 *1007:B1 *310:81 0.000101794
36 *1007:B1 *310:100 9.24575e-05
37 *1007:B1 *311:72 0.000160276
38 *1062:A1 *849:A 0.000320653
39 *1062:A1 *891:A1 8.53113e-06
40 *1062:A1 *892:B 0.000224217
41 *1062:A1 *894:A_N 1.17666e-05
42 *1062:A1 *895:A 0.000226855
43 *1062:A1 *1091:A 4.66108e-05
44 *1062:A1 *243:42 2.54431e-05
45 *1062:A1 *252:8 5.79169e-06
46 *1062:A1 *255:10 0.000112147
47 *1062:A1 *267:10 0
48 *1062:A1 *311:72 0.00012223
49 *217:8 *307:114 1.71013e-05
50 *217:17 *851:A 7.06865e-05
51 *217:17 *858:A 4.9968e-05
52 *217:17 *307:114 5.11229e-05
53 *217:23 *920:B1 1.20052e-05
54 *217:23 *1079:A 3.00381e-05
55 *217:23 *276:22 0.000688676
56 *217:40 *896:C 0
57 *217:40 *920:A1 0.000122801
58 *217:40 *920:B1 2.68526e-05
59 *217:40 *276:22 4.10688e-05
60 *217:40 *311:46 0
61 *217:44 *885:A 5.32707e-05
62 *217:44 *1078:A 0.000437478
63 *217:44 *310:81 0.000170171
64 *217:81 *307:114 9.22141e-05
65 *217:98 *860:B 7.20551e-05
66 *217:98 *874:B2 4.8854e-05
67 *217:98 *307:108 2.04531e-05
68 *217:98 *307:114 9.20057e-05
69 *217:126 *1056:A1 0.000188831
70 *217:126 *243:106 1.75875e-05
71 *217:126 *310:28 4.40028e-05
72 *217:126 *311:32 4.65515e-05
73 *217:126 *311:46 3.72916e-05
74 *854:B *217:126 0.000124471
75 *865:A1 *217:98 0.000122331
76 *865:A2 *217:98 9.80032e-06
77 *910:B *217:23 0.000194694
78 *1006:B *1007:B1 0.000130388
79 *1010:A *217:40 0
80 *1010:A *217:44 0
81 *1014:A2 *859:A 3.41176e-05
82 *1014:A2 *217:81 0.000113891
83 *1014:A2 *217:98 9.12494e-06
84 *1050:A1 *853:C_N 0.000119404
85 *1050:A1 *217:126 0
86 *1059:A *1062:A1 0.000782763
87 *1062:B1 *1062:A1 2.75229e-05
88 *1077:A *217:8 0
89 *1077:A *217:17 4.22006e-05
90 *55:20 *896:B 0
91 *66:10 *217:8 0
92 *66:10 *217:17 0
93 *68:10 *217:17 1.52184e-05
94 *68:10 *217:81 9.77914e-05
95 *68:29 *859:A 2.69217e-05
96 *68:29 *217:81 2.83135e-05
97 *68:29 *217:98 3.17611e-05
98 *79:12 *896:B 3.96153e-05
99 *79:12 *217:40 6.10259e-05
100 *163:10 *217:98 0
101 *170:12 *217:17 0.000114492
102 *170:12 *217:81 0.000170308
103 *210:23 *1062:A1 0.000124007
104 *211:105 *217:126 2.10134e-05
105 *213:87 *862:B1 0
106 *213:93 *217:126 8.40269e-05
107 *214:55 *853:C_N 0
108 *214:55 *217:126 0.000116158
109 *214:70 *862:B1 0
110 *215:8 *217:98 0
111 *215:16 *217:17 0
112 *216:6 *217:126 1.34594e-05
*RES
1 *852:X *217:4 1.6 
2 *217:4 *217:8 3.635 
3 *217:8 *857:B1 3.6 
4 *217:8 *217:17 3.93 
5 *217:17 *217:23 8.675 
6 *217:23 *920:A2 1.6 
7 *217:23 *217:40 5.24203 
8 *217:40 *217:44 2.1112 
9 *217:44 *1062:A1 17.8275 
10 *217:44 *1007:B1 13.5075 
11 *217:40 *896:B 4.5875 
12 *217:17 *217:81 4.185 
13 *217:81 *859:A 4.755 
14 *217:81 *217:98 11.03 
15 *217:98 *862:B1 7.49 
16 *217:98 *865:B1 1.6 
17 *217:4 *217:126 11.125 
18 *217:126 *853:C_N 8.045 
19 *217:126 *854:A 1.6 
*END

*D_NET *218 0.00113172
*CONN
*I *877:A2 I *D sky130_fd_sc_hd__o22a_1
*I *878:A2 I *D sky130_fd_sc_hd__a21oi_4
*I *853:X O *D sky130_fd_sc_hd__or3b_2
*CAP
1 *877:A2 9.52778e-05
2 *878:A2 0.000204401
3 *853:X 0
4 *218:4 0.000299679
5 *877:A2 *220:10 0.000122701
6 *878:A2 *855:B 2.21083e-05
7 *878:A2 *220:10 7.11235e-06
8 *878:A2 *223:16 6.18754e-05
9 *878:A2 *310:28 5.04569e-05
10 *878:A2 *310:30 2.49909e-05
11 *853:B *878:A2 0.000117825
12 *853:C_N *877:A2 0.000101303
13 *1050:A1 *877:A2 2.39856e-05
*RES
1 *853:X *218:4 1.6 
2 *218:4 *878:A2 9.395 
3 *218:4 *877:A2 3.955 
*END

*D_NET *219 0.00107894
*CONN
*I *855:B I *D sky130_fd_sc_hd__xor2_1
*I *854:Y O *D sky130_fd_sc_hd__nand2_1
*CAP
1 *855:B 0.000232655
2 *854:Y 0.000232655
3 *855:B *877:A1 1.49193e-05
4 *855:B *220:10 0.000155601
5 *855:B *310:28 0.000161208
6 *855:B *310:30 0.000225285
7 *853:C_N *855:B 3.45117e-05
8 *878:A2 *855:B 2.21083e-05
*RES
1 *854:Y *855:B 11.805 
*END

*D_NET *220 0.00201444
*CONN
*I *876:A2 I *D sky130_fd_sc_hd__o221a_1
*I *856:B I *D sky130_fd_sc_hd__and2_1
*I *855:X O *D sky130_fd_sc_hd__xor2_1
*CAP
1 *876:A2 0.000127451
2 *856:B 0.000203926
3 *855:X 0.000242621
4 *220:10 0.000573998
5 *856:B *856:A 1.62913e-05
6 *856:B *1070:CLK 0
7 *856:B *243:14 4.77757e-05
8 *856:B *262:6 0.000193526
9 *876:A2 *877:B2 0
10 *876:A2 *878:B1 0
11 *876:A2 *223:16 0
12 *220:10 *877:A1 0.00015352
13 *220:10 *878:B1 0
14 *220:10 *243:14 0.000118527
15 *855:B *220:10 0.000155601
16 *877:A2 *220:10 0.000122701
17 *878:A2 *220:10 7.11235e-06
18 *1052:A1 *876:A2 5.13924e-05
*RES
1 *855:X *220:10 8.355 
2 *220:10 *856:B 7.53 
3 *220:10 *876:A2 5.745 
*END

*D_NET *221 0.000565884
*CONN
*I *877:B1 I *D sky130_fd_sc_hd__o22a_1
*I *856:X O *D sky130_fd_sc_hd__and2_1
*CAP
1 *877:B1 7.97452e-05
2 *856:X 7.97452e-05
3 *877:B1 *872:B1 0.000136296
4 *877:B1 *877:B2 0.000198726
5 *877:B1 *243:14 0
6 *1050:A1 *877:B1 7.13714e-05
*RES
1 *856:X *877:B1 9.975 
*END

*D_NET *222 0.000402128
*CONN
*I *858:B I *D sky130_fd_sc_hd__xnor2_1
*I *857:X O *D sky130_fd_sc_hd__o21a_1
*CAP
1 *858:B 8.7308e-05
2 *857:X 8.7308e-05
3 *858:B *307:114 0.000140527
4 *910:B *858:B 7.36562e-05
5 *66:10 *858:B 1.33293e-05
*RES
1 *857:X *858:B 9.285 
*END

*D_NET *223 0.00233381
*CONN
*I *876:B1 I *D sky130_fd_sc_hd__o221a_1
*I *875:A2 I *D sky130_fd_sc_hd__a22o_1
*I *858:Y O *D sky130_fd_sc_hd__xnor2_1
*CAP
1 *876:B1 0.000106258
2 *875:A2 0.000195301
3 *858:Y 0.000414513
4 *223:16 0.000716072
5 *875:A2 *876:B2 1.41633e-05
6 *876:B1 *876:B2 3.50152e-06
7 *876:B1 *876:C1 5.58286e-05
8 *223:16 *877:A1 0
9 *223:16 *310:30 5.74791e-05
10 *853:B *223:16 0.000116165
11 *876:A2 *223:16 0
12 *878:A2 *223:16 6.18754e-05
13 *1012:S *223:16 0.00015737
14 *1013:A *223:16 3.5678e-06
15 *214:55 *875:A2 7.61357e-05
16 *214:55 *223:16 0.000355583
*RES
1 *858:Y *223:16 13.46 
2 *223:16 *875:A2 9.155 
3 *223:16 *876:B1 3.445 
*END

*D_NET *224 0.000284809
*CONN
*I *860:B I *D sky130_fd_sc_hd__xor2_1
*I *859:Y O *D sky130_fd_sc_hd__nand2_1
*CAP
1 *860:B 7.14703e-05
2 *859:Y 7.14703e-05
3 *1015:B1 *860:B 5.03414e-05
4 *215:8 *860:B 1.94723e-05
5 *217:98 *860:B 7.20551e-05
*RES
1 *859:Y *860:B 8.835 
*END

*D_NET *225 0.000688996
*CONN
*I *861:B I *D sky130_fd_sc_hd__or2_1
*I *874:A2 I *D sky130_fd_sc_hd__a22o_1
*I *860:X O *D sky130_fd_sc_hd__xor2_1
*CAP
1 *861:B 5.69384e-05
2 *874:A2 0
3 *860:X 4.97695e-05
4 *225:8 0.000106708
5 *861:B *861:A 7.5619e-05
6 *861:B *874:A1 4.82919e-05
7 *861:B *874:B1 0.000118049
8 *861:B *874:B2 4.25578e-05
9 *225:8 *861:A 0.000120655
10 *225:8 *874:A1 7.04071e-05
11 *225:8 *874:B2 0
*RES
1 *860:X *225:8 3.1 
2 *225:8 *874:A2 1.6 
3 *225:8 *861:B 3.895 
*END

*D_NET *226 0.000614726
*CONN
*I *875:B1 I *D sky130_fd_sc_hd__a22o_1
*I *861:X O *D sky130_fd_sc_hd__or2_1
*CAP
1 *875:B1 0.000191476
2 *861:X 0.000191476
3 *875:B1 *875:A1 9.00196e-05
4 *875:B1 *273:16 7.01303e-05
5 *1052:A1 *875:B1 7.1624e-05
*RES
1 *861:X *875:B1 10.605 
*END

*D_NET *227 0.000590434
*CONN
*I *863:B I *D sky130_fd_sc_hd__xnor2_1
*I *862:X O *D sky130_fd_sc_hd__o31a_1
*CAP
1 *863:B 7.07669e-05
2 *862:X 7.07669e-05
3 *863:B *273:16 0.00011379
4 *863:B *277:28 0.000214091
5 *863:B *296:161 0.000121019
*RES
1 *862:X *863:B 9.72 
*END

*D_NET *228 0.00167176
*CONN
*I *864:B I *D sky130_fd_sc_hd__or2_1
*I *873:A2 I *D sky130_fd_sc_hd__a22o_1
*I *863:Y O *D sky130_fd_sc_hd__xnor2_1
*CAP
1 *864:B 0.000118289
2 *873:A2 0.000132153
3 *863:Y 0.000306235
4 *228:10 0.000556677
5 *864:B *874:B1 4.82919e-05
6 *864:B *1064:CLK 4.82919e-05
7 *864:B *271:16 2.26612e-05
8 *864:B *277:28 3.54025e-05
9 *873:A2 *873:A1 4.59847e-05
10 *873:A2 *873:B2 8.77516e-05
11 *873:A2 *874:B1 0.000111133
12 *228:10 *873:A1 3.60024e-06
13 *228:10 *273:16 0
14 *228:10 *277:28 8.23457e-05
15 *228:10 *296:161 7.29448e-05
16 *212:108 *873:A2 0
*RES
1 *863:Y *228:10 7.755 
2 *228:10 *873:A2 6.285 
3 *228:10 *864:B 5.79 
*END

*D_NET *229 0.00181338
*CONN
*I *874:B1 I *D sky130_fd_sc_hd__a22o_1
*I *864:X O *D sky130_fd_sc_hd__or2_1
*CAP
1 *874:B1 0.000666038
2 *864:X 0.000666038
3 *874:B1 *861:A 3.25103e-05
4 *874:B1 *872:B1 5.18317e-06
5 *874:B1 *873:B2 0.000112279
6 *874:B1 *874:A1 0
7 *874:B1 *231:16 5.06989e-05
8 *874:B1 *277:28 3.1562e-06
9 *861:B *874:B1 0.000118049
10 *864:B *874:B1 4.82919e-05
11 *873:A2 *874:B1 0.000111133
12 *1052:A1 *874:B1 0
13 *212:108 *874:B1 0
*RES
1 *864:X *874:B1 17.445 
*END

*D_NET *230 0.000155686
*CONN
*I *866:B I *D sky130_fd_sc_hd__xnor2_1
*I *865:X O *D sky130_fd_sc_hd__o21a_1
*CAP
1 *866:B 3.52008e-05
2 *865:X 3.52008e-05
3 *866:B *874:B2 8.52845e-05
*RES
1 *865:X *866:B 3.995 
*END

*D_NET *231 0.000702518
*CONN
*I *867:B I *D sky130_fd_sc_hd__or2_1
*I *872:A2 I *D sky130_fd_sc_hd__a21o_1
*I *866:Y O *D sky130_fd_sc_hd__xnor2_1
*CAP
1 *867:B 1.8547e-05
2 *872:A2 0
3 *866:Y 0.000195711
4 *231:16 0.000214258
5 *867:B *872:A1 4.82863e-05
6 *231:16 *872:A1 2.70346e-05
7 *231:16 *872:B1 4.77719e-05
8 *231:16 *873:B2 7.14241e-05
9 *874:B1 *231:16 5.06989e-05
10 *1052:A1 *231:16 2.87867e-05
*RES
1 *866:Y *231:16 9.62 
2 *231:16 *872:A2 1.6 
3 *231:16 *867:B 2.05 
*END

*D_NET *232 0.000690121
*CONN
*I *873:B1 I *D sky130_fd_sc_hd__a22o_1
*I *867:X O *D sky130_fd_sc_hd__or2_1
*CAP
1 *873:B1 0.00017574
2 *867:X 0.00017574
3 *873:B1 *872:A1 1.17309e-05
4 *873:B1 *873:B2 4.66108e-05
5 *873:B1 *1054:A3 0.000106494
6 *873:B1 *262:34 0.000139238
7 *873:B1 *270:16 3.45679e-05
*RES
1 *867:X *873:B1 10.425 
*END

*D_NET *233 0.000253301
*CONN
*I *869:B I *D sky130_fd_sc_hd__xor2_1
*I *868:Y O *D sky130_fd_sc_hd__nand2_1
*CAP
1 *869:B 9.63646e-05
2 *868:Y 9.63646e-05
3 *871:A1_N *869:B 6.05715e-05
4 *214:35 *869:B 0
5 *214:55 *869:B 0
*RES
1 *868:Y *869:B 8.835 
*END

*D_NET *234 0.000967547
*CONN
*I *870:A2 I *D sky130_fd_sc_hd__a21oi_1
*I *871:B1 I *D sky130_fd_sc_hd__o2bb2a_1
*I *869:X O *D sky130_fd_sc_hd__xor2_1
*CAP
1 *870:A2 0.000211972
2 *871:B1 0
3 *869:X 1.98272e-05
4 *234:6 0.000231799
5 *870:A2 *871:A2_N 0.000109372
6 *870:A2 *871:B2 0
7 *870:A2 *872:B1 6.69608e-06
8 *870:A2 *275:8 8.32746e-05
9 *871:A1_N *870:A2 0.000186396
10 *871:A1_N *234:6 4.77719e-05
11 *1050:A1 *234:6 1.14169e-05
12 *211:105 *870:A2 5.90219e-05
*RES
1 *869:X *234:6 2.05 
2 *234:6 *871:B1 1.6 
3 *234:6 *870:A2 10.37 
*END

*D_NET *235 0.000681191
*CONN
*I *871:A2_N I *D sky130_fd_sc_hd__o2bb2a_1
*I *870:Y O *D sky130_fd_sc_hd__a21oi_1
*CAP
1 *871:A2_N 0.000240839
2 *870:Y 0.000240839
3 *871:A2_N *870:A1 2.70725e-05
4 *871:A2_N *870:B1 6.72833e-06
5 *871:A2_N *871:B2 0
6 *871:A2_N *275:8 8.74345e-06
7 *870:A2 *871:A2_N 0.000109372
8 *211:105 *871:A2_N 4.75959e-05
*RES
1 *870:Y *871:A2_N 11.13 
*END

*D_NET *236 0.00212937
*CONN
*I *872:B1 I *D sky130_fd_sc_hd__a21o_1
*I *871:X O *D sky130_fd_sc_hd__o2bb2a_1
*CAP
1 *872:B1 0.000533596
2 *871:X 0.000533596
3 *872:B1 *876:A1 0.000213506
4 *872:B1 *877:B2 8.36793e-05
5 *872:B1 *243:14 0
6 *872:B1 *243:20 0
7 *872:B1 *262:25 6.7033e-05
8 *872:B1 *262:34 6.75009e-05
9 *872:B1 *275:8 0.000422773
10 *870:A2 *872:B1 6.69608e-06
11 *874:B1 *872:B1 5.18317e-06
12 *877:B1 *872:B1 0.000136296
13 *1052:A1 *872:B1 0
14 *211:105 *872:B1 1.17409e-05
15 *231:16 *872:B1 4.77719e-05
*RES
1 *871:X *872:B1 19.68 
*END

*D_NET *237 0.000866877
*CONN
*I *873:B2 I *D sky130_fd_sc_hd__a22o_1
*I *872:X O *D sky130_fd_sc_hd__a21o_1
*CAP
1 *873:B2 0.000232651
2 *872:X 0.000232651
3 *873:B2 *874:B2 8.35106e-05
4 *873:A2 *873:B2 8.77516e-05
5 *873:B1 *873:B2 4.66108e-05
6 *874:B1 *873:B2 0.000112279
7 *1052:A1 *873:B2 0
8 *231:16 *873:B2 7.14241e-05
*RES
1 *872:X *873:B2 11.805 
*END

*D_NET *238 0.00135623
*CONN
*I *874:B2 I *D sky130_fd_sc_hd__a22o_1
*I *873:X O *D sky130_fd_sc_hd__a22o_1
*CAP
1 *874:B2 0.000478897
2 *873:X 0.000478897
3 *874:B2 *861:A 5.97809e-05
4 *861:B *874:B2 4.25578e-05
5 *865:A2 *874:B2 1.48813e-05
6 *866:B *874:B2 8.52845e-05
7 *873:B2 *874:B2 8.35106e-05
8 *214:55 *874:B2 5.13029e-05
9 *214:70 *874:B2 1.22676e-05
10 *217:98 *874:B2 4.8854e-05
11 *225:8 *874:B2 0
*RES
1 *873:X *874:B2 14.85 
*END

*D_NET *239 0.000449836
*CONN
*I *875:B2 I *D sky130_fd_sc_hd__a22o_1
*I *874:X O *D sky130_fd_sc_hd__a22o_1
*CAP
1 *875:B2 0.000137648
2 *874:X 0.000137648
3 *859:B *875:B2 3.12916e-05
4 *213:93 *875:B2 7.1624e-05
5 *215:8 *875:B2 7.1624e-05
*RES
1 *874:X *875:B2 9.825 
*END

*D_NET *240 0.000561065
*CONN
*I *876:C1 I *D sky130_fd_sc_hd__o221a_1
*I *875:X O *D sky130_fd_sc_hd__a22o_1
*CAP
1 *876:C1 0.000185269
2 *875:X 0.000185269
3 *876:C1 *875:A1 2.64559e-05
4 *876:C1 *876:B2 0.000108241
5 *876:B1 *876:C1 5.58286e-05
*RES
1 *875:X *876:C1 10.635 
*END

*D_NET *241 0.00107823
*CONN
*I *877:B2 I *D sky130_fd_sc_hd__o22a_1
*I *876:X O *D sky130_fd_sc_hd__o221a_1
*CAP
1 *877:B2 0.000267709
2 *876:X 0.000267709
3 *877:B2 *878:B1 0.000161226
4 *877:B2 *243:14 0
5 *872:B1 *877:B2 8.36793e-05
6 *876:A2 *877:B2 0
7 *877:B1 *877:B2 0.000198726
8 *1050:A1 *877:B2 1.43396e-05
9 *1052:A1 *877:B2 8.48377e-05
*RES
1 *876:X *877:B2 12.915 
*END

*D_NET *242 0.000392397
*CONN
*I *878:B1 I *D sky130_fd_sc_hd__a21oi_4
*I *877:X O *D sky130_fd_sc_hd__o22a_1
*CAP
1 *878:B1 0.000115586
2 *877:X 0.000115586
3 *878:B1 *243:14 0
4 *876:A2 *878:B1 0
5 *877:B2 *878:B1 0.000161226
6 *220:10 *878:B1 0
*RES
1 *877:X *878:B1 9.285 
*END

*D_NET *243 0.017468
*CONN
*I *1056:A3 I *D sky130_fd_sc_hd__a31o_1
*I *1054:A3 I *D sky130_fd_sc_hd__a31o_1
*I *1052:A3 I *D sky130_fd_sc_hd__a31o_1
*I *1050:A3 I *D sky130_fd_sc_hd__a31o_1
*I *1048:A3 I *D sky130_fd_sc_hd__a31o_1
*I *1060:A3 I *D sky130_fd_sc_hd__a31o_1
*I *1062:A3 I *D sky130_fd_sc_hd__a31o_1
*I *879:B I *D sky130_fd_sc_hd__nor2_1
*I *1045:B I *D sky130_fd_sc_hd__or3_1
*I *1058:A3 I *D sky130_fd_sc_hd__a31o_1
*I *878:Y O *D sky130_fd_sc_hd__a21oi_4
*CAP
1 *1056:A3 1.38647e-05
2 *1054:A3 0.000487758
3 *1052:A3 3.04525e-05
4 *1050:A3 2.7003e-05
5 *1048:A3 1.86374e-05
6 *1060:A3 0
7 *1062:A3 0
8 *879:B 0.000594835
9 *1045:B 0
10 *1058:A3 0
11 *878:Y 0.000233517
12 *243:121 0.00065632
13 *243:110 0.000231491
14 *243:106 0.000201882
15 *243:65 0.000916707
16 *243:48 0.000422035
17 *243:42 0.000640228
18 *243:24 0.00076782
19 *243:20 0.00162761
20 *243:14 0.00173637
21 *879:B *880:B1_N 1.04063e-05
22 *879:B *884:D 9.03081e-05
23 *879:B *1081:A 0.000110838
24 *879:B *1120:A 5.12462e-05
25 *879:B *247:14 0.000154052
26 *879:B *261:70 5.71481e-05
27 *879:B *261:81 0.000123857
28 *879:B *267:91 0
29 *1048:A3 *1060:A1 3.5678e-06
30 *1054:A3 *844:A 0.000112113
31 *1054:A3 *1066:RESET_B 0
32 *1054:A3 *262:25 9.81229e-05
33 *1054:A3 *262:34 0.000133822
34 *1056:A3 *1056:A1 3.66286e-05
35 *1056:A3 *310:28 2.49909e-05
36 *243:14 *877:A1 4.58464e-05
37 *243:20 *871:B2 0.000193273
38 *243:20 *269:10 0.000157041
39 *243:20 *275:8 0
40 *243:20 *311:22 0.000157495
41 *243:24 *1060:A1 4.23008e-05
42 *243:42 *1061:B 0.000178613
43 *243:42 *1076:RESET_B 0.000451164
44 *243:42 *265:10 0.000235974
45 *243:42 *291:8 2.68464e-05
46 *243:65 *276:22 0
47 *243:106 *1056:A1 0.000495498
48 *243:106 *310:28 0.000283594
49 *243:110 *1073:CLK 0.000100544
50 *243:110 *310:28 5.23362e-05
51 *243:121 *1073:CLK 0.000124532
52 *243:121 *262:25 7.35757e-05
53 *856:B *243:14 4.77757e-05
54 *871:A1_N *243:20 8.22567e-05
55 *872:B1 *243:14 0
56 *872:B1 *243:20 0
57 *873:B1 *1054:A3 0.000106494
58 *877:B1 *243:14 0
59 *877:B2 *243:14 0
60 *878:B1 *243:14 0
61 *1045:C *879:B 0.00013686
62 *1046:B1_N *243:65 0.000120417
63 *1048:A1 *243:20 0.000267159
64 *1050:A1 *1050:A3 4.80285e-05
65 *1050:A1 *243:14 0.000103181
66 *1050:A1 *243:20 0.000132485
67 *1050:A2 *1050:A3 1.08758e-05
68 *1052:A1 *1052:A3 8.41384e-05
69 *1054:A2 *1054:A3 0.000550707
70 *1060:B1 *243:24 0.000272899
71 *1061:A *243:48 5.39961e-05
72 *1062:A1 *243:42 2.54431e-05
73 *1062:B1 *243:42 6.20248e-05
74 *1069:D *243:24 0.000195457
75 *1070:D *1050:A3 2.8185e-05
76 *1071:D *1052:A3 1.79174e-05
77 *1071:D *1054:A3 0.000114649
78 *1072:D *1054:A3 5.13126e-05
79 *209:10 *1054:A3 0.000129545
80 *209:14 *1054:A3 1.64141e-05
81 *209:14 *243:121 0.000165053
82 *209:16 *243:110 7.00066e-05
83 *209:16 *243:121 3.05373e-05
84 *209:22 *243:20 0.00073524
85 *209:24 *243:20 1.54665e-05
86 *209:24 *243:24 5.83923e-05
87 *209:32 *243:24 7.18107e-06
88 *209:32 *243:42 1.77849e-05
89 *209:32 *243:48 1.22762e-05
90 *209:45 *243:48 3.48406e-05
91 *210:8 *243:48 0.000162318
92 *210:8 *243:65 0.000288244
93 *210:23 *243:42 1.6408e-05
94 *210:23 *243:48 5.05521e-05
95 *210:49 *243:65 5.16348e-05
96 *211:10 *243:48 7.87426e-05
97 *211:10 *243:65 0.000534401
98 *211:35 *879:B 0.000112284
99 *214:55 *243:20 0
100 *217:126 *243:106 1.75875e-05
101 *220:10 *243:14 0.000118527
*RES
1 *878:Y *243:14 8.28 
2 *243:14 *243:20 29.12 
3 *243:20 *243:24 5.295 
4 *243:24 *243:42 15.115 
5 *243:42 *243:48 5.195 
6 *243:48 *1058:A3 3.6 
7 *243:48 *243:65 10.775 
8 *243:65 *1045:B 1.6 
9 *243:65 *879:B 15.965 
10 *243:42 *1062:A3 1.6 
11 *243:24 *1060:A3 1.6 
12 *243:20 *1048:A3 1.96 
13 *243:14 *243:106 6.95 
14 *243:106 *243:110 4.145 
15 *243:110 *1050:A3 4.395 
16 *243:110 *243:121 4.185 
17 *243:121 *1052:A3 4.395 
18 *243:121 *1054:A3 17.535 
19 *243:106 *1056:A3 2.05 
*END

*D_NET *244 0.0106777
*CONN
*I *1036:B1 I *D sky130_fd_sc_hd__a22o_1
*I *1040:B1 I *D sky130_fd_sc_hd__a22o_1
*I *1044:B1 I *D sky130_fd_sc_hd__a22o_1
*I *880:B1_N I *D sky130_fd_sc_hd__o21ba_1
*I *879:Y O *D sky130_fd_sc_hd__nor2_1
*CAP
1 *1036:B1 0.000310759
2 *1040:B1 0.00264811
3 *1044:B1 5.0236e-05
4 *880:B1_N 0.000445216
5 *879:Y 0
6 *244:35 0.0027233
7 *244:33 0.000742574
8 *244:4 0.000852071
9 *880:B1_N *880:A1 0.000157555
10 *880:B1_N *1081:A 0.000112182
11 *880:B1_N *1120:A 0.000134114
12 *880:B1_N *261:91 1.91597e-05
13 *880:B1_N *267:91 6.67846e-05
14 *1036:B1 *944:B 2.56752e-06
15 *1036:B1 *974:D 0.000400678
16 *1036:B1 *1036:A2 5.25073e-05
17 *1040:B1 *1067:RESET_B 0.00030357
18 *1044:B1 *1044:A2 4.89295e-05
19 *1044:B1 *267:91 1.97194e-05
20 *244:33 *1065:CLK 0.000114492
21 *244:33 *1067:RESET_B 1.56078e-05
22 *244:33 *1120:A 0.00010899
23 *244:33 *265:51 0
24 *244:33 *296:71 1.60015e-05
25 *244:33 *296:86 0
26 *879:B *880:B1_N 1.04063e-05
27 *929:D *1036:B1 1.78364e-05
28 *1020:A *1040:B1 3.59531e-06
29 *1020:C *1040:B1 4.77807e-05
30 *1033:A *1040:B1 4.66108e-05
31 *1033:C *1040:B1 4.77769e-05
32 *1036:B2 *1036:B1 2.91756e-05
33 *1044:B2 *244:33 0.000134065
34 *211:35 *880:B1_N 0.000109825
35 *211:50 *880:B1_N 6.15025e-06
36 *211:50 *1044:B1 6.65645e-05
37 *211:50 *244:33 0.000372467
38 *211:50 *244:35 1.7635e-05
39 *212:88 *1040:B1 0.000278971
40 *213:74 *1040:B1 0.000143728
*RES
1 *879:Y *244:4 1.6 
2 *244:4 *880:B1_N 13.91 
3 *244:4 *244:33 10.8425 
4 *244:33 *244:35 0.615 
5 *244:35 *1044:B1 4.7325 
6 *244:35 *1040:B1 12.2711 
7 *244:33 *1036:B1 9.9225 
*END

*D_NET *245 0.0130841
*CONN
*I *984:A I *D sky130_fd_sc_hd__nand2_1
*I *977:A1 I *D sky130_fd_sc_hd__a31o_1
*I *995:A1 I *D sky130_fd_sc_hd__a22o_1
*I *996:A I *D sky130_fd_sc_hd__and4_1
*I *1038:A1 I *D sky130_fd_sc_hd__a22o_1
*I *983:A I *D sky130_fd_sc_hd__and4_1
*I *1035:A1 I *D sky130_fd_sc_hd__a31o_1
*I *1009:A0 I *D sky130_fd_sc_hd__mux2_1
*I *920:A1 I *D sky130_fd_sc_hd__a21oi_1
*I *896:A I *D sky130_fd_sc_hd__and3_1
*I *881:X O *D sky130_fd_sc_hd__buf_2
*CAP
1 *984:A 0.000161978
2 *977:A1 7.98709e-05
3 *995:A1 7.31631e-05
4 *996:A 0
5 *1038:A1 0.000112601
6 *983:A 0.000275992
7 *1035:A1 0
8 *1009:A0 0.000166166
9 *920:A1 0.000168171
10 *896:A 4.24462e-05
11 *881:X 4.19289e-05
12 *245:138 0.000985954
13 *245:107 0.000335915
14 *245:93 0.000402351
15 *245:76 0.000566233
16 *245:72 0.00147668
17 *245:51 0.000909016
18 *245:16 0.000333395
19 *245:10 0.000372888
20 *245:8 0.00048668
21 *896:A *896:C 9.53428e-06
22 *896:A *259:14 2.937e-05
23 *920:A1 *896:C 1.83194e-05
24 *920:A1 *920:B1 1.82499e-05
25 *920:A1 *259:14 9.80032e-06
26 *977:A1 *296:29 0.000126366
27 *977:A1 *296:49 2.68526e-05
28 *984:A *984:B 1.77945e-05
29 *984:A *296:29 0.000310423
30 *1009:A0 *311:62 4.90227e-05
31 *1038:A1 *996:B 0.000119873
32 *1038:A1 *264:24 0.000216095
33 *245:8 *311:46 1.47783e-05
34 *245:16 *1078:A 1.71919e-05
35 *245:51 *264:24 0
36 *245:51 *277:28 8.35106e-05
37 *245:72 *277:28 0.000133709
38 *245:107 *996:B 7.44125e-05
39 *245:107 *1067:RESET_B 3.44757e-05
40 *934:B1_N *245:10 0.000115026
41 *934:B1_N *245:51 0.000279272
42 *935:B *245:51 0
43 *936:A *245:51 8.47845e-05
44 *936:B *245:51 7.23602e-05
45 *937:B *245:51 0
46 *965:A *245:138 5.98868e-05
47 *970:B *245:138 0.000195238
48 *980:A1 *245:138 0.000217481
49 *983:C *995:A1 5.83121e-06
50 *983:D *245:107 7.85442e-06
51 *986:A *984:A 0.000183587
52 *986:B *977:A1 4.77807e-05
53 *994:A *245:72 1.78838e-05
54 *995:A2 *995:A1 4.89362e-05
55 *996:D *245:72 0
56 *996:D *245:107 6.3292e-05
57 *1000:A1 *245:138 0
58 *1003:B *245:51 0
59 *1035:A3 *245:51 9.47972e-06
60 *1035:A3 *245:72 4.46754e-05
61 *1035:B1 *245:72 0.000144883
62 *1042:B1 *245:72 5.56085e-05
63 *1043:A1 *245:72 3.79351e-05
64 *1043:A3 *995:A1 8.23457e-05
65 *1043:A3 *245:72 0
66 *1043:A3 *245:107 6.90254e-05
67 *76:21 *245:51 0
68 *79:12 *245:10 0.000219917
69 *79:12 *245:16 0.000131525
70 *79:12 *245:51 9.14729e-05
71 *91:12 *1038:A1 0.000116212
72 *123:12 *245:138 0
73 *127:10 *245:72 0.000159476
74 *127:10 *245:138 0.000225813
75 *129:10 *977:A1 0.000271087
76 *129:10 *984:A 1.01158e-05
77 *129:10 *245:138 0.00015356
78 *140:10 *1038:A1 0.000119873
79 *140:10 *245:107 0.000160314
80 *141:8 *983:A 7.47419e-06
81 *141:8 *245:76 2.58745e-05
82 *141:48 *245:138 0.000178361
83 *152:12 *245:72 7.01359e-05
84 *153:8 *995:A1 5.83121e-06
85 *154:8 *245:107 4.77757e-05
86 *167:8 *1009:A0 0.000160319
87 *180:6 *245:72 1.61831e-05
88 *180:25 *245:72 0.000158252
89 *192:18 *245:72 2.56752e-06
90 *212:61 *983:A 4.93142e-05
91 *212:74 *983:A 3.7966e-05
92 *212:74 *245:93 0.000121487
93 *212:74 *245:107 7.9642e-06
94 *212:88 *245:107 1.7635e-05
95 *214:80 *245:51 0.000203755
96 *214:96 *245:51 4.66108e-05
97 *217:40 *920:A1 0.000122801
*RES
1 *881:X *245:8 4.05 
2 *245:8 *245:10 2.655 
3 *245:10 *245:16 4.085 
4 *245:16 *896:A 2.41 
5 *245:16 *920:A1 3.775 
6 *245:10 *1009:A0 6.825 
7 *245:8 *245:51 10.4 
8 *245:51 *1035:A1 1.6 
9 *245:51 *245:72 14.18 
10 *245:72 *245:76 4.175 
11 *245:76 *983:A 4.825 
12 *245:76 *245:93 4.19 
13 *245:93 *245:107 6.92 
14 *245:107 *1038:A1 9.395 
15 *245:107 *996:A 1.6 
16 *245:93 *995:A1 5.1 
17 *245:72 *245:138 15.15 
18 *245:138 *977:A1 6.465 
19 *245:138 *984:A 8.43 
*END

*D_NET *246 0.0094436
*CONN
*I *899:A I *D sky130_fd_sc_hd__nand2_1
*I *912:B2 I *D sky130_fd_sc_hd__a22o_1
*I *929:A I *D sky130_fd_sc_hd__nand4_1
*I *928:B2 I *D sky130_fd_sc_hd__a22o_1
*I *944:A I *D sky130_fd_sc_hd__nand4_2
*I *913:A I *D sky130_fd_sc_hd__nand4_2
*I *1007:A1 I *D sky130_fd_sc_hd__o21ai_1
*I *886:B2 I *D sky130_fd_sc_hd__a22o_1
*I *1008:A1 I *D sky130_fd_sc_hd__a31o_1
*I *884:A I *D sky130_fd_sc_hd__nand4_1
*I *882:X O *D sky130_fd_sc_hd__clkbuf_4
*CAP
1 *899:A 0.000248015
2 *912:B2 0.000201139
3 *929:A 0
4 *928:B2 1.23867e-05
5 *944:A 0
6 *913:A 0
7 *1007:A1 0.00016816
8 *886:B2 0.000137463
9 *1008:A1 4.64047e-05
10 *884:A 0.000207258
11 *882:X 0
12 *246:103 0.000109741
13 *246:97 0.000481656
14 *246:78 0.000509608
15 *246:70 0.000630379
16 *246:55 0.000509311
17 *246:36 0.000266303
18 *246:23 0.000213831
19 *246:21 0.000357446
20 *246:4 0.000240885
21 *884:A *884:C 0.000341791
22 *884:A *261:70 7.33283e-05
23 *884:A *261:81 4.28112e-06
24 *884:A *311:72 3.64998e-06
25 *886:B2 *886:A2 1.15343e-05
26 *886:B2 *915:A2 1.79483e-05
27 *886:B2 *247:30 7.59578e-05
28 *886:B2 *247:65 9.99636e-06
29 *886:B2 *249:62 2.10433e-05
30 *886:B2 *307:108 0.00028664
31 *899:A *885:A 9.03508e-06
32 *899:A *891:B1 3.96926e-05
33 *899:A *900:A 1.0397e-05
34 *899:A *249:8 7.06475e-05
35 *899:A *252:8 2.62286e-05
36 *899:A *259:14 0.000119762
37 *912:B2 *911:B 0
38 *912:B2 *912:A1 4.60814e-05
39 *912:B2 *912:B1 3.58021e-05
40 *928:B2 *928:A2 4.77757e-05
41 *1007:A1 *272:24 0
42 *1008:A1 *249:14 4.23008e-05
43 *1008:A1 *249:18 0
44 *246:21 *900:A 4.77807e-05
45 *246:21 *311:72 2.1553e-05
46 *246:23 *900:A 0.000153
47 *246:23 *247:30 7.9642e-06
48 *246:23 *249:14 2.14363e-05
49 *246:36 *247:30 9.67081e-06
50 *246:36 *249:14 1.10359e-05
51 *246:36 *252:8 4.96783e-05
52 *246:36 *309:49 1.07069e-05
53 *246:55 *309:49 1.0911e-05
54 *246:70 *924:B 0
55 *246:70 *309:49 7.87021e-05
56 *246:78 *309:49 2.06083e-05
57 *246:97 *913:D 1.37328e-05
58 *246:97 *974:D 0.000170719
59 *246:97 *247:73 1.34594e-05
60 *246:97 *247:111 0.000133202
61 *246:97 *249:83 6.68709e-05
62 *246:97 *265:68 0.0003197
63 *246:97 *296:86 0.000158532
64 *246:97 *309:43 1.58656e-05
65 *246:103 *928:A1 1.0555e-05
66 *246:103 *944:B 0.000194907
67 *902:C *899:A 7.1624e-05
68 *902:C *246:23 4.1588e-05
69 *925:B *246:97 0.000227511
70 *926:A1 *246:78 8.49205e-05
71 *926:A1 *246:97 5.0128e-05
72 *926:A2 *912:B2 0.000115224
73 *926:A2 *246:97 0
74 *926:B1 *912:B2 0.00014835
75 *926:B1 *246:78 8.53113e-06
76 *932:A *246:97 4.28112e-06
77 *982:B1 *912:B2 0.000115973
78 *1006:B *884:A 8.35157e-05
79 *1006:B *246:21 0.000119247
80 *1007:A2 *246:36 0
81 *1007:B1 *1007:A1 3.2603e-05
82 *1008:A3 *1008:A1 0.000121659
83 *1008:B1 *1008:A1 4.77769e-05
84 *1044:B2 *912:B2 7.58267e-05
85 *1045:C *884:A 0.000420117
86 *70:6 *912:B2 3.69049e-05
87 *70:10 *912:B2 5.68119e-05
88 *71:19 *246:97 7.28318e-05
89 *72:12 *912:B2 6.88217e-05
90 *72:12 *246:70 0.000165918
91 *84:12 *912:B2 6.54361e-06
92 *87:10 *246:103 4.2444e-05
93 *165:14 *1007:A1 2.31229e-05
94 *165:14 *246:70 0
95 *212:42 *928:B2 2.68526e-05
*RES
1 *882:X *246:4 1.6 
2 *246:4 *884:A 11.48 
3 *246:4 *246:21 3.14 
4 *246:21 *246:23 1.89 
5 *246:23 *1008:A1 5.1 
6 *246:23 *246:36 1.7625 
7 *246:36 *886:B2 5.45837 
8 *246:36 *246:55 0.4875 
9 *246:55 *1007:A1 6.405 
10 *246:55 *246:70 5.8425 
11 *246:70 *246:78 4.0775 
12 *246:78 *913:A 1.6 
13 *246:78 *246:97 14.185 
14 *246:97 *246:103 6.4 
15 *246:103 *944:A 1.6 
16 *246:103 *928:B2 2.05 
17 *246:97 *929:A 1.6 
18 *246:70 *912:B2 9.4575 
19 *246:21 *899:A 8.25 
*END

*D_NET *247 0.010709
*CONN
*I *913:B I *D sky130_fd_sc_hd__nand4_2
*I *982:B2 I *D sky130_fd_sc_hd__a22o_1
*I *928:A1 I *D sky130_fd_sc_hd__a22o_1
*I *944:B I *D sky130_fd_sc_hd__nand4_2
*I *929:B I *D sky130_fd_sc_hd__nand4_1
*I *974:A I *D sky130_fd_sc_hd__and4_1
*I *912:A1 I *D sky130_fd_sc_hd__a22o_1
*I *884:B I *D sky130_fd_sc_hd__nand4_1
*I *901:A I *D sky130_fd_sc_hd__or2_1
*I *900:A I *D sky130_fd_sc_hd__nand2_1
*I *883:X O *D sky130_fd_sc_hd__buf_2
*CAP
1 *913:B 0
2 *982:B2 1.6758e-05
3 *928:A1 0.000127027
4 *944:B 0.000123895
5 *929:B 3.42086e-05
6 *974:A 0
7 *912:A1 2.45878e-05
8 *884:B 0
9 *901:A 1.65033e-05
10 *900:A 0.000137817
11 *883:X 0
12 *247:113 0.000259833
13 *247:111 0.000426139
14 *247:94 0.000299019
15 *247:86 0.000213869
16 *247:73 0.000282632
17 *247:65 0.000521334
18 *247:30 0.000736164
19 *247:14 0.000726103
20 *247:4 0.000503024
21 *900:A *900:B 4.27108e-05
22 *900:A *252:8 0.000174528
23 *900:A *311:62 0.000185199
24 *900:A *311:72 2.21074e-05
25 *901:A *249:14 4.66108e-05
26 *912:A1 *912:B1 8.35157e-05
27 *928:A1 *1118:A 0.000193734
28 *928:A1 *296:86 2.85623e-05
29 *929:B *296:86 4.77307e-05
30 *944:B *928:A2 8.23457e-05
31 *944:B *296:71 1.69845e-05
32 *982:B2 *1067:RESET_B 7.32625e-05
33 *982:B2 *249:91 8.41384e-05
34 *247:14 *883:A 5.83121e-06
35 *247:14 *884:C 2.10841e-05
36 *247:14 *884:D 2.61093e-05
37 *247:14 *261:81 0.000154133
38 *247:30 *884:C 8.52883e-05
39 *247:30 *884:D 1.20052e-05
40 *247:30 *252:8 9.67081e-06
41 *247:30 *254:16 2.73414e-05
42 *247:30 *261:81 9.47962e-06
43 *247:30 *307:89 3.72654e-05
44 *247:30 *307:108 1.36865e-05
45 *247:65 *884:D 3.04704e-05
46 *247:65 *886:A2 3.66422e-05
47 *247:65 *888:A 0.0001579
48 *247:65 *915:A2 0.00015969
49 *247:65 *249:62 0.000202801
50 *247:65 *249:83 0.000225672
51 *247:65 *250:8 4.66108e-05
52 *247:65 *265:51 9.43331e-06
53 *247:65 *309:49 0.000126156
54 *247:73 *913:D 0
55 *247:73 *277:28 0.000385338
56 *247:73 *307:50 0.00018242
57 *247:86 *1067:RESET_B 0.000140578
58 *247:86 *307:42 9.45677e-05
59 *247:86 *307:50 2.98644e-05
60 *247:94 *1067:RESET_B 4.66108e-05
61 *247:94 *249:91 4.77769e-05
62 *247:111 *974:D 4.96199e-05
63 *247:111 *249:83 0.000291086
64 *247:111 *296:86 4.66108e-05
65 *247:113 *296:86 0.000158417
66 *879:B *247:14 0.000154052
67 *886:B2 *247:30 7.59578e-05
68 *886:B2 *247:65 9.99636e-06
69 *899:A *900:A 1.0397e-05
70 *912:B2 *912:A1 4.60814e-05
71 *925:C *247:94 2.8531e-05
72 *926:A1 *247:73 0.000307348
73 *926:A2 *247:73 1.34503e-05
74 *926:A2 *247:86 2.28623e-05
75 *929:D *944:B 0.000132821
76 *931:A2 *247:94 5.31158e-06
77 *944:C *944:B 2.49909e-05
78 *1006:B *900:A 3.93467e-05
79 *1008:A3 *901:A 2.49909e-05
80 *1036:B1 *944:B 2.56752e-06
81 *1036:B2 *247:94 9.55262e-06
82 *58:6 *900:A 5.26816e-05
83 *71:19 *247:65 9.50342e-06
84 *72:12 *247:73 0.000180066
85 *83:20 *247:86 9.95896e-06
86 *83:20 *247:94 0.000161976
87 *83:20 *247:111 0.000151247
88 *84:12 *247:94 5.57095e-05
89 *87:10 *928:A1 0.000132951
90 *212:14 *944:B 5.05981e-05
91 *212:42 *944:B 2.49909e-05
92 *246:21 *900:A 4.77807e-05
93 *246:23 *900:A 0.000153
94 *246:23 *247:30 7.9642e-06
95 *246:36 *247:30 9.67081e-06
96 *246:97 *247:73 1.34594e-05
97 *246:97 *247:111 0.000133202
98 *246:103 *928:A1 1.0555e-05
99 *246:103 *944:B 0.000194907
*RES
1 *883:X *247:4 1.6 
2 *247:4 *247:14 7.135 
3 *247:14 *247:30 5.47373 
4 *247:30 *900:A 8.28 
5 *247:30 *901:A 4.05 
6 *247:14 *884:B 1.6 
7 *247:4 *247:65 13.18 
8 *247:65 *247:73 8.315 
9 *247:73 *912:A1 4.395 
10 *247:73 *247:86 4.655 
11 *247:86 *247:94 6.775 
12 *247:94 *974:A 1.6 
13 *247:94 *247:111 5.535 
14 *247:111 *247:113 1.485 
15 *247:113 *929:B 2.05 
16 *247:113 *944:B 9.305 
17 *247:111 *928:A1 9.065 
18 *247:86 *982:B2 2.395 
19 *247:65 *913:B 1.6 
*END

*D_NET *248 0.00199705
*CONN
*I *915:B1 I *D sky130_fd_sc_hd__a22o_1
*I *888:A I *D sky130_fd_sc_hd__and2_1
*I *887:C I *D sky130_fd_sc_hd__nand4_1
*I *884:Y O *D sky130_fd_sc_hd__nand4_1
*CAP
1 *915:B1 7.39305e-05
2 *888:A 0.000199466
3 *887:C 0
4 *884:Y 7.39865e-05
5 *248:23 0.000423804
6 *248:12 0.000224394
7 *888:A *886:A2 3.59266e-06
8 *915:B1 *915:B2 0.000131717
9 *915:B1 *249:62 5.35988e-05
10 *915:B1 *307:62 2.75229e-05
11 *248:12 *884:C 6.22936e-05
12 *248:12 *887:D 3.10756e-05
13 *248:12 *249:20 3.5678e-06
14 *248:12 *267:91 0.000142479
15 *248:23 *886:A1 0.000132096
16 *248:23 *886:B1 6.71803e-06
17 *248:23 *887:B 1.08758e-05
18 *248:23 *887:D 0.000190804
19 *248:23 *915:B2 8.53113e-06
20 *248:23 *249:62 2.5496e-05
21 *248:23 *267:91 1.32026e-05
22 *247:65 *888:A 0.0001579
*RES
1 *884:Y *248:12 3.91 
2 *248:12 *887:C 1.6 
3 *248:12 *248:23 5.105 
4 *248:23 *888:A 6.3 
5 *248:23 *915:B1 5.685 
*END

*D_NET *249 0.0107609
*CONN
*I *900:B I *D sky130_fd_sc_hd__nand2_1
*I *901:B I *D sky130_fd_sc_hd__or2_1
*I *887:A I *D sky130_fd_sc_hd__nand4_1
*I *974:B I *D sky130_fd_sc_hd__and4_1
*I *996:B I *D sky130_fd_sc_hd__and4_1
*I *1038:B2 I *D sky130_fd_sc_hd__a22o_1
*I *982:A1 I *D sky130_fd_sc_hd__a22o_1
*I *915:A1 I *D sky130_fd_sc_hd__a22o_1
*I *889:B I *D sky130_fd_sc_hd__nand2_1
*I *898:A2 I *D sky130_fd_sc_hd__a31o_1
*I *885:X O *D sky130_fd_sc_hd__buf_2
*CAP
1 *900:B 0.000120644
2 *901:B 0
3 *887:A 0
4 *974:B 0
5 *996:B 7.06008e-05
6 *1038:B2 8.0233e-05
7 *982:A1 0
8 *915:A1 5.49061e-05
9 *889:B 0.000251059
10 *898:A2 9.39074e-05
11 *885:X 6.57162e-05
12 *249:102 0.000238412
13 *249:91 0.00025644
14 *249:83 0.000762016
15 *249:62 0.000916519
16 *249:26 0.000523218
17 *249:20 0.000461121
18 *249:18 0.000101297
19 *249:14 0.000320746
20 *249:8 0.000420219
21 *889:B *889:A 0.000159059
22 *889:B *1074:CLK 3.54867e-05
23 *889:B *1074:RESET_B 0
24 *889:B *293:84 5.59047e-05
25 *889:B *311:72 8.40213e-05
26 *898:A2 *898:A3 1.08758e-05
27 *898:A2 *1058:A1 9.50342e-06
28 *898:A2 *267:10 9.20976e-05
29 *898:A2 *309:63 8.08326e-05
30 *898:A2 *311:72 1.91597e-05
31 *900:B *924:B 6.54361e-06
32 *900:B *311:62 5.96989e-05
33 *915:A1 *915:A2 1.08758e-05
34 *996:B *1067:RESET_B 0.000292407
35 *1038:B2 *272:24 0.000152433
36 *249:18 *887:B 5.30176e-05
37 *249:18 *251:10 1.19928e-05
38 *249:18 *309:59 1.43558e-05
39 *249:18 *310:104 4.66108e-05
40 *249:26 *267:10 0.000269284
41 *249:26 *267:91 0.000129103
42 *249:26 *309:59 6.19969e-05
43 *249:26 *309:61 9.93974e-05
44 *249:26 *309:63 0.000236998
45 *249:62 *886:A1 7.57929e-05
46 *249:62 *886:B1 2.10433e-05
47 *249:62 *915:A2 8.64435e-05
48 *249:62 *309:59 4.77807e-05
49 *249:62 *310:100 4.8174e-05
50 *249:83 *913:C 0.000139238
51 *249:83 *913:D 0.000115099
52 *249:83 *974:D 3.10667e-05
53 *249:83 *1118:A 0.000111607
54 *249:83 *265:51 1.32017e-05
55 *249:83 *265:68 0.000279236
56 *249:83 *280:10 0.000132893
57 *249:83 *296:86 4.89748e-05
58 *249:83 *307:62 0.000103237
59 *249:91 *1067:RESET_B 3.4419e-05
60 *249:91 *307:42 2.7703e-05
61 *249:102 *1067:RESET_B 8.30739e-05
62 is_outlier *249:62 3.99395e-05
63 is_outlier *249:83 6.45236e-05
64 *886:B2 *249:62 2.10433e-05
65 *899:A *249:8 7.06475e-05
66 *900:A *900:B 4.27108e-05
67 *901:A *249:14 4.66108e-05
68 *902:C *249:8 0.000101177
69 *902:C *249:14 5.0579e-05
70 *903:B *900:B 9.12494e-06
71 *903:B *249:8 0.000152776
72 *915:B1 *249:62 5.35988e-05
73 *916:C *915:A1 4.00541e-06
74 *982:B1 *1038:B2 3.03989e-05
75 *982:B1 *249:91 4.66108e-05
76 *982:B2 *249:91 8.41384e-05
77 *1007:A2 *249:14 4.04632e-05
78 *1008:A1 *249:14 4.23008e-05
79 *1008:A1 *249:18 0
80 *1008:A3 *249:14 2.86784e-05
81 *1008:A3 *249:18 8.23457e-05
82 *1008:B1 *249:14 4.77769e-05
83 *1009:S *900:B 5.21904e-05
84 *1038:A1 *996:B 0.000119873
85 *58:6 *900:B 4.77807e-05
86 *59:25 *249:14 4.87939e-05
87 *71:19 *249:83 1.61461e-05
88 *83:20 *249:91 9.17857e-05
89 *91:12 *1038:B2 0.000152433
90 *140:10 *996:B 6.04372e-05
91 *140:10 *249:102 5.83121e-06
92 *213:30 *249:91 8.33066e-06
93 *245:107 *996:B 7.44125e-05
94 *246:23 *249:14 2.14363e-05
95 *246:36 *249:14 1.10359e-05
96 *246:97 *249:83 6.68709e-05
97 *247:65 *249:62 0.000202801
98 *247:65 *249:83 0.000225672
99 *247:94 *249:91 4.77769e-05
100 *247:111 *249:83 0.000291086
101 *248:12 *249:20 3.5678e-06
102 *248:23 *249:62 2.5496e-05
*RES
1 *885:X *249:8 5.8725 
2 *249:8 *249:14 6.2825 
3 *249:14 *249:18 2.445 
4 *249:18 *249:20 0.36 
5 *249:20 *249:26 7.31 
6 *249:26 *898:A2 5.535 
7 *249:26 *889:B 7.44 
8 *249:20 *249:62 8.555 
9 *249:62 *915:A1 4.41 
10 *249:62 *249:83 15.485 
11 *249:83 *249:91 7.3 
12 *249:91 *982:A1 1.6 
13 *249:91 *249:102 1.605 
14 *249:102 *1038:B2 8.105 
15 *249:102 *996:B 4.465 
16 *249:83 *974:B 1.6 
17 *249:18 *887:A 1.6 
18 *249:14 *901:B 1.6 
19 *249:8 *900:B 6.3975 
*END

*D_NET *250 0.00108578
*CONN
*I *915:B2 I *D sky130_fd_sc_hd__a22o_1
*I *887:D I *D sky130_fd_sc_hd__nand4_1
*I *886:X O *D sky130_fd_sc_hd__a22o_1
*CAP
1 *915:B2 3.67646e-05
2 *887:D 0.000124702
3 *886:X 3.69588e-05
4 *250:8 0.000198425
5 *887:D *884:C 9.03508e-06
6 *887:D *887:B 3.11381e-05
7 *887:D *265:51 0.000112556
8 *915:B2 *265:51 0.000127459
9 *915:B1 *915:B2 0.000131717
10 *247:65 *250:8 4.66108e-05
11 *248:12 *887:D 3.10756e-05
12 *248:23 *887:D 0.000190804
13 *248:23 *915:B2 8.53113e-06
*RES
1 *886:X *250:8 4.05 
2 *250:8 *887:D 6.915 
3 *250:8 *915:B2 5.235 
*END

*D_NET *251 0.00194193
*CONN
*I *916:A I *D sky130_fd_sc_hd__nand3_1
*I *917:A1 I *D sky130_fd_sc_hd__a21o_1
*I *888:B I *D sky130_fd_sc_hd__and2_1
*I *887:Y O *D sky130_fd_sc_hd__nand4_1
*CAP
1 *916:A 0.000113184
2 *917:A1 1.31277e-05
3 *888:B 2.64353e-05
4 *887:Y 0.000164934
5 *251:27 0.000237795
6 *251:10 0.000302852
7 *888:B *886:A2 2.49909e-05
8 *251:10 *887:B 8.35118e-05
9 *251:10 *915:A2 0.00011109
10 *251:10 *310:104 1.91597e-05
11 *251:27 *915:A2 0.000127016
12 *251:27 *309:49 3.31204e-05
13 *916:B *916:A 2.30292e-05
14 *916:C *916:A 4.21973e-05
15 *916:C *917:A1 9.53428e-06
16 *916:C *251:27 7.68414e-06
17 *917:B1 *916:A 0.000167726
18 *917:B1 *917:A1 0
19 *918:C *916:A 0
20 *1007:B1 *888:B 3.64998e-06
21 *1007:B1 *251:10 0.00010974
22 *1007:B1 *251:27 7.22242e-05
23 *73:8 *917:A1 2.31547e-05
24 *73:8 *251:27 4.35648e-05
25 *74:14 *916:A 7.00889e-06
26 *75:6 *916:A 0.000163204
27 *249:18 *251:10 1.19928e-05
*RES
1 *887:Y *251:10 6.465 
2 *251:10 *888:B 4.05 
3 *251:10 *251:27 4.7 
4 *251:27 *917:A1 1.96 
5 *251:27 *916:A 4.825 
*END

*D_NET *252 0.00194928
*CONN
*I *895:B I *D sky130_fd_sc_hd__xnor2_1
*I *894:A_N I *D sky130_fd_sc_hd__and2b_1
*I *888:X O *D sky130_fd_sc_hd__and2_1
*CAP
1 *895:B 0
2 *894:A_N 7.63375e-05
3 *888:X 0.000270192
4 *252:8 0.000346529
5 *894:A_N *895:A 0.000139252
6 *894:A_N *1060:A1 8.80948e-05
7 *252:8 *885:A 0.000144996
8 *252:8 *891:B1 9.32949e-06
9 *252:8 *1060:A1 5.53549e-06
10 *252:8 *309:49 8.33066e-06
11 *252:8 *309:59 0.000173912
12 *252:8 *310:62 9.387e-06
13 *252:8 *310:81 4.82172e-06
14 *252:8 *311:72 0.00027324
15 *899:A *252:8 2.62286e-05
16 *900:A *252:8 0.000174528
17 *1007:B1 *252:8 7.16986e-05
18 *1062:A1 *894:A_N 1.17666e-05
19 *1062:A1 *252:8 5.79169e-06
20 *56:12 *894:A_N 4.99619e-05
21 *246:36 *252:8 4.96783e-05
22 *247:30 *252:8 9.67081e-06
*RES
1 *888:X *252:8 11.1 
2 *252:8 *894:A_N 5.94 
3 *252:8 *895:B 3.6 
*END

*D_NET *253 0.000618633
*CONN
*I *893:A I *D sky130_fd_sc_hd__xnor2_1
*I *889:Y O *D sky130_fd_sc_hd__nand2_1
*CAP
1 *893:A 0.000190995
2 *889:Y 0.000190995
3 *893:A *261:12 0
4 *893:A *293:84 0.000236643
*RES
1 *889:Y *893:A 10.17 
*END

*D_NET *254 0.00264236
*CONN
*I *892:A_N I *D sky130_fd_sc_hd__and2b_1
*I *898:B1 I *D sky130_fd_sc_hd__a31o_1
*I *890:X O *D sky130_fd_sc_hd__and4_1
*CAP
1 *892:A_N 0.000337262
2 *898:B1 7.56125e-05
3 *890:X 0.000300444
4 *254:16 0.000713318
5 *892:A_N *892:B 0.000159693
6 *892:A_N *1058:A1 1.1561e-05
7 *892:A_N *255:10 0.000104183
8 *892:A_N *276:22 0.000230435
9 *892:A_N *309:63 8.11345e-05
10 *898:B1 *889:A 8.68767e-06
11 *898:B1 *261:10 0
12 *898:B1 *267:10 5.64759e-05
13 *254:16 *885:A 0
14 *254:16 *886:A1 1.7635e-05
15 *254:16 *891:B2 3.89692e-05
16 *254:16 *1078:A 0.000146928
17 *254:16 *261:10 0
18 *254:16 *267:10 6.98766e-05
19 *254:16 *309:61 3.76132e-05
20 *254:16 *309:63 8.33066e-06
21 *56:12 *892:A_N 0.000216863
22 *247:30 *254:16 2.73414e-05
*RES
1 *890:X *254:16 7.94433 
2 *254:16 *898:B1 4.98 
3 *254:16 *892:A_N 14.08 
*END

*D_NET *255 0.0017663
*CONN
*I *898:A3 I *D sky130_fd_sc_hd__a31o_1
*I *892:B I *D sky130_fd_sc_hd__and2b_1
*I *891:X O *D sky130_fd_sc_hd__a22o_1
*CAP
1 *898:A3 5.00536e-05
2 *892:B 8.52966e-05
3 *891:X 0.000191156
4 *255:10 0.000326506
5 *892:B *257:8 4.99619e-05
6 *892:B *267:10 0
7 *898:A3 *309:86 6.71882e-05
8 *898:A3 *311:72 0.00015639
9 *255:10 *276:22 0.00018955
10 *892:A_N *892:B 0.000159693
11 *892:A_N *255:10 0.000104183
12 *898:A2 *898:A3 1.08758e-05
13 *1062:A1 *892:B 0.000224217
14 *1062:A1 *255:10 0.000112147
15 *56:12 *892:B 3.90833e-05
*RES
1 *891:X *255:10 6.81 
2 *255:10 *892:B 6.705 
3 *255:10 *898:A3 5.085 
*END

*D_NET *256 0.000373178
*CONN
*I *893:B I *D sky130_fd_sc_hd__xnor2_1
*I *892:X O *D sky130_fd_sc_hd__and2b_1
*CAP
1 *893:B 8.82081e-05
2 *892:X 8.82081e-05
3 *893:B *1058:A1 0.000175653
4 *893:B *257:8 2.11084e-05
*RES
1 *892:X *893:B 5.405 
*END

*D_NET *257 0.00142603
*CONN
*I *894:B I *D sky130_fd_sc_hd__and2b_1
*I *895:A I *D sky130_fd_sc_hd__xnor2_1
*I *893:Y O *D sky130_fd_sc_hd__xnor2_1
*CAP
1 *894:B 0.000157867
2 *895:A 6.70662e-05
3 *893:Y 0.000191828
4 *257:8 0.000416762
5 *895:A *1060:A1 3.47668e-05
6 *892:B *257:8 4.99619e-05
7 *893:B *257:8 2.11084e-05
8 *894:A_N *895:A 0.000139252
9 *1062:A1 *895:A 0.000226855
10 *56:12 *894:B 7.8936e-05
11 *56:12 *257:8 4.16262e-05
*RES
1 *893:Y *257:8 4.135 
2 *257:8 *895:A 8.255 
3 *257:8 *894:B 3.79 
*END

*D_NET *258 0.00258151
*CONN
*I *908:A1 I *D sky130_fd_sc_hd__o21ai_2
*I *909:B I *D sky130_fd_sc_hd__or3_1
*I *894:X O *D sky130_fd_sc_hd__and2b_1
*CAP
1 *908:A1 0.000186606
2 *909:B 0
3 *894:X 0.00057072
4 *258:10 0.000757326
5 *907:B *258:10 6.18991e-05
6 *908:A2 *908:A1 4.60584e-05
7 *908:B1 *908:A1 0.00013638
8 *1010:B *258:10 0.000124471
9 *1011:A1 *258:10 2.1433e-05
10 *55:20 *258:10 3.79168e-05
11 *56:12 *258:10 0.000161204
12 *56:16 *258:10 0.000164874
13 *61:21 *258:10 3.90495e-05
14 *65:8 *908:A1 0.000115035
15 *65:8 *258:10 0.000158539
*RES
1 *894:X *258:10 11.14 
2 *258:10 *909:B 1.6 
3 *258:10 *908:A1 5.185 
*END

*D_NET *259 0.00251911
*CONN
*I *920:B1 I *D sky130_fd_sc_hd__a21oi_1
*I *896:C I *D sky130_fd_sc_hd__and3_1
*I *895:Y O *D sky130_fd_sc_hd__xnor2_1
*CAP
1 *920:B1 4.08795e-05
2 *896:C 3.10585e-05
3 *895:Y 0.000382783
4 *259:14 0.000454721
5 *920:B1 *276:22 0.000110147
6 *259:14 *891:B1 0.000180688
7 *259:14 *899:B 4.82863e-05
8 *259:14 *1060:A1 2.42236e-05
9 *259:14 *276:22 0.000801838
10 *259:14 *309:86 1.16578e-05
11 *259:14 *309:117 3.66286e-05
12 *896:A *896:C 9.53428e-06
13 *896:A *259:14 2.937e-05
14 *899:A *259:14 0.000119762
15 *903:A *259:14 0
16 *903:B *259:14 0.000152303
17 *920:A1 *896:C 1.83194e-05
18 *920:A1 *920:B1 1.82499e-05
19 *920:A1 *259:14 9.80032e-06
20 *217:23 *920:B1 1.20052e-05
21 *217:40 *896:C 0
22 *217:40 *920:B1 2.68526e-05
*RES
1 *895:Y *259:14 16.055 
2 *259:14 *896:C 2.38 
3 *259:14 *920:B1 3.1 
*END

*D_NET *260 0.00394878
*CONN
*I *1079:A I *D sky130_fd_sc_hd__clkbuf_16
*I *1078:A I *D sky130_fd_sc_hd__clkbuf_16
*I *1077:X O *D sky130_fd_sc_hd__clkbuf_16
*CAP
1 *1079:A 0.000287301
2 *1078:A 0.000962467
3 *1077:X 0
4 *260:4 0.00124977
5 *1078:A *885:A 4.4312e-05
6 *1078:A *891:A1 0.000146757
7 *1078:A *267:10 6.04355e-05
8 *1078:A *276:22 8.36126e-05
9 *1078:A *310:81 0.000212898
10 *1079:A *311:46 4.86117e-05
11 *55:20 *1078:A 0
12 *167:8 *1078:A 6.91124e-05
13 *167:8 *1079:A 0.000151873
14 *217:23 *1079:A 3.00381e-05
15 *217:44 *1078:A 0.000437478
16 *245:16 *1078:A 1.71919e-05
17 *254:16 *1078:A 0.000146928
*RES
1 *1077:X *260:4 1.6 
2 *260:4 *1078:A 12.8205 
3 *260:4 *1079:A 9.695 
*END

*D_NET *261 0.0109536
*CONN
*I *1065:CLK I *D sky130_fd_sc_hd__dfrtp_1
*I *1067:CLK I *D sky130_fd_sc_hd__dfrtp_1
*I *1063:CLK I *D sky130_fd_sc_hd__dfrtp_1
*I *1068:CLK I *D sky130_fd_sc_hd__dfrtp_1
*I *1074:CLK I *D sky130_fd_sc_hd__dfrtp_1
*I *1075:CLK I *D sky130_fd_sc_hd__dfrtp_1
*I *1076:CLK I *D sky130_fd_sc_hd__dfrtp_1
*I *1069:CLK I *D sky130_fd_sc_hd__dfrtp_1
*I *1078:X O *D sky130_fd_sc_hd__clkbuf_16
*CAP
1 *1065:CLK 0.000168857
2 *1067:CLK 0.000204147
3 *1063:CLK 0.000115462
4 *1068:CLK 3.67997e-05
5 *1074:CLK 0.00074153
6 *1075:CLK 0
7 *1076:CLK 0.000434967
8 *1069:CLK 0.000321064
9 *1078:X 0.000119072
10 *261:91 0.000814541
11 *261:81 0.000923407
12 *261:70 0.000449324
13 *261:33 0.000776545
14 *261:12 0.000931017
15 *261:10 0.00113212
16 *261:8 0.00039419
17 *1065:CLK *265:51 0
18 *1065:CLK *277:28 6.78805e-05
19 *1067:CLK *1119:A 0.000192731
20 *1067:CLK *277:14 0
21 *1067:CLK *293:64 0
22 *1068:CLK *884:C 4.77769e-05
23 *1068:CLK *884:D 4.77719e-05
24 *1068:CLK *267:91 6.79968e-05
25 *1069:CLK *1069:RESET_B 0.000144169
26 *1069:CLK *1126:A 0.000116447
27 *1069:CLK *290:8 2.69217e-05
28 *1074:CLK *1074:RESET_B 0.000114081
29 *1074:CLK *293:84 6.25814e-05
30 *1076:CLK *1061:B 1.79174e-05
31 *1076:CLK *265:10 7.15997e-05
32 *261:8 *891:A1 8.23457e-05
33 *261:8 *276:22 2.33708e-05
34 *261:10 *889:A 4.55864e-06
35 *261:10 *1084:A 0.000193364
36 *261:12 *889:A 2.65028e-05
37 *261:12 *1084:A 9.45357e-05
38 *261:12 *1126:A 0.000407217
39 *261:12 *293:84 0
40 *261:33 *1061:B 1.25123e-05
41 *261:70 *1084:A 0.000104264
42 *261:81 *884:D 1.88271e-05
43 *261:81 *265:51 0
44 *261:81 *307:62 5.78455e-05
45 *261:91 *1120:A 3.12115e-05
46 *879:A *261:91 4.66108e-05
47 *879:B *261:70 5.71481e-05
48 *879:B *261:81 0.000123857
49 *880:B1_N *261:91 1.91597e-05
50 *884:A *261:70 7.33283e-05
51 *884:A *261:81 4.28112e-06
52 *889:B *1074:CLK 3.54867e-05
53 *893:A *261:12 0
54 *898:B1 *261:10 0
55 *1075:D *1069:CLK 9.10058e-05
56 *1075:D *261:33 0.00010058
57 *1076:D *1076:CLK 9.32375e-05
58 *209:32 *1076:CLK 0.000139817
59 *211:35 *1065:CLK 4.21314e-05
60 *211:35 *261:81 7.23602e-05
61 *211:50 *1065:CLK 0.000179015
62 *211:88 *261:12 0
63 *244:33 *1065:CLK 0.000114492
64 *247:14 *261:81 0.000154133
65 *247:30 *261:81 9.47962e-06
66 *254:16 *261:10 0
*RES
1 *1078:X *261:8 5.085 
2 *261:8 *261:10 2.4 
3 *261:10 *261:12 5.97 
4 *261:12 *1069:CLK 9.255 
5 *261:12 *261:33 6.17 
6 *261:33 *1076:CLK 12.2 
7 *261:33 *1075:CLK 1.6 
8 *261:10 *1074:CLK 12.27 
9 *261:8 *261:70 3.42 
10 *261:70 *1068:CLK 4.74 
11 *261:70 *261:81 5.715 
12 *261:81 *261:91 9.395 
13 *261:91 *1063:CLK 3.085 
14 *261:91 *1067:CLK 9.98 
15 *261:81 *1065:CLK 7.395 
*END

*D_NET *262 0.00668068
*CONN
*I *1070:CLK I *D sky130_fd_sc_hd__dfrtp_1
*I *1066:CLK I *D sky130_fd_sc_hd__dfrtp_1
*I *1072:CLK I *D sky130_fd_sc_hd__dfrtp_1
*I *1064:CLK I *D sky130_fd_sc_hd__dfrtp_1
*I *1071:CLK I *D sky130_fd_sc_hd__dfrtp_1
*I *1073:CLK I *D sky130_fd_sc_hd__dfrtp_1
*I *1079:X O *D sky130_fd_sc_hd__clkbuf_16
*CAP
1 *1070:CLK 8.14745e-05
2 *1066:CLK 0.000396514
3 *1072:CLK 0
4 *1064:CLK 3.03146e-05
5 *1071:CLK 0
6 *1073:CLK 0.000319455
7 *1079:X 0.000522147
8 *262:45 0.000510031
9 *262:34 0.000397001
10 *262:25 0.000366128
11 *262:8 0.000432412
12 *262:6 0.000603621
13 *1064:CLK *1066:RESET_B 4.82919e-05
14 *1064:CLK *271:16 0.000122337
15 *1066:CLK *1054:A1 4.66108e-05
16 *1066:CLK *1066:RESET_B 0.000218815
17 *1066:CLK *296:161 0.000180457
18 *1073:CLK *876:A1 5.20968e-05
19 *1073:CLK *275:8 0.000296169
20 *1073:CLK *310:28 3.98782e-05
21 *262:6 *856:A 2.8185e-05
22 *262:6 *877:A1 8.52845e-05
23 *262:6 *276:22 0.000323081
24 *262:25 *876:A1 6.7401e-05
25 *262:34 *844:A 0
26 *262:34 *873:A1 0.000140912
27 *262:34 *1066:RESET_B 1.52184e-05
28 *262:45 *1066:RESET_B 0.000100536
29 *856:B *1070:CLK 0
30 *856:B *262:6 0.000193526
31 *864:B *1064:CLK 4.82919e-05
32 *872:B1 *262:25 6.7033e-05
33 *872:B1 *262:34 6.75009e-05
34 *873:B1 *262:34 0.000139238
35 *910:B *262:6 4.82919e-05
36 *1054:A3 *262:25 9.81229e-05
37 *1054:A3 *262:34 0.000133822
38 *1066:D *1066:CLK 2.68464e-05
39 *1073:D *1073:CLK 6.47516e-05
40 *211:105 *1073:CLK 7.02326e-05
41 *243:110 *1073:CLK 0.000100544
42 *243:121 *1073:CLK 0.000124532
43 *243:121 *262:25 7.35757e-05
*RES
1 *1079:X *262:6 10.33 
2 *262:6 *262:8 2 
3 *262:8 *1073:CLK 12.27 
4 *262:8 *262:25 3.675 
5 *262:25 *1071:CLK 3.6 
6 *262:25 *262:34 6.225 
7 *262:34 *1064:CLK 4.74 
8 *262:34 *262:45 2.145 
9 *262:45 *1072:CLK 3.6 
10 *262:45 *1066:CLK 11.625 
11 *262:6 *1070:CLK 2.755 
*END

*D_NET *263 0.0134238
*CONN
*I *849:A I *D sky130_fd_sc_hd__buf_2
*I *958:D I *D sky130_fd_sc_hd__nand4_2
*I *957:B1 I *D sky130_fd_sc_hd__a22o_1
*I *974:D I *D sky130_fd_sc_hd__and4_1
*I *1094:X O *D sky130_fd_sc_hd__clkbuf_2
*CAP
1 *849:A 0.00124164
2 *958:D 0
3 *957:B1 0.000268837
4 *974:D 0.000819404
5 *1094:X 0
6 *263:29 0.000616937
7 *263:10 0.00227468
8 *263:4 0.00234881
9 *849:A *1047:B 4.60991e-05
10 *849:A *1059:B 0.000124007
11 *849:A *1091:A 7.6391e-05
12 *849:A *1092:A 9.66106e-05
13 *849:A *1126:A 3.00694e-05
14 *849:A *265:10 0
15 *957:B1 *958:C 0.000171793
16 *957:B1 *266:12 8.35683e-05
17 *957:B1 *266:22 9.50342e-06
18 *957:B1 *267:108 9.14049e-05
19 *974:D *296:86 3.69497e-05
20 *263:10 *1119:A 0.00107484
21 *263:10 *276:22 0.000104886
22 *263:10 *278:12 0.000289028
23 *263:10 *281:10 0.000139299
24 *263:29 *1119:A 0.000672678
25 int4_out[0] *263:10 0
26 *929:D *974:D 2.49909e-05
27 *981:A *974:D 0
28 *1036:B1 *974:D 0.000400678
29 *1036:B2 *974:D 2.27064e-05
30 *1048:B1 *849:A 1.4389e-05
31 *1059:A *849:A 0.000289165
32 *1062:A1 *849:A 0.000320653
33 *1074:D *263:10 5.39718e-05
34 *1105:A *263:29 8.75474e-05
35 *1107:A *263:10 0
36 *63:12 *849:A 0.000202662
37 *83:20 *974:D 0.000156771
38 *87:10 *974:D 0.000158543
39 *90:10 *974:D 0.000186026
40 *210:8 *263:10 0
41 *210:23 *849:A 0.000307043
42 *210:49 *263:10 0
43 *211:88 *849:A 0.000210775
44 *211:105 *849:A 9.21005e-05
45 *213:37 *974:D 2.69217e-05
46 *246:97 *974:D 0.000170719
47 *247:111 *974:D 4.96199e-05
48 *249:83 *974:D 3.10667e-05
*RES
1 *1094:X *263:4 1.6 
2 *263:4 *263:10 26.78 
3 *263:10 *974:D 18.915 
4 *263:10 *263:29 10.55 
5 *263:29 *957:B1 9.86 
6 *263:29 *958:D 1.6 
7 *263:4 *849:A 27.5 
*END

*D_NET *264 0.013413
*CONN
*I *939:A I *D sky130_fd_sc_hd__and2_1
*I *953:A I *D sky130_fd_sc_hd__and2_1
*I *924:A I *D sky130_fd_sc_hd__and2_1
*I *881:A I *D sky130_fd_sc_hd__buf_2
*I *897:A I *D sky130_fd_sc_hd__nand2_2
*I *1095:X O *D sky130_fd_sc_hd__clkbuf_2
*CAP
1 *939:A 0
2 *953:A 0.000132107
3 *924:A 0.000111531
4 *881:A 0.000113965
5 *897:A 0
6 *1095:X 0.00269498
7 *264:30 0.000428498
8 *264:24 0.00134668
9 *264:20 0.00115194
10 *264:14 0.0027942
11 *881:A *897:B 1.27073e-05
12 *881:A *311:46 2.86975e-05
13 *881:A *311:62 4.8854e-05
14 *953:A *272:24 3.70624e-05
15 *953:A *307:20 9.12494e-06
16 *264:14 *285:20 0.00210482
17 *264:20 *939:B 9.20116e-05
18 *264:24 *272:24 0
19 *264:30 *272:24 0
20 *919:A *264:30 9.65007e-05
21 *919:B *264:30 9.31547e-06
22 *934:B1_N *264:30 0
23 *935:B *264:24 4.43871e-06
24 *935:B *264:30 4.07468e-05
25 *950:A *264:24 9.86611e-05
26 *964:A *264:14 2.86975e-05
27 *964:A *264:20 2.61633e-05
28 *964:C *264:14 3.04436e-05
29 *965:B *264:24 0
30 *968:B1 *924:A 5.37018e-05
31 *969:B *924:A 0
32 *990:A1 *953:A 6.20263e-05
33 *990:A1 *264:24 9.71067e-05
34 *990:A2 *953:A 1.0397e-05
35 *990:B1 *264:24 0
36 *992:A *264:14 8.40213e-05
37 *1000:A1 *264:24 0
38 *1038:A1 *264:24 0.000216095
39 *55:6 *881:A 7.18107e-06
40 *55:6 *264:30 2.97339e-05
41 *55:53 *264:30 1.14192e-05
42 *76:21 *264:30 1.23331e-05
43 *91:12 *924:A 1.34594e-05
44 *91:12 *264:24 0.000198325
45 *91:12 *264:30 5.47609e-05
46 *92:12 *264:30 7.4027e-05
47 *106:8 *264:24 3.09451e-05
48 *120:8 *953:A 0
49 *120:8 *264:24 0
50 *123:12 *264:24 0
51 *137:12 *264:14 7.15997e-05
52 *137:14 *264:14 2.39947e-05
53 *141:48 *264:14 0.000176072
54 *144:10 *264:14 0.000145664
55 *144:14 *264:14 7.36136e-05
56 *179:37 *264:30 0.000372991
57 *213:54 *264:24 6.42722e-05
58 *213:60 *264:24 7.21086e-05
59 *213:74 *264:24 1.50487e-05
60 *214:80 *264:24 0
61 *214:96 *264:24 0
62 *245:51 *264:24 0
*RES
1 *1095:X *264:14 44.57 
2 *264:14 *264:20 3.845 
3 *264:20 *264:24 17.895 
4 *264:24 *264:30 9.53 
5 *264:30 *897:A 1.6 
6 *264:30 *881:A 3.805 
7 *264:24 *924:A 5.46 
8 *264:20 *953:A 6 
9 *264:14 *939:A 1.6 
*END

*D_NET *265 0.0145645
*CONN
*I *956:A I *D sky130_fd_sc_hd__and2_1
*I *942:A I *D sky130_fd_sc_hd__and2_1
*I *927:A I *D sky130_fd_sc_hd__and2_1
*I *911:A I *D sky130_fd_sc_hd__and2_1
*I *885:A I *D sky130_fd_sc_hd__buf_2
*I *1096:X O *D sky130_fd_sc_hd__dlymetal6s2s_1
*CAP
1 *956:A 0.000111564
2 *942:A 0.000181561
3 *927:A 0.000116755
4 *911:A 0
5 *885:A 0.00100287
6 *1096:X 0.00106868
7 *265:85 0.00053491
8 *265:68 0.000788123
9 *265:51 0.00157807
10 *265:10 0.00322003
11 *885:A *891:A2 4.66108e-05
12 *885:A *891:B1 1.91597e-05
13 *885:A *1060:A1 4.18203e-05
14 *885:A *276:22 8.23457e-05
15 *885:A *310:62 0.000101945
16 *885:A *310:81 9.70043e-06
17 *927:A *927:B 8.8266e-05
18 *942:A *296:49 9.4879e-05
19 *956:A *309:43 3.75882e-06
20 *265:10 *1074:RESET_B 1.03833e-05
21 *265:10 *1084:A 0
22 *265:10 *1091:A 0
23 *265:10 *1126:A 0
24 *265:51 *884:D 0.000269972
25 *265:51 *891:A1 0
26 *265:51 *912:B1 3.12916e-05
27 *265:51 *913:C 7.26551e-05
28 *265:51 *913:D 3.97438e-05
29 *265:51 *1046:A2 5.83121e-06
30 *265:51 *1057:B 3.3625e-05
31 *265:51 *1074:RESET_B 0.000191754
32 *265:51 *1084:A 0
33 *265:51 *1087:A 7.41487e-05
34 *265:51 *266:34 0.000350569
35 *265:51 *293:66 1.28996e-05
36 *265:51 *307:62 0.000248953
37 *265:68 *911:B 4.77807e-05
38 *265:68 *912:B1 2.82864e-05
39 *265:68 *1118:A 0.000202277
40 *265:68 *309:43 7.96455e-05
41 *265:85 *1118:A 0
42 *265:85 *309:43 0.000181921
43 is_outlier *265:51 3.19967e-06
44 sideband_out[5] *265:10 9.66106e-05
45 *846:A *265:10 0.000157595
46 *849:A *265:10 0
47 *887:D *265:51 0.000112556
48 *899:A *885:A 9.03508e-06
49 *915:B2 *265:51 0.000127459
50 *930:A1 *265:68 2.4997e-05
51 *930:A1 *265:85 1.73877e-05
52 *932:A *265:68 0.000107383
53 *932:A *265:85 0
54 *952:C *265:85 0.000142617
55 *955:A2 *942:A 4.77719e-05
56 *955:B1 *942:A 8.52803e-05
57 *1044:B2 *265:51 1.54665e-05
58 *1044:B2 *265:68 0.000119247
59 *1045:A *265:51 0.000180893
60 *1058:B1 *265:10 8.55971e-05
61 *1062:B1 *265:10 4.86422e-05
62 *1065:CLK *265:51 0
63 *1068:D *265:51 7.03276e-05
64 *1076:CLK *265:10 7.15997e-05
65 *1078:A *885:A 4.4312e-05
66 *85:6 *927:A 8.40269e-05
67 *86:14 *265:68 7.23602e-05
68 *86:26 *265:68 0.000120186
69 *99:12 *265:85 9.14049e-05
70 *116:10 *956:A 0.000165809
71 *116:10 *265:85 0.000315179
72 *209:32 *265:10 7.78423e-05
73 *209:45 *265:10 4.11194e-05
74 *217:44 *885:A 5.32707e-05
75 *243:42 *265:10 0.000235974
76 *244:33 *265:51 0
77 *246:97 *265:68 0.0003197
78 *247:65 *265:51 9.43331e-06
79 *249:83 *265:51 1.32017e-05
80 *249:83 *265:68 0.000279236
81 *252:8 *885:A 0.000144996
82 *254:16 *885:A 0
83 *261:81 *265:51 0
*RES
1 *1096:X *265:10 23.7075 
2 *265:10 *885:A 9.01217 
3 *265:10 *265:51 27.9525 
4 *265:51 *911:A 1.6 
5 *265:51 *265:68 14.45 
6 *265:68 *927:A 5.775 
7 *265:68 *265:85 7.23 
8 *265:85 *942:A 7.17 
9 *265:85 *956:A 5.745 
*END

*D_NET *266 0.0116096
*CONN
*I *943:A1 I *D sky130_fd_sc_hd__a22o_1
*I *958:B I *D sky130_fd_sc_hd__nand4_2
*I *957:A1 I *D sky130_fd_sc_hd__a22o_1
*I *883:A I *D sky130_fd_sc_hd__buf_2
*I *890:B I *D sky130_fd_sc_hd__and4_1
*I *886:A1 I *D sky130_fd_sc_hd__a22o_1
*I *891:A1 I *D sky130_fd_sc_hd__a22o_1
*I *1097:X O *D sky130_fd_sc_hd__clkbuf_2
*CAP
1 *943:A1 7.61229e-05
2 *958:B 4.66219e-05
3 *957:A1 0
4 *883:A 0.000266116
5 *890:B 0
6 *886:A1 0.000210743
7 *891:A1 0.000472125
8 *1097:X 0.000624181
9 *266:107 0.000122745
10 *266:65 0.000389184
11 *266:34 0.00103042
12 *266:22 0.00138997
13 *266:12 0.000818331
14 *266:10 0.000698516
15 *883:A *884:D 5.26865e-05
16 *883:A *1087:A 0.000163659
17 *886:A1 *884:C 3.11249e-05
18 *886:A1 *886:B1 9.50342e-06
19 *886:A1 *267:10 2.73058e-05
20 *886:A1 *267:91 0.000121139
21 *891:A1 *891:B1 2.80134e-05
22 *891:A1 *891:B2 5.02905e-05
23 *891:A1 *1084:A 0.00011099
24 *891:A1 *276:22 0.000199518
25 *891:A1 *309:63 8.37364e-05
26 *891:A1 *310:100 0
27 *943:A1 *943:B1 4.40028e-05
28 *943:A1 *943:B2 0.00012349
29 *943:A1 *267:108 3.74161e-05
30 *958:B *958:C 2.45752e-05
31 *958:B *267:108 8.49205e-05
32 *266:10 *277:14 0.000265463
33 *266:10 *296:59 0
34 *266:10 *309:14 8.52972e-05
35 *266:12 *267:108 2.15594e-05
36 *266:12 *274:41 0
37 *266:12 *277:14 8.08153e-06
38 *266:22 *848:A 5.38986e-06
39 *266:22 *267:91 0.000905885
40 *266:22 *274:16 3.60648e-06
41 *266:22 *274:41 0
42 *266:22 *277:14 2.16022e-05
43 *266:22 *293:62 1.34361e-05
44 *266:22 *293:64 0.000142719
45 *266:22 *293:66 0.000138579
46 *266:34 *1057:B 9.12494e-06
47 *266:34 *267:91 0.000257614
48 *266:34 *293:66 5.80226e-05
49 *266:65 *890:A 8.35068e-05
50 *957:B1 *266:12 8.35683e-05
51 *957:B1 *266:22 9.50342e-06
52 *1007:B1 *891:A1 1.54707e-05
53 *1045:C *266:34 0.000135009
54 *1045:C *266:65 0.00012448
55 *1062:A1 *891:A1 8.53113e-06
56 *1065:D *266:22 0.000409804
57 *1067:D *266:22 0.000114524
58 *1078:A *891:A1 0.000146757
59 *1108:A *266:10 2.11084e-05
60 *1112:A *266:10 3.00381e-05
61 *115:18 *266:10 4.40899e-05
62 *115:18 *266:12 4.92096e-05
63 *116:10 *943:A1 0.000272662
64 *116:10 *958:B 0.000123225
65 *247:14 *883:A 5.83121e-06
66 *248:23 *886:A1 0.000132096
67 *249:62 *886:A1 7.57929e-05
68 *254:16 *886:A1 1.7635e-05
69 *261:8 *891:A1 8.23457e-05
70 *265:51 *891:A1 0
71 *265:51 *266:34 0.000350569
*RES
1 *1097:X *266:10 16.26 
2 *266:10 *266:12 1.89 
3 *266:12 *266:22 19.32 
4 *266:22 *266:34 10.55 
5 *266:34 *891:A1 18.765 
6 *266:34 *266:65 2.865 
7 *266:65 *886:A1 10.34 
8 *266:65 *890:B 1.6 
9 *266:22 *883:A 7.44 
10 *266:12 *957:A1 3.6 
11 *266:10 *266:107 2 
12 *266:107 *958:B 3.1 
13 *266:107 *943:A1 4.48 
*END

*D_NET *267 0.0134299
*CONN
*I *943:B2 I *D sky130_fd_sc_hd__a22o_1
*I *958:A I *D sky130_fd_sc_hd__nand4_2
*I *957:B2 I *D sky130_fd_sc_hd__a22o_1
*I *882:A I *D sky130_fd_sc_hd__clkbuf_4
*I *891:B2 I *D sky130_fd_sc_hd__a22o_1
*I *890:A I *D sky130_fd_sc_hd__and4_1
*I *1098:X O *D sky130_fd_sc_hd__clkbuf_2
*CAP
1 *943:B2 2.17993e-05
2 *958:A 0
3 *957:B2 0
4 *882:A 1.20605e-05
5 *891:B2 6.10553e-05
6 *890:A 3.50009e-05
7 *1098:X 0.00140425
8 *267:108 0.000127947
9 *267:91 0.00210736
10 *267:21 0.000113694
11 *267:12 7.55792e-05
12 *267:10 0.00340546
13 *882:A *890:C 3.57349e-05
14 *890:A *890:C 1.08758e-05
15 *891:B2 *309:61 4.36573e-06
16 *891:B2 *309:63 2.54239e-05
17 *891:B2 *310:81 0.000104102
18 *891:B2 *310:100 4.09654e-05
19 *943:B2 *943:B1 2.99083e-05
20 *943:B2 *958:C 9.30763e-05
21 *267:10 *889:A 0
22 *267:10 *1058:A1 4.84393e-05
23 *267:10 *1060:A1 0
24 *267:10 *1076:RESET_B 0.000100944
25 *267:10 *1093:A 0.000214335
26 *267:10 *1126:A 0
27 *267:10 *1127:A 0.000609711
28 *267:10 *293:84 0.000482838
29 *267:21 *890:C 0.00014294
30 *267:91 *848:A 0.000130926
31 *267:91 *884:C 9.47972e-06
32 *267:91 *887:B 8.73389e-06
33 *267:91 *274:8 3.73076e-05
34 *267:91 *274:16 5.58629e-05
35 *267:108 *958:C 0.000122337
36 *267:108 *274:8 4.66108e-05
37 *267:108 *274:16 0
38 *267:108 *277:14 0.000134516
39 *879:B *267:91 0
40 *880:B1_N *267:91 6.67846e-05
41 *886:A1 *267:10 2.73058e-05
42 *886:A1 *267:91 0.000121139
43 *891:A1 *891:B2 5.02905e-05
44 *892:B *267:10 0
45 *898:A2 *267:10 9.20976e-05
46 *898:B1 *267:10 5.64759e-05
47 *943:A1 *943:B2 0.00012349
48 *943:A1 *267:108 3.74161e-05
49 *957:B1 *267:108 9.14049e-05
50 *958:B *267:108 8.49205e-05
51 *1007:B1 *891:B2 6.71803e-06
52 *1044:B1 *267:91 1.97194e-05
53 *1045:C *882:A 4.66108e-05
54 *1045:C *890:A 0.000121029
55 *1045:C *267:21 0.000155608
56 *1062:A1 *267:10 0
57 *1067:D *267:91 5.31158e-06
58 *1068:CLK *267:91 6.79968e-05
59 *1068:D *267:91 1.27028e-05
60 *1078:A *267:10 6.04355e-05
61 *56:12 *267:10 1.53032e-05
62 *102:20 *267:91 0
63 *211:50 *267:91 0.000315557
64 *213:12 *267:91 6.64943e-05
65 *248:12 *267:91 0.000142479
66 *248:23 *267:91 1.32026e-05
67 *249:26 *267:10 0.000269284
68 *249:26 *267:91 0.000129103
69 *254:16 *891:B2 3.89692e-05
70 *254:16 *267:10 6.98766e-05
71 *266:12 *267:108 2.15594e-05
72 *266:22 *267:91 0.000905885
73 *266:34 *267:91 0.000257614
74 *266:65 *890:A 8.35068e-05
*RES
1 *1098:X *267:10 30.63 
2 *267:10 *267:12 2 
3 *267:12 *890:A 2.74 
4 *267:12 *267:21 1.485 
5 *267:21 *891:B2 7.49 
6 *267:21 *882:A 2.05 
7 *267:10 *267:91 43.185 
8 *267:91 *957:B2 1.6 
9 *267:91 *267:108 7.585 
10 *267:108 *958:A 1.6 
11 *267:108 *943:B2 2.74 
*END

*D_NET *268 0.00279535
*CONN
*I *870:B1 I *D sky130_fd_sc_hd__a21oi_1
*I *1099:X O *D sky130_fd_sc_hd__clkbuf_1
*CAP
1 *870:B1 0.00106769
2 *1099:X 0.00106769
3 *870:B1 *1055:B 0.000259404
4 *870:B1 *1125:A 0.000160056
5 *871:A2_N *870:B1 6.72833e-06
6 *1055:A *870:B1 0.000221883
7 *1056:B1 *870:B1 1.19028e-05
8 *1099:A *870:B1 0
*RES
1 *1099:X *870:B1 24.75 
*END

*D_NET *269 0.00430195
*CONN
*I *871:B2 I *D sky130_fd_sc_hd__o2bb2a_1
*I *870:A1 I *D sky130_fd_sc_hd__a21oi_1
*I *1100:X O *D sky130_fd_sc_hd__buf_1
*CAP
1 *871:B2 0.000122394
2 *870:A1 0.000260426
3 *1100:X 0.00157946
4 *269:10 0.00196228
5 *871:B2 *275:8 0
6 *269:10 *275:8 0
7 *870:A2 *871:B2 0
8 *871:A2_N *870:A1 2.70725e-05
9 *871:A2_N *871:B2 0
10 *243:20 *871:B2 0.000193273
11 *243:20 *269:10 0.000157041
*RES
1 *1100:X *269:10 24.54 
2 *269:10 *870:A1 6.735 
3 *269:10 *871:B2 6 
*END

*D_NET *270 0.00644353
*CONN
*I *867:A I *D sky130_fd_sc_hd__or2_1
*I *872:A1 I *D sky130_fd_sc_hd__a21o_1
*I *1101:X O *D sky130_fd_sc_hd__buf_1
*CAP
1 *867:A 0
2 *872:A1 0.000108639
3 *1101:X 0.00218219
4 *270:16 0.00229083
5 *270:16 *1117:A 0.000711298
6 *270:16 *1124:A 0.00102896
7 *270:16 *271:16 0
8 *867:B *872:A1 4.82863e-05
9 *873:B1 *872:A1 1.17309e-05
10 *873:B1 *270:16 3.45679e-05
11 *231:16 *872:A1 2.70346e-05
*RES
1 *1101:X *270:16 48.875 
2 *270:16 *872:A1 3.445 
3 *270:16 *867:A 1.6 
*END

*D_NET *271 0.00598825
*CONN
*I *864:A I *D sky130_fd_sc_hd__or2_1
*I *873:A1 I *D sky130_fd_sc_hd__a22o_1
*I *1102:X O *D sky130_fd_sc_hd__buf_1
*CAP
1 *864:A 0
2 *873:A1 5.73293e-05
3 *1102:X 0.00185222
4 *271:16 0.00190955
5 *271:16 *1064:D 3.82404e-05
6 *271:16 *1064:RESET_B 2.65337e-05
7 *271:16 *1066:RESET_B 0.000149613
8 *271:16 *1080:A 4.77719e-05
9 *271:16 *1124:A 0.000953494
10 *271:16 *1129:A 0.000189205
11 *271:16 *277:28 0.000111909
12 *271:16 *293:12 0.0002783
13 int4_out[1] *271:16 3.85835e-05
14 *864:B *271:16 2.26612e-05
15 *873:A2 *873:A1 4.59847e-05
16 *1064:CLK *271:16 0.000122337
17 *228:10 *873:A1 3.60024e-06
18 *262:34 *873:A1 0.000140912
19 *270:16 *271:16 0
*RES
1 *1102:X *271:16 45.335 
2 *271:16 *873:A1 7.235 
3 *271:16 *864:A 1.6 
*END

*D_NET *272 0.00929767
*CONN
*I *861:A I *D sky130_fd_sc_hd__or2_1
*I *874:A1 I *D sky130_fd_sc_hd__a22o_1
*I *1103:X O *D sky130_fd_sc_hd__buf_1
*CAP
1 *861:A 0.000279145
2 *874:A1 0.00016653
3 *1103:X 0.00172426
4 *272:26 0.000954036
5 *272:24 0.00223262
6 *272:24 *924:B 5.92269e-05
7 *272:24 *939:B 0.000112059
8 *272:24 *307:20 6.26426e-05
9 *272:24 *309:14 0.00017899
10 *272:26 *860:A 6.97202e-05
11 *861:B *861:A 7.5619e-05
12 *861:B *874:A1 4.82919e-05
13 *874:B1 *861:A 3.25103e-05
14 *874:B1 *874:A1 0
15 *874:B2 *861:A 5.97809e-05
16 *918:A_N *272:24 0.000203967
17 *919:B *272:24 4.94457e-05
18 *922:A *272:26 0.000110767
19 *922:B_N *272:24 3.26889e-05
20 *922:B_N *272:26 4.60123e-05
21 *950:A *272:24 4.65721e-05
22 *950:B *272:24 9.78012e-05
23 *953:A *272:24 3.70624e-05
24 *963:A1 *272:24 2.75538e-05
25 *971:A *272:24 3.3625e-05
26 *979:C *272:24 0.000101302
27 *980:A2 *272:24 7.1624e-05
28 *982:A2 *272:24 0.00011107
29 *990:A2 *272:24 0.000154726
30 *1007:A1 *272:24 0
31 *1015:B1 *874:A1 4.82863e-05
32 *1015:B1 *272:26 0.00011472
33 *1038:B2 *272:24 0.000152433
34 *68:41 *272:26 9.95743e-05
35 *72:12 *272:24 0
36 *77:6 *272:24 3.10816e-05
37 *77:6 *272:26 4.77757e-05
38 *80:12 *272:26 1.08036e-05
39 *82:8 *272:24 0.000220721
40 *91:12 *272:24 0.000415149
41 *96:10 *272:24 9.89827e-05
42 *97:19 *272:24 7.73954e-05
43 *106:8 *272:24 8.45475e-05
44 *107:10 *272:24 0.000183043
45 *111:10 *272:24 0.000132242
46 *173:10 *272:26 0.000124007
47 *179:37 *272:24 8.61915e-05
48 *225:8 *861:A 0.000120655
49 *225:8 *874:A1 7.04071e-05
50 *264:24 *272:24 0
51 *264:30 *272:24 0
*RES
1 *1103:X *272:24 42.725 
2 *272:24 *272:26 9.42 
3 *272:26 *874:A1 4.855 
4 *272:26 *861:A 6.715 
*END

*D_NET *273 0.00818511
*CONN
*I *875:A1 I *D sky130_fd_sc_hd__a22o_1
*I *876:B2 I *D sky130_fd_sc_hd__o221a_1
*I *1104:X O *D sky130_fd_sc_hd__buf_1
*CAP
1 *875:A1 0.000100271
2 *876:B2 0.000204166
3 *1104:X 0.00224778
4 *273:16 0.00255222
5 *273:16 *1067:RESET_B 7.62174e-05
6 *273:16 *296:14 0.000385464
7 *273:16 *296:155 0.000309142
8 *273:16 *296:161 0
9 *273:16 *307:20 0.00119266
10 *863:B *273:16 0.00011379
11 *875:A2 *876:B2 1.41633e-05
12 *875:B1 *875:A1 9.00196e-05
13 *875:B1 *273:16 7.01303e-05
14 *876:B1 *876:B2 3.50152e-06
15 *876:C1 *875:A1 2.64559e-05
16 *876:C1 *876:B2 0.000108241
17 *1032:A1 *273:16 0
18 *1052:A1 *876:B2 0.000131333
19 *1052:A1 *273:16 0.000252495
20 *1066:D *273:16 0.000151869
21 *212:108 *273:16 0.000155176
22 *214:55 *273:16 0
23 *228:10 *273:16 0
*RES
1 *1104:X *273:16 47.55 
2 *273:16 *876:B2 7.905 
3 *273:16 *875:A1 5.805 
*END

*D_NET *274 0.00263515
*CONN
*I *957:A2 I *D sky130_fd_sc_hd__a22o_1
*I *943:B1 I *D sky130_fd_sc_hd__a22o_1
*I *958:C I *D sky130_fd_sc_hd__nand4_2
*I *848:A I *D sky130_fd_sc_hd__clkbuf_4
*I *1105:X O *D sky130_fd_sc_hd__buf_1
*CAP
1 *957:A2 0
2 *943:B1 4.14487e-05
3 *958:C 0.000147959
4 *848:A 0.0001252
5 *1105:X 0.000348144
6 *274:41 0.00033607
7 *274:16 0.000346887
8 *274:8 0.000423167
9 *943:A1 *943:B1 4.40028e-05
10 *943:B2 *943:B1 2.99083e-05
11 *943:B2 *958:C 9.30763e-05
12 *957:B1 *958:C 0.000171793
13 *958:B *958:C 2.45752e-05
14 *102:20 *848:A 0
15 *115:18 *274:41 7.4027e-05
16 *213:12 *848:A 2.68526e-05
17 *266:12 *274:41 0
18 *266:22 *848:A 5.38986e-06
19 *266:22 *274:16 3.60648e-06
20 *266:22 *274:41 0
21 *267:91 *848:A 0.000130926
22 *267:91 *274:8 3.73076e-05
23 *267:91 *274:16 5.58629e-05
24 *267:108 *958:C 0.000122337
25 *267:108 *274:8 4.66108e-05
26 *267:108 *274:16 0
*RES
1 *1105:X *274:8 5.77 
2 *274:8 *274:16 3.3875 
3 *274:16 *848:A 6.6225 
4 *274:16 *274:41 4.85 
5 *274:41 *958:C 4.9975 
6 *274:41 *943:B1 2.5675 
7 *274:8 *957:A2 1.6 
*END

*D_NET *275 0.00381902
*CONN
*I *876:A1 I *D sky130_fd_sc_hd__o221a_1
*I *856:A I *D sky130_fd_sc_hd__and2_1
*I *1106:X O *D sky130_fd_sc_hd__clkbuf_1
*CAP
1 *876:A1 0.000212699
2 *856:A 8.57442e-05
3 *1106:X 0.000881314
4 *275:8 0.00117976
5 *856:B *856:A 1.62913e-05
6 *870:A2 *275:8 8.32746e-05
7 *871:A2_N *275:8 8.74345e-06
8 *871:B2 *275:8 0
9 *872:B1 *876:A1 0.000213506
10 *872:B1 *275:8 0.000422773
11 *1052:A1 *876:A1 0.00027107
12 *1073:CLK *876:A1 5.20968e-05
13 *1073:CLK *275:8 0.000296169
14 *209:22 *275:8 0
15 *243:20 *275:8 0
16 *262:6 *856:A 2.8185e-05
17 *262:25 *876:A1 6.7401e-05
18 *269:10 *275:8 0
*RES
1 *1106:X *275:8 20.79 
2 *275:8 *856:A 5.115 
3 *275:8 *876:A1 8.775 
*END

*D_NET *276 0.00799798
*CONN
*I *877:A1 I *D sky130_fd_sc_hd__o22a_1
*I *878:A1 I *D sky130_fd_sc_hd__a21oi_4
*I *1107:X O *D sky130_fd_sc_hd__dlymetal6s2s_1
*CAP
1 *877:A1 0.000180128
2 *878:A1 0
3 *1107:X 0.00190107
4 *276:22 0.0020812
5 *276:22 *891:A2 1.91597e-05
6 *276:22 *891:B1 6.07575e-06
7 *276:22 *1057:B 5.93982e-05
8 *855:B *877:A1 1.49193e-05
9 *885:A *276:22 8.23457e-05
10 *891:A1 *276:22 0.000199518
11 *892:A_N *276:22 0.000230435
12 *910:B *276:22 0.00013612
13 *920:B1 *276:22 0.000110147
14 *1058:B1 *276:22 8.23457e-05
15 *1078:A *276:22 8.36126e-05
16 *68:10 *276:22 0.000120655
17 *210:49 *276:22 0.000233727
18 *217:23 *276:22 0.000688676
19 *217:40 *276:22 4.10688e-05
20 *220:10 *877:A1 0.00015352
21 *223:16 *877:A1 0
22 *243:14 *877:A1 4.58464e-05
23 *243:65 *276:22 0
24 *255:10 *276:22 0.00018955
25 *259:14 *276:22 0.000801838
26 *261:8 *276:22 2.33708e-05
27 *262:6 *877:A1 8.52845e-05
28 *262:6 *276:22 0.000323081
29 *263:10 *276:22 0.000104886
*RES
1 *1107:X *276:22 42.605 
2 *276:22 *878:A1 1.6 
3 *276:22 *877:A1 9.605 
*END

*D_NET *277 0.0120322
*CONN
*I *1064:D I *D sky130_fd_sc_hd__dfrtp_1
*I *844:A I *D sky130_fd_sc_hd__clkbuf_4
*I *1108:X O *D sky130_fd_sc_hd__buf_1
*CAP
1 *1064:D 5.5756e-05
2 *844:A 0.000133513
3 *1108:X 0.00137097
4 *277:28 0.00330049
5 *277:14 0.00448219
6 *844:A *1066:RESET_B 5.02217e-05
7 *277:14 *1119:A 0
8 *277:14 *293:62 3.33458e-05
9 *277:14 *293:64 4.27745e-05
10 *277:28 *850:A 0.000254061
11 *277:28 *913:D 2.47313e-05
12 *277:28 *296:161 3.4465e-05
13 *863:B *277:28 0.000214091
14 *864:B *277:28 3.54025e-05
15 *874:B1 *277:28 3.1562e-06
16 *1004:A2 *277:28 4.43682e-05
17 *1004:B1 *277:28 2.75229e-05
18 *1036:A1 *277:14 0.000158337
19 *1036:B2 *277:14 1.28996e-05
20 *1054:A3 *844:A 0.000112113
21 *1065:CLK *277:28 6.78805e-05
22 *1065:D *277:28 1.53232e-05
23 *1067:CLK *277:14 0
24 *162:10 *277:28 0.000191232
25 *180:6 *277:28 1.32843e-05
26 *209:10 *844:A 2.65814e-06
27 *214:96 *277:28 8.66661e-05
28 *228:10 *277:28 8.23457e-05
29 *245:51 *277:28 8.35106e-05
30 *245:72 *277:28 0.000133709
31 *247:73 *277:28 0.000385338
32 *262:34 *844:A 0
33 *266:10 *277:14 0.000265463
34 *266:12 *277:14 8.08153e-06
35 *266:22 *277:14 2.16022e-05
36 *267:108 *277:14 0.000134516
37 *271:16 *1064:D 3.82404e-05
38 *271:16 *277:28 0.000111909
*RES
1 *1108:X *277:14 31.085 
2 *277:14 *277:28 43.75 
3 *277:28 *844:A 8.45 
4 *277:28 *1064:D 2.32375 
*END

*D_NET *278 0.00105618
*CONN
*I *1086:A I *D sky130_fd_sc_hd__dlygate4sd3_1
*I *1116:A I *D sky130_fd_sc_hd__clkbuf_4
*I *1065:Q O *D sky130_fd_sc_hd__dfrtp_1
*CAP
1 *1086:A 0
2 *1116:A 8.45416e-05
3 *1065:Q 0.000254667
4 *278:12 0.000339209
5 *1116:A *1119:A 8.87378e-05
6 *263:10 *278:12 0.000289028
*RES
1 *1065:Q *278:12 10.505 
2 *278:12 *1116:A 7.49 
3 *278:12 *1086:A 1.6 
*END

*D_NET *279 0.00362222
*CONN
*I *1117:A I *D sky130_fd_sc_hd__clkbuf_4
*I *1088:A I *D sky130_fd_sc_hd__dlygate4sd3_1
*I *1066:Q O *D sky130_fd_sc_hd__dfrtp_1
*CAP
1 *1117:A 0.00106533
2 *1088:A 0
3 *1066:Q 9.97598e-05
4 *279:10 0.00116509
5 *1117:A *312:10 0.000158932
6 *1040:A1 *1117:A 0.000421821
7 *270:16 *1117:A 0.000711298
*RES
1 *1066:Q *279:10 7.235 
2 *279:10 *1088:A 1.6 
3 *279:10 *1117:A 26.84 
*END

*D_NET *280 0.00468705
*CONN
*I *1118:A I *D sky130_fd_sc_hd__clkbuf_4
*I *1089:A I *D sky130_fd_sc_hd__dlygate4sd3_1
*I *1067:Q O *D sky130_fd_sc_hd__dfrtp_1
*CAP
1 *1118:A 0.000795821
2 *1089:A 3.07736e-05
3 *1067:Q 0.000181434
4 *280:10 0.00100803
5 *1118:A *296:49 9.8308e-05
6 *1118:A *296:86 0.000123874
7 *280:10 *296:86 0.000132893
8 *928:A1 *1118:A 0.000193734
9 *930:A1 *1118:A 0.000113964
10 *955:A2 *1118:A 6.90972e-05
11 *972:C *1118:A 0.000196089
12 *1036:B2 *1089:A 1.56428e-05
13 *1044:B2 *280:10 0.000194284
14 *87:10 *1118:A 5.86496e-05
15 *87:23 *1118:A 0.000114838
16 *98:14 *1118:A 0.000155928
17 *103:14 *1118:A 6.28843e-05
18 *115:18 *1118:A 0.000537516
19 *116:10 *1118:A 4.19884e-05
20 *117:12 *1118:A 0.000114524
21 *212:14 *1118:A 0
22 *249:83 *1118:A 0.000111607
23 *249:83 *280:10 0.000132893
24 *265:68 *1118:A 0.000202277
25 *265:85 *1118:A 0
*RES
1 *1067:Q *280:10 7.065 
2 *280:10 *1089:A 4.05 
3 *280:10 *1118:A 24.105 
*END

*D_NET *281 0.00594558
*CONN
*I *1119:A I *D sky130_fd_sc_hd__clkbuf_4
*I *1087:A I *D sky130_fd_sc_hd__dlygate4sd3_1
*I *1068:Q O *D sky130_fd_sc_hd__dfrtp_1
*CAP
1 *1119:A 0.00113632
2 *1087:A 0.000382242
3 *1068:Q 0.000140297
4 *281:10 0.00165886
5 *1087:A *884:D 5.83121e-06
6 *1087:A *1046:A2 6.97118e-05
7 *1119:A *293:64 0
8 *1119:A *293:66 0
9 int4_out[3] *1119:A 0
10 *883:A *1087:A 0.000163659
11 *1046:A1 *1087:A 2.49909e-05
12 *1046:B1_N *281:10 2.41307e-05
13 *1063:D *1119:A 9.71067e-05
14 *1067:CLK *1119:A 0.000192731
15 *1116:A *1119:A 8.87378e-05
16 *211:10 *281:10 0
17 *211:35 *1119:A 0
18 *211:35 *281:10 0
19 *263:10 *1119:A 0.00107484
20 *263:10 *281:10 0.000139299
21 *263:29 *1119:A 0.000672678
22 *265:51 *1087:A 7.41487e-05
23 *277:14 *1119:A 0
*RES
1 *1068:Q *281:10 6.03 
2 *281:10 *1087:A 10.395 
3 *281:10 *1119:A 31.02 
*END

*D_NET *282 0.00134085
*CONN
*I *1120:A I *D sky130_fd_sc_hd__clkbuf_4
*I *1081:A I *D sky130_fd_sc_hd__dlygate4sd3_1
*I *1063:Q O *D sky130_fd_sc_hd__dfrtp_1
*CAP
1 *1120:A 0.000263484
2 *1081:A 8.63557e-05
3 *1063:Q 0
4 *282:6 0.000349839
5 *879:A *1120:A 2.49909e-05
6 *879:B *1081:A 0.000110838
7 *879:B *1120:A 5.12462e-05
8 *880:B1_N *1081:A 0.000112182
9 *880:B1_N *1120:A 0.000134114
10 *211:35 *1081:A 4.66826e-05
11 *211:50 *1120:A 2.09211e-05
12 *244:33 *1120:A 0.00010899
13 *261:91 *1120:A 3.12115e-05
*RES
1 *1063:Q *282:6 3.6 
2 *282:6 *1081:A 5.775 
3 *282:6 *1120:A 8.205 
*END

*D_NET *283 0.00184007
*CONN
*I *1092:A I *D sky130_fd_sc_hd__dlygate4sd3_1
*I *1121:A I *D sky130_fd_sc_hd__clkbuf_4
*I *1069:Q O *D sky130_fd_sc_hd__dfrtp_1
*CAP
1 *1092:A 0.000193632
2 *1121:A 0.000595011
3 *1069:Q 0
4 *283:6 0.000788644
5 *849:A *1092:A 9.66106e-05
6 *906:B *1092:A 0
7 *1048:A1 *1092:A 0
8 *1048:B1 *1092:A 0
9 *211:88 *1092:A 2.97004e-06
10 *211:105 *1092:A 0.000163204
*RES
1 *1069:Q *283:6 3.6 
2 *283:6 *1121:A 13.395 
3 *283:6 *1092:A 7.74 
*END

*D_NET *284 0.0012537
*CONN
*I *1122:A I *D sky130_fd_sc_hd__buf_2
*I *1090:A I *D sky130_fd_sc_hd__dlygate4sd3_1
*I *1070:Q O *D sky130_fd_sc_hd__dfrtp_1
*CAP
1 *1122:A 0.000393163
2 *1090:A 0
3 *1070:Q 0.000217445
4 *284:8 0.000610609
5 sideband_out[1] *1122:A 3.24868e-05
*RES
1 *1070:Q *284:8 4.825 
2 *284:8 *1090:A 1.6 
3 *284:8 *1122:A 11.84 
*END

*D_NET *285 0.00701563
*CONN
*I *847:A I *D sky130_fd_sc_hd__clkbuf_4
*I *956:B I *D sky130_fd_sc_hd__and2_1
*I *1109:X O *D sky130_fd_sc_hd__buf_1
*CAP
1 *847:A 0
2 *956:B 0.00016491
3 *1109:X 0.00141257
4 *285:20 0.00157748
5 *962:A1 *285:20 0.000119246
6 *962:A2 *285:20 2.20014e-05
7 *978:A1 *285:20 4.77769e-05
8 *979:A *285:20 4.66108e-05
9 *979:B *285:20 4.41506e-05
10 *979:C *285:20 0.00057789
11 *985:A_N *285:20 4.66108e-05
12 *985:B *285:20 6.01786e-05
13 *999:A1 *285:20 6.81992e-05
14 *999:A2 *285:20 0.000182322
15 *111:17 *285:20 0.00018955
16 *118:12 *956:B 0.000192714
17 *118:12 *285:20 8.54923e-05
18 *119:8 *285:20 1.07593e-05
19 *119:19 *285:20 1.33285e-05
20 *137:8 *285:20 4.90227e-05
21 *264:14 *285:20 0.00210482
*RES
1 *1109:X *285:20 40.85 
2 *285:20 *956:B 4.825 
3 *285:20 *847:A 1.6 
*END

*D_NET *286 0.0038116
*CONN
*I *1083:A I *D sky130_fd_sc_hd__dlygate4sd3_1
*I *1123:A I *D sky130_fd_sc_hd__clkbuf_4
*I *1071:Q O *D sky130_fd_sc_hd__dfrtp_1
*CAP
1 *1083:A 0.000150064
2 *1123:A 0.00108276
3 *1071:Q 6.26597e-05
4 *286:6 0.00129548
5 *1123:A *1049:B 0.000141606
6 *1123:A *1051:B 0.000138106
7 *1123:A *1073:RESET_B 0
8 *1123:A *310:28 0.000940928
*RES
1 *1071:Q *286:6 2.395 
2 *286:6 *1123:A 27.89 
3 *286:6 *1083:A 3.79 
*END

*D_NET *287 0.00492206
*CONN
*I *1124:A I *D sky130_fd_sc_hd__buf_2
*I *1085:A I *D sky130_fd_sc_hd__dlygate4sd3_1
*I *1072:Q O *D sky130_fd_sc_hd__dfrtp_1
*CAP
1 *1124:A 0.000882555
2 *1085:A 0
3 *1072:Q 0.000392705
4 *287:12 0.00127526
5 *287:12 *1072:RESET_B 0.00025267
6 *287:12 *312:10 0.00013642
7 *270:16 *1124:A 0.00102896
8 *271:16 *1124:A 0.000953494
*RES
1 *1072:Q *287:12 11.48 
2 *287:12 *1085:A 1.6 
3 *287:12 *1124:A 31.355 
*END

*D_NET *288 0.00249906
*CONN
*I *1125:A I *D sky130_fd_sc_hd__buf_2
*I *1082:A I *D sky130_fd_sc_hd__dlygate4sd3_1
*I *1073:Q O *D sky130_fd_sc_hd__dfrtp_1
*CAP
1 *1125:A 0.000609357
2 *1082:A 0
3 *1073:Q 0.000303385
4 *288:8 0.000912742
5 *1125:A *311:22 0.000420784
6 *288:8 *310:28 9.27326e-05
7 *870:B1 *1125:A 0.000160056
*RES
1 *1073:Q *288:8 6.55 
2 *288:8 *1082:A 1.6 
3 *288:8 *1125:A 17.42 
*END

*D_NET *289 0.00410746
*CONN
*I *1084:A I *D sky130_fd_sc_hd__dlygate4sd3_1
*I *1126:A I *D sky130_fd_sc_hd__clkbuf_4
*I *1074:Q O *D sky130_fd_sc_hd__dfrtp_1
*CAP
1 *1084:A 0.000189683
2 *1126:A 0.000888654
3 *1074:Q 5.82533e-05
4 *289:8 0.00113659
5 *1126:A *1091:A 0.000279833
6 *1126:A *1127:A 0
7 *1126:A *1128:A 0.000412277
8 *289:8 *293:84 8.52845e-05
9 *846:A *1126:A 0
10 *849:A *1126:A 3.00694e-05
11 *891:A1 *1084:A 0.00011099
12 *1069:CLK *1126:A 0.000116447
13 *261:10 *1084:A 0.000193364
14 *261:12 *1084:A 9.45357e-05
15 *261:12 *1126:A 0.000407217
16 *261:70 *1084:A 0.000104264
17 *265:10 *1084:A 0
18 *265:10 *1126:A 0
19 *265:51 *1084:A 0
20 *267:10 *1126:A 0
*RES
1 *1074:Q *289:8 4.395 
2 *289:8 *1126:A 22.035 
3 *289:8 *1084:A 8.295 
*END

*D_NET *290 0.0021223
*CONN
*I *1093:A I *D sky130_fd_sc_hd__dlygate4sd3_1
*I *1127:A I *D sky130_fd_sc_hd__clkbuf_4
*I *1075:Q O *D sky130_fd_sc_hd__dfrtp_1
*CAP
1 *1093:A 0.000146186
2 *1127:A 0.000453654
3 *1075:Q 3.58256e-05
4 *290:8 0.000635665
5 *1093:A *1060:A1 0
6 *1060:B1 *1093:A 0
7 *1069:CLK *290:8 2.69217e-05
8 *1126:A *1127:A 0
9 *267:10 *1093:A 0.000214335
10 *267:10 *1127:A 0.000609711
*RES
1 *1075:Q *290:8 4.05 
2 *290:8 *1127:A 13.395 
3 *290:8 *1093:A 6.255 
*END

*D_NET *291 0.00242069
*CONN
*I *1091:A I *D sky130_fd_sc_hd__dlygate4sd3_1
*I *1128:A I *D sky130_fd_sc_hd__clkbuf_4
*I *1076:Q O *D sky130_fd_sc_hd__dfrtp_1
*CAP
1 *1091:A 0.000165509
2 *1128:A 0.000587531
3 *1076:Q 3.63268e-05
4 *291:8 0.000789367
5 *849:A *1091:A 7.6391e-05
6 *1062:A1 *1091:A 4.66108e-05
7 *1126:A *1091:A 0.000279833
8 *1126:A *1128:A 0.000412277
9 *243:42 *291:8 2.68464e-05
10 *265:10 *1091:A 0
*RES
1 *1076:Q *291:8 4.05 
2 *291:8 *1128:A 14.175 
3 *291:8 *1091:A 7.47 
*END

*D_NET *292 0.00138286
*CONN
*I *1129:A I *D sky130_fd_sc_hd__clkbuf_4
*I *1064:Q O *D sky130_fd_sc_hd__dfrtp_1
*CAP
1 *1129:A 0.000500693
2 *1064:Q 0.000500693
3 *1129:A *1080:A 2.86975e-05
4 *1129:A *293:12 0.000163567
5 *271:16 *1129:A 0.000189205
*RES
1 *1064:Q *1129:A 9.875 
*END

*D_NET *293 0.017551
*CONN
*I *1064:RESET_B I *D sky130_fd_sc_hd__dfrtp_1
*I *1065:RESET_B I *D sky130_fd_sc_hd__dfrtp_1
*I *1063:RESET_B I *D sky130_fd_sc_hd__dfrtp_1
*I *1068:RESET_B I *D sky130_fd_sc_hd__dfrtp_1
*I *1069:RESET_B I *D sky130_fd_sc_hd__dfrtp_1
*I *1075:RESET_B I *D sky130_fd_sc_hd__dfrtp_1
*I *1076:RESET_B I *D sky130_fd_sc_hd__dfrtp_1
*I *1074:RESET_B I *D sky130_fd_sc_hd__dfrtp_1
*I *1067:RESET_B I *D sky130_fd_sc_hd__dfrtp_1
*I *1066:RESET_B I *D sky130_fd_sc_hd__dfrtp_1
*I *1080:X O *D sky130_fd_sc_hd__buf_4
*CAP
1 *1064:RESET_B 3.61994e-06
2 *1065:RESET_B 0
3 *1063:RESET_B 0
4 *1068:RESET_B 0
5 *1069:RESET_B 0.000371184
6 *1075:RESET_B 0.000371184
7 *1076:RESET_B 0.000212232
8 *1074:RESET_B 0.00075846
9 *1067:RESET_B 0.00210517
10 *1066:RESET_B 0.00240479
11 *1080:X 0.000368196
12 *293:84 0.000667933
13 *293:66 0.000497749
14 *293:64 0.000300525
15 *293:62 0.000462465
16 *293:12 0.00102836
17 *1066:RESET_B *1054:A1 2.06497e-05
18 *1067:RESET_B *1040:A2 0.000308599
19 *1067:RESET_B *296:86 2.51875e-06
20 *293:84 *889:A 6.4413e-05
21 *844:A *1066:RESET_B 5.02217e-05
22 *880:A2 *1074:RESET_B 0.000196931
23 *880:A2 *293:66 0.000179245
24 *889:B *1074:RESET_B 0
25 *889:B *293:84 5.59047e-05
26 *893:A *293:84 0.000236643
27 *925:C *1067:RESET_B 3.6888e-05
28 *926:A2 *1067:RESET_B 1.7635e-05
29 *982:B1 *1067:RESET_B 4.66108e-05
30 *982:B2 *1067:RESET_B 7.32625e-05
31 *994:A *1067:RESET_B 0.00015971
32 *996:B *1067:RESET_B 0.000292407
33 *996:D *1067:RESET_B 0.000121029
34 *1020:A *1067:RESET_B 2.88357e-05
35 *1020:B *1067:RESET_B 0.000160338
36 *1020:C *1067:RESET_B 2.89157e-05
37 *1022:A3 *1067:RESET_B 0.000134521
38 *1033:A *1067:RESET_B 4.66108e-05
39 *1033:B *1067:RESET_B 0.000112408
40 *1033:C *1067:RESET_B 4.89395e-05
41 *1036:B2 *1067:RESET_B 0.000412992
42 *1040:A1 *1067:RESET_B 2.01565e-05
43 *1040:B1 *1067:RESET_B 0.00030357
44 *1041:A *1067:RESET_B 0.000157937
45 *1044:B2 *1067:RESET_B 4.88478e-05
46 *1045:A *1074:RESET_B 0.000180893
47 *1054:A3 *1066:RESET_B 0
48 *1058:B1 *1074:RESET_B 0.000116151
49 *1063:D *293:66 0
50 *1064:CLK *1066:RESET_B 4.82919e-05
51 *1065:D *293:62 7.15297e-05
52 *1066:CLK *1066:RESET_B 0.000218815
53 *1066:D *1067:RESET_B 4.78564e-05
54 *1067:CLK *293:64 0
55 *1067:D *293:62 4.19029e-05
56 *1068:D *293:66 7.1624e-05
57 *1069:CLK *1069:RESET_B 0.000144169
58 *1072:D *1066:RESET_B 5.14439e-05
59 *1074:CLK *1074:RESET_B 0.000114081
60 *1074:CLK *293:84 6.25814e-05
61 *1075:D *1076:RESET_B 0.000112279
62 *1119:A *293:64 0
63 *1119:A *293:66 0
64 *1129:A *293:12 0.000163567
65 *83:20 *1067:RESET_B 9.12494e-06
66 *154:8 *1067:RESET_B 7.37072e-05
67 *209:32 *1076:RESET_B 0.000259505
68 *209:58 *1074:RESET_B 4.50017e-05
69 *211:88 *293:84 3.45117e-05
70 *243:42 *1076:RESET_B 0.000451164
71 *244:33 *1067:RESET_B 1.56078e-05
72 *245:107 *1067:RESET_B 3.44757e-05
73 *247:86 *1067:RESET_B 0.000140578
74 *247:94 *1067:RESET_B 4.66108e-05
75 *249:91 *1067:RESET_B 3.4419e-05
76 *249:102 *1067:RESET_B 8.30739e-05
77 *261:12 *293:84 0
78 *262:34 *1066:RESET_B 1.52184e-05
79 *262:45 *1066:RESET_B 0.000100536
80 *265:10 *1074:RESET_B 1.03833e-05
81 *265:51 *1074:RESET_B 0.000191754
82 *265:51 *293:66 1.28996e-05
83 *266:22 *293:62 1.34361e-05
84 *266:22 *293:64 0.000142719
85 *266:22 *293:66 0.000138579
86 *266:34 *293:66 5.80226e-05
87 *267:10 *1076:RESET_B 0.000100944
88 *267:10 *293:84 0.000482838
89 *271:16 *1064:RESET_B 2.65337e-05
90 *271:16 *1066:RESET_B 0.000149613
91 *271:16 *293:12 0.0002783
92 *273:16 *1067:RESET_B 7.62174e-05
93 *277:14 *293:62 3.33458e-05
94 *277:14 *293:64 4.27745e-05
95 *289:8 *293:84 8.52845e-05
*RES
1 *1080:X *293:12 8.05 
2 *293:12 *1066:RESET_B 15.4525 
3 *1066:RESET_B *1067:RESET_B 38.9278 
4 *1067:RESET_B *293:62 6.8975 
5 *293:62 *293:64 2.91 
6 *293:64 *293:66 5.46 
7 *293:66 *1074:RESET_B 10.8725 
8 *1074:RESET_B *293:84 12.3575 
9 *293:84 *1076:RESET_B 8.5925 
10 *293:84 *1075:RESET_B 2 
11 *1075:RESET_B *1069:RESET_B 5.67 
12 *293:66 *1068:RESET_B 2 
13 *293:64 *1063:RESET_B 2 
14 *293:62 *1065:RESET_B 2 
15 *293:12 *1064:RESET_B 0.3975 
*END

*D_NET *294 0.000379719
*CONN
*I *880:A1 I *D sky130_fd_sc_hd__o21ba_1
*I *1081:X O *D sky130_fd_sc_hd__dlygate4sd3_1
*CAP
1 *880:A1 3.6182e-05
2 *1081:X 3.6182e-05
3 *880:B1_N *880:A1 0.000157555
4 *211:35 *880:A1 0.0001498
*RES
1 *1081:X *880:A1 4.685 
*END

*D_NET *295 0.000356215
*CONN
*I *1036:A2 I *D sky130_fd_sc_hd__a22o_1
*I *1086:X O *D sky130_fd_sc_hd__dlygate4sd3_1
*CAP
1 *1036:A2 7.79652e-05
2 *1086:X 7.79652e-05
3 *1036:B1 *1036:A2 5.25073e-05
4 *1036:B2 *1036:A2 7.61531e-05
5 *1065:D *1036:A2 7.1624e-05
*RES
1 *1086:X *1036:A2 9.135 
*END

*D_NET *296 0.0202838
*CONN
*I *1054:A1 I *D sky130_fd_sc_hd__a31o_1
*I *863:A I *D sky130_fd_sc_hd__xnor2_1
*I *850:A I *D sky130_fd_sc_hd__or4_1
*I *977:A2 I *D sky130_fd_sc_hd__a31o_1
*I *942:B I *D sky130_fd_sc_hd__and2_1
*I *928:A2 I *D sky130_fd_sc_hd__a22o_1
*I *912:B1 I *D sky130_fd_sc_hd__a22o_1
*I *913:D I *D sky130_fd_sc_hd__nand4_2
*I *929:C I *D sky130_fd_sc_hd__nand4_1
*I *984:B I *D sky130_fd_sc_hd__nand2_1
*I *1110:X O *D sky130_fd_sc_hd__clkbuf_4
*CAP
1 *1054:A1 0.000245316
2 *863:A 0
3 *850:A 0.00029858
4 *977:A2 2.5222e-05
5 *942:B 2.0132e-05
6 *928:A2 0.000223632
7 *912:B1 0.000457308
8 *913:D 0.000158968
9 *929:C 0
10 *984:B 1.41045e-05
11 *1110:X 0
12 *296:161 0.000658415
13 *296:155 0.00239198
14 *296:86 0.000920246
15 *296:71 0.000491582
16 *296:59 0.000775153
17 *296:49 0.00192166
18 *296:29 0.00199884
19 *296:14 0.000822179
20 *296:4 0.00215891
21 *912:B1 *911:B 0.000134236
22 *296:49 *307:20 5.00545e-06
23 *296:155 *307:20 0.000129285
24 *863:B *296:161 0.000121019
25 *912:A1 *912:B1 8.35157e-05
26 *912:B2 *912:B1 3.58021e-05
27 *926:B1 *912:B1 2.93137e-05
28 *928:A1 *296:86 2.85623e-05
29 *928:B1 *928:A2 5.19006e-06
30 *928:B2 *928:A2 4.77757e-05
31 *929:B *296:86 4.77307e-05
32 *929:D *296:71 0.000127464
33 *929:D *296:86 1.08758e-05
34 *942:A *296:49 9.4879e-05
35 *944:B *928:A2 8.23457e-05
36 *944:B *296:71 1.69845e-05
37 *945:A1 *296:59 0.000130664
38 *954:A *296:59 4.99581e-05
39 *954:B *296:59 5.83121e-06
40 *955:B1 *296:49 1.87977e-05
41 *955:B1 *296:59 2.49909e-05
42 *962:A2 *296:49 3.69766e-05
43 *971:C *296:49 0.000121773
44 *974:D *296:86 3.69497e-05
45 *977:A1 *296:29 0.000126366
46 *977:A1 *296:49 2.68526e-05
47 *982:B1 *912:B1 3.5678e-06
48 *984:A *984:B 1.77945e-05
49 *984:A *296:29 0.000310423
50 *985:A_N *296:49 0
51 *986:A *296:29 6.22246e-05
52 *986:B *296:29 4.77807e-05
53 *1044:B2 *296:86 0
54 *1066:CLK *1054:A1 4.66108e-05
55 *1066:CLK *296:161 0.000180457
56 *1066:RESET_B *1054:A1 2.06497e-05
57 *1067:RESET_B *296:86 2.51875e-06
58 *1118:A *296:49 9.8308e-05
59 *1118:A *296:86 0.000123874
60 *69:14 *912:B1 0.000120417
61 *70:10 *912:B1 6.07575e-06
62 *72:12 *912:B1 4.66108e-05
63 *100:13 *296:59 2.49909e-05
64 *102:20 *296:59 0.000470876
65 *102:20 *296:71 7.53824e-05
66 *102:26 *296:59 6.88421e-05
67 *112:14 *296:59 5.83121e-06
68 *115:18 *296:59 0
69 *118:22 *296:49 0.000358005
70 *129:10 *296:49 8.34281e-06
71 *134:8 *296:49 0.000113115
72 *135:10 *296:29 8.33796e-05
73 *161:10 *850:A 0
74 *212:12 *296:59 0.000189269
75 *212:14 *296:59 0.000478364
76 *212:14 *296:71 8.47495e-05
77 *212:42 *928:A2 3.67007e-05
78 *212:61 *928:A2 2.76356e-05
79 *212:88 *850:A 0.000139245
80 *213:74 *850:A 0
81 *213:87 *850:A 0
82 *228:10 *296:161 7.29448e-05
83 *244:33 *296:71 1.60015e-05
84 *244:33 *296:86 0
85 *246:97 *913:D 1.37328e-05
86 *246:97 *296:86 0.000158532
87 *247:73 *913:D 0
88 *247:111 *296:86 4.66108e-05
89 *247:113 *296:86 0.000158417
90 *249:83 *913:D 0.000115099
91 *249:83 *296:86 4.89748e-05
92 *265:51 *912:B1 3.12916e-05
93 *265:51 *913:D 3.97438e-05
94 *265:68 *912:B1 2.82864e-05
95 *266:10 *296:59 0
96 *273:16 *296:14 0.000385464
97 *273:16 *296:155 0.000309142
98 *273:16 *296:161 0
99 *277:28 *850:A 0.000254061
100 *277:28 *913:D 2.47313e-05
101 *277:28 *296:161 3.4465e-05
102 *280:10 *296:86 0.000132893
*RES
1 *1110:X *296:4 1.6 
2 *296:4 *296:14 9.385 
3 *296:14 *984:B 1.96 
4 *296:14 *296:29 8.34 
5 *296:29 *296:49 15.3077 
6 *296:49 *296:59 13.145 
7 *296:59 *296:71 6.275 
8 *296:71 *929:C 1.6 
9 *296:71 *296:86 9.005 
10 *296:86 *913:D 6.495 
11 *296:86 *912:B1 10.41 
12 *296:59 *928:A2 7.185 
13 *296:49 *942:B 1.96 
14 *296:29 *977:A2 1.96 
15 *296:4 *296:155 30.05 
16 *296:155 *296:161 8.99 
17 *296:161 *850:A 11.9 
18 *296:161 *863:A 1.6 
19 *296:155 *1054:A1 7.275 
*END

*D_NET *297 0.000199816
*CONN
*I *1046:A2 I *D sky130_fd_sc_hd__a21bo_1
*I *1087:X O *D sky130_fd_sc_hd__dlygate4sd3_1
*CAP
1 *1046:A2 6.21363e-05
2 *1087:X 6.21363e-05
3 *1087:A *1046:A2 6.97118e-05
4 *265:51 *1046:A2 5.83121e-06
*RES
1 *1087:X *1046:A2 4.34 
*END

*D_NET *298 0.000980713
*CONN
*I *1040:A2 I *D sky130_fd_sc_hd__a22o_1
*I *1088:X O *D sky130_fd_sc_hd__dlygate4sd3_1
*CAP
1 *1040:A2 0.000106153
2 *1088:X 0.000106153
3 *1040:A1 *1040:A2 0.000459807
4 *1067:RESET_B *1040:A2 0.000308599
*RES
1 *1088:X *1040:A2 7.445 
*END

*D_NET *299 0.000478582
*CONN
*I *1044:A2 I *D sky130_fd_sc_hd__a22o_1
*I *1089:X O *D sky130_fd_sc_hd__dlygate4sd3_1
*CAP
1 *1044:A2 5.24431e-05
2 *1089:X 5.24431e-05
3 *1036:A1 *1044:A2 4.97148e-05
4 *1036:B2 *1044:A2 0.000196669
5 *1044:B1 *1044:A2 4.89295e-05
6 *1044:B2 *1044:A2 4.77719e-05
7 *211:50 *1044:A2 3.06107e-05
*RES
1 *1089:X *1044:A2 5.39 
*END

*D_NET *300 0.000839122
*CONN
*I *1049:B I *D sky130_fd_sc_hd__and2_1
*I *1090:X O *D sky130_fd_sc_hd__dlygate4sd3_1
*CAP
1 *1049:B 0.000323486
2 *1090:X 0.000323486
3 *1049:A *1049:B 5.05437e-05
4 *1123:A *1049:B 0.000141606
*RES
1 *1090:X *1049:B 12.735 
*END

*D_NET *301 0.00092026
*CONN
*I *1061:B I *D sky130_fd_sc_hd__and2_1
*I *1091:X O *D sky130_fd_sc_hd__dlygate4sd3_1
*CAP
1 *1061:B 0.000352693
2 *1091:X 0.000352693
3 *1075:D *1061:B 5.83121e-06
4 *1076:CLK *1061:B 1.79174e-05
5 *243:42 *1061:B 0.000178613
6 *261:33 *1061:B 1.25123e-05
*RES
1 *1091:X *1061:B 12.39 
*END

*D_NET *302 0.000241979
*CONN
*I *1047:B I *D sky130_fd_sc_hd__and2_1
*I *1092:X O *D sky130_fd_sc_hd__dlygate4sd3_1
*CAP
1 *1047:B 7.29588e-05
2 *1092:X 7.29588e-05
3 *849:A *1047:B 4.60991e-05
4 *211:105 *1047:B 4.99619e-05
*RES
1 *1092:X *1047:B 4.7 
*END

*D_NET *303 0.00024626
*CONN
*I *1059:B I *D sky130_fd_sc_hd__and2_1
*I *1093:X O *D sky130_fd_sc_hd__dlygate4sd3_1
*CAP
1 *1059:B 2.50091e-05
2 *1093:X 2.50091e-05
3 *849:A *1059:B 0.000124007
4 *1059:A *1059:B 7.22354e-05
*RES
1 *1093:X *1059:B 4.34 
*END

*D_NET *304 0.00100748
*CONN
*I *1055:B I *D sky130_fd_sc_hd__and2_1
*I *1082:X O *D sky130_fd_sc_hd__dlygate4sd3_1
*CAP
1 *1055:B 0.000311877
2 *1082:X 0.000311877
3 *1055:B *310:28 3.78625e-05
4 *870:B1 *1055:B 0.000259404
5 *1055:A *1055:B 8.64599e-05
*RES
1 *1082:X *1055:B 13.62 
*END

*D_NET *305 0.000794104
*CONN
*I *1051:B I *D sky130_fd_sc_hd__and2_1
*I *1083:X O *D sky130_fd_sc_hd__dlygate4sd3_1
*CAP
1 *1051:B 0.000302528
2 *1083:X 0.000302528
3 *1123:A *1051:B 0.000138106
4 *211:128 *1051:B 5.09431e-05
*RES
1 *1083:X *1051:B 12.42 
*END

*D_NET *306 0.000568554
*CONN
*I *1057:B I *D sky130_fd_sc_hd__and2_1
*I *1084:X O *D sky130_fd_sc_hd__dlygate4sd3_1
*CAP
1 *1057:B 0.000191192
2 *1084:X 0.000191192
3 *845:A *1057:B 0
4 *210:49 *1057:B 8.40213e-05
5 *265:51 *1057:B 3.3625e-05
6 *266:34 *1057:B 9.12494e-06
7 *276:22 *1057:B 5.93982e-05
*RES
1 *1084:X *1057:B 10.62 
*END

*D_NET *307 0.0221667
*CONN
*I *953:B I *D sky130_fd_sc_hd__and2_1
*I *927:B I *D sky130_fd_sc_hd__and2_1
*I *912:A2 I *D sky130_fd_sc_hd__a22o_1
*I *913:C I *D sky130_fd_sc_hd__nand4_2
*I *860:A I *D sky130_fd_sc_hd__xor2_1
*I *1056:A1 I *D sky130_fd_sc_hd__a31o_1
*I *851:B I *D sky130_fd_sc_hd__or3_1
*I *857:A1 I *D sky130_fd_sc_hd__o21a_1
*I *886:B1 I *D sky130_fd_sc_hd__a22o_1
*I *884:D I *D sky130_fd_sc_hd__nand4_1
*I *1111:X O *D sky130_fd_sc_hd__clkbuf_4
*CAP
1 *953:B 1.25368e-05
2 *927:B 0.000168106
3 *912:A2 0
4 *913:C 4.18632e-05
5 *860:A 2.97433e-05
6 *1056:A1 0.000594019
7 *851:B 5.68057e-05
8 *857:A1 0
9 *886:B1 7.89238e-05
10 *884:D 0.000210088
11 *1111:X 0.00146595
12 *307:123 0.000731596
13 *307:114 0.000589251
14 *307:108 0.00220944
15 *307:89 0.001892
16 *307:62 0.000653974
17 *307:50 0.000939408
18 *307:42 0.00109001
19 *307:30 0.00104429
20 *307:20 0.00186018
21 *884:D *886:A2 1.20052e-05
22 *1056:A1 *310:28 2.14655e-05
23 *307:20 *309:14 0
24 *307:30 *939:B 4.3762e-05
25 *307:30 *309:43 0.000121659
26 *307:42 *309:43 0
27 *307:114 *851:A 0.000115055
28 *307:114 *858:A 4.14369e-05
29 *307:123 *851:A 1.34503e-05
30 is_outlier *307:62 7.23602e-05
31 is_outlier *307:89 5.48224e-05
32 is_outlier *307:108 8.61788e-06
33 *857:A2 *307:114 4.96386e-05
34 *857:A2 *307:123 4.75959e-05
35 *858:B *307:114 0.000140527
36 *879:B *884:D 9.03081e-05
37 *883:A *884:D 5.26865e-05
38 *886:A1 *886:B1 9.50342e-06
39 *886:B2 *307:108 0.00028664
40 *910:B *307:114 6.15341e-05
41 *915:B1 *307:62 2.75229e-05
42 *927:A *927:B 8.8266e-05
43 *949:A1 *307:42 0.000154865
44 *949:A2 *307:42 9.30787e-05
45 *951:A1 *307:30 3.67545e-05
46 *951:A2 *927:B 9.53428e-06
47 *951:A2 *307:30 1.19928e-05
48 *953:A *307:20 9.12494e-06
49 *962:A2 *307:20 8.73147e-06
50 *963:A1 *307:30 0.00020613
51 *971:A *307:20 0.000128625
52 *971:B *307:20 0.000109284
53 *971:C *307:20 1.10951e-05
54 *979:C *307:20 1.7038e-05
55 *980:A2 *307:20 9.60417e-05
56 *980:A2 *307:30 6.72833e-06
57 *982:B1 *307:42 0.000152433
58 *1015:B1 *860:A 0.000122337
59 *1015:C1 *307:114 0
60 *1056:A3 *1056:A1 3.66286e-05
61 *1068:CLK *884:D 4.77719e-05
62 *1073:D *1056:A1 4.82863e-05
63 *1087:A *884:D 5.83121e-06
64 *1104:A *307:20 4.99619e-05
65 *1110:A *307:20 5.30673e-05
66 *1111:A *307:20 5.30673e-05
67 *66:10 *851:B 4.99619e-05
68 *66:10 *307:114 0.000200292
69 *66:10 *307:123 0.000110306
70 *72:12 *307:50 4.31189e-05
71 *82:8 *307:42 0.000133956
72 *82:8 *307:50 0.000107088
73 *90:10 *307:42 8.91129e-05
74 *97:19 *307:30 2.20784e-05
75 *107:10 *307:30 1.52945e-05
76 *132:19 *307:30 0.000505744
77 *132:19 *307:42 0.000205821
78 *163:10 *307:108 0
79 *170:12 *307:114 0.000283498
80 *213:30 *307:42 5.52388e-05
81 *215:16 *307:123 3.74161e-05
82 *216:6 *1056:A1 3.1562e-06
83 *217:8 *307:114 1.71013e-05
84 *217:17 *307:114 5.11229e-05
85 *217:81 *307:114 9.22141e-05
86 *217:98 *307:108 2.04531e-05
87 *217:98 *307:114 9.20057e-05
88 *217:126 *1056:A1 0.000188831
89 *243:106 *1056:A1 0.000495498
90 *247:14 *884:D 2.61093e-05
91 *247:30 *884:D 1.20052e-05
92 *247:30 *307:89 3.72654e-05
93 *247:30 *307:108 1.36865e-05
94 *247:65 *884:D 3.04704e-05
95 *247:73 *307:50 0.00018242
96 *247:86 *307:42 9.45677e-05
97 *247:86 *307:50 2.98644e-05
98 *248:23 *886:B1 6.71803e-06
99 *249:62 *886:B1 2.10433e-05
100 *249:83 *913:C 0.000139238
101 *249:83 *307:62 0.000103237
102 *249:91 *307:42 2.7703e-05
103 *261:81 *884:D 1.88271e-05
104 *261:81 *307:62 5.78455e-05
105 *265:51 *884:D 0.000269972
106 *265:51 *913:C 7.26551e-05
107 *265:51 *307:62 0.000248953
108 *272:24 *307:20 6.26426e-05
109 *272:26 *860:A 6.97202e-05
110 *273:16 *307:20 0.00119266
111 *296:49 *307:20 5.00545e-06
112 *296:155 *307:20 0.000129285
*RES
1 *1111:X *307:20 35.375 
2 *307:20 *307:30 12.94 
3 *307:30 *307:42 13.76 
4 *307:42 *307:50 12.355 
5 *307:50 *307:62 10.2625 
6 *307:62 *884:D 12.8125 
7 *307:62 *307:89 0.829333 
8 *307:89 *886:B1 4.45663 
9 *307:89 *307:108 4.1719 
10 *307:108 *307:114 14.135 
11 *307:114 *857:A1 1.6 
12 *307:114 *307:123 2.1 
13 *307:123 *851:B 2.395 
14 *307:123 *1056:A1 11.5 
15 *307:108 *860:A 4.74 
16 *307:50 *913:C 5.235 
17 *307:42 *912:A2 3.6 
18 *307:30 *927:B 4.48 
19 *307:20 *953:B 1.96 
*END

*D_NET *308 0.000617118
*CONN
*I *1053:B I *D sky130_fd_sc_hd__and2_1
*I *1085:X O *D sky130_fd_sc_hd__dlygate4sd3_1
*CAP
1 *1053:B 0.000295098
2 *1085:X 0.000295098
3 *1053:A *1053:B 2.69217e-05
*RES
1 *1085:X *1053:B 7.46 
*END

*D_NET *309 0.0220111
*CONN
*I *911:B I *D sky130_fd_sc_hd__and2_1
*I *886:A2 I *D sky130_fd_sc_hd__a22o_1
*I *884:C I *D sky130_fd_sc_hd__nand4_1
*I *890:D I *D sky130_fd_sc_hd__and4_1
*I *858:A I *D sky130_fd_sc_hd__xnor2_1
*I *851:A I *D sky130_fd_sc_hd__or3_1
*I *891:B1 I *D sky130_fd_sc_hd__a22o_1
*I *1058:A1 I *D sky130_fd_sc_hd__a31o_1
*I *939:B I *D sky130_fd_sc_hd__and2_1
*I *1112:X O *D sky130_fd_sc_hd__buf_2
*CAP
1 *911:B 7.5826e-05
2 *886:A2 0.000292618
3 *884:C 0.000303539
4 *890:D 3.69588e-05
5 *858:A 3.3804e-05
6 *851:A 0.00025345
7 *891:B1 0.000316489
8 *1058:A1 0.000490081
9 *939:B 0.000245554
10 *1112:X 0.00141071
11 *309:117 0.00125914
12 *309:86 0.00151917
13 *309:63 0.000873383
14 *309:61 0.000243429
15 *309:59 0.000594209
16 *309:49 0.000966835
17 *309:43 0.00156569
18 *309:14 0.00270861
19 *858:A *310:43 2.49909e-05
20 *890:D *890:C 4.66108e-05
21 *891:B1 *891:A2 6.88004e-05
22 *891:B1 *1060:A1 7.70758e-05
23 *891:B1 *310:62 0.000129123
24 *891:B1 *310:81 1.7635e-05
25 *309:49 *915:A2 2.54692e-05
26 *309:59 *310:100 3.54721e-05
27 *309:61 *310:100 2.65774e-05
28 *309:86 *310:47 1.4399e-05
29 *309:86 *311:72 2.39856e-05
30 *309:117 *310:43 0.00025276
31 *309:117 *310:47 6.2061e-05
32 int4_out[2] *309:14 1.15364e-05
33 *854:B *851:A 0
34 *857:A2 *851:A 5.09465e-05
35 *884:A *884:C 0.000341791
36 *884:D *886:A2 1.20052e-05
37 *885:A *891:B1 1.91597e-05
38 *886:A1 *884:C 3.11249e-05
39 *886:B2 *886:A2 1.15343e-05
40 *887:D *884:C 9.03508e-06
41 *888:A *886:A2 3.59266e-06
42 *888:B *886:A2 2.49909e-05
43 *891:A1 *891:B1 2.80134e-05
44 *891:A1 *309:63 8.37364e-05
45 *891:B2 *309:61 4.36573e-06
46 *891:B2 *309:63 2.54239e-05
47 *892:A_N *1058:A1 1.1561e-05
48 *892:A_N *309:63 8.11345e-05
49 *893:B *1058:A1 0.000175653
50 *898:A2 *1058:A1 9.50342e-06
51 *898:A2 *309:63 8.08326e-05
52 *898:A3 *309:86 6.71882e-05
53 *899:A *891:B1 3.96926e-05
54 *903:A *309:117 8.8266e-05
55 *903:B *891:B1 1.59154e-05
56 *912:B1 *911:B 0.000134236
57 *912:B2 *911:B 0
58 *925:A *309:43 9.05592e-05
59 *925:B *309:43 2.45099e-05
60 *925:B *309:49 2.25226e-05
61 *926:B1 *309:49 1.23331e-05
62 *931:A1 *309:43 0.000193516
63 *931:A2 *309:43 0.000182084
64 *931:B1 *309:43 1.17036e-05
65 *932:A *309:43 1.48065e-05
66 *949:A1 *309:43 0
67 *952:A *309:43 0
68 *952:B *309:43 0
69 *952:C *309:43 7.86987e-05
70 *956:A *309:43 3.75882e-06
71 *964:A *939:B 4.47209e-05
72 *972:A *309:14 0.000133784
73 *972:C *309:14 2.747e-05
74 *1007:B1 *886:A2 3.1562e-06
75 *1007:B1 *309:49 0.000103308
76 *1007:B1 *309:59 0.000172048
77 *1008:A3 *309:59 0.000118081
78 *1012:S *858:A 4.66108e-05
79 *1012:S *309:117 0.000477016
80 *1044:B2 *911:B 0.000115861
81 *1058:A2 *1058:A1 5.83121e-06
82 *1068:CLK *884:C 4.77769e-05
83 *1103:A *309:14 2.75145e-05
84 *56:12 *1058:A1 7.4027e-05
85 *69:14 *911:B 4.66108e-05
86 *69:14 *309:43 3.93225e-05
87 *69:14 *309:49 2.79424e-05
88 *71:19 *309:49 6.39674e-05
89 *79:12 *309:117 2.68526e-05
90 *84:12 *309:43 0.000294133
91 *84:12 *309:49 0.000133409
92 *88:8 *309:43 3.38178e-05
93 *97:6 *939:B 0.000153816
94 *97:19 *939:B 1.68233e-05
95 *111:10 *309:14 0.000130481
96 *118:22 *309:14 9.5799e-06
97 *130:12 *309:14 0.000235378
98 *132:19 *309:14 0
99 *132:19 *309:43 0
100 *211:10 *1058:A1 0.000268838
101 *211:88 *1058:A1 0.000354377
102 *215:16 *851:A 6.22349e-05
103 *217:17 *851:A 7.06865e-05
104 *217:17 *858:A 4.9968e-05
105 *246:36 *309:49 1.07069e-05
106 *246:55 *309:49 1.0911e-05
107 *246:70 *309:49 7.87021e-05
108 *246:78 *309:49 2.06083e-05
109 *246:97 *309:43 1.58656e-05
110 *247:14 *884:C 2.10841e-05
111 *247:30 *884:C 8.52883e-05
112 *247:65 *886:A2 3.66422e-05
113 *247:65 *309:49 0.000126156
114 *248:12 *884:C 6.22936e-05
115 *249:18 *309:59 1.43558e-05
116 *249:26 *309:59 6.19969e-05
117 *249:26 *309:61 9.93974e-05
118 *249:26 *309:63 0.000236998
119 *249:62 *309:59 4.77807e-05
120 *251:27 *309:49 3.31204e-05
121 *252:8 *891:B1 9.32949e-06
122 *252:8 *309:49 8.33066e-06
123 *252:8 *309:59 0.000173912
124 *254:16 *309:61 3.76132e-05
125 *254:16 *309:63 8.33066e-06
126 *259:14 *891:B1 0.000180688
127 *259:14 *309:86 1.16578e-05
128 *259:14 *309:117 3.66286e-05
129 *264:20 *939:B 9.20116e-05
130 *265:68 *911:B 4.77807e-05
131 *265:68 *309:43 7.96455e-05
132 *265:85 *309:43 0.000181921
133 *266:10 *309:14 8.52972e-05
134 *267:10 *1058:A1 4.84393e-05
135 *267:91 *884:C 9.47972e-06
136 *272:24 *939:B 0.000112059
137 *272:24 *309:14 0.00017899
138 *276:22 *891:B1 6.07575e-06
139 *307:20 *309:14 0
140 *307:30 *939:B 4.3762e-05
141 *307:30 *309:43 0.000121659
142 *307:42 *309:43 0
143 *307:114 *851:A 0.000115055
144 *307:114 *858:A 4.14369e-05
145 *307:123 *851:A 1.34503e-05
*RES
1 *1112:X *309:14 23.94 
2 *309:14 *939:B 8.835 
3 *309:14 *309:43 25.315 
4 *309:43 *309:49 9.585 
5 *309:49 *309:59 8.845 
6 *309:59 *309:61 1.38 
7 *309:61 *309:63 3.93 
8 *309:63 *1058:A1 14.115 
9 *309:63 *309:86 5.21 
10 *309:86 *891:B1 11.885 
11 *309:86 *309:117 18.095 
12 *309:117 *851:A 7.605 
13 *309:117 *858:A 4.665 
14 *309:61 *890:D 4.05 
15 *309:59 *884:C 13 
16 *309:49 *886:A2 7.08 
17 *309:43 *911:B 5.895 
*END

*D_NET *310 0.0190429
*CONN
*I *853:A I *D sky130_fd_sc_hd__or3b_2
*I *924:B I *D sky130_fd_sc_hd__and2_1
*I *899:B I *D sky130_fd_sc_hd__nand2_1
*I *915:A2 I *D sky130_fd_sc_hd__a22o_1
*I *887:B I *D sky130_fd_sc_hd__nand4_1
*I *1006:A I *D sky130_fd_sc_hd__nand2_1
*I *890:C I *D sky130_fd_sc_hd__and4_1
*I *891:A2 I *D sky130_fd_sc_hd__a22o_1
*I *1060:A1 I *D sky130_fd_sc_hd__a31o_1
*I *855:A I *D sky130_fd_sc_hd__xor2_1
*I *1113:X O *D sky130_fd_sc_hd__clkbuf_4
*CAP
1 *853:A 0
2 *924:B 0.000511754
3 *899:B 2.22788e-05
4 *915:A2 0.000255083
5 *887:B 0.000103137
6 *1006:A 0
7 *890:C 0.000123917
8 *891:A2 2.50332e-05
9 *1060:A1 0.000510414
10 *855:A 0
11 *1113:X 0.00200284
12 *310:135 0.000640587
13 *310:104 0.000118179
14 *310:100 0.000410245
15 *310:81 0.000387784
16 *310:62 0.000206092
17 *310:47 0.000802544
18 *310:43 0.00125669
19 *310:30 0.00102115
20 *310:28 0.00210867
21 *853:B *310:28 3.31282e-05
22 *853:C_N *310:28 6.95473e-06
23 *854:B *310:28 4.89295e-05
24 *855:B *310:28 0.000161208
25 *855:B *310:30 0.000225285
26 *858:A *310:43 2.49909e-05
27 *878:A2 *310:28 5.04569e-05
28 *878:A2 *310:30 2.49909e-05
29 *882:A *890:C 3.57349e-05
30 *885:A *891:A2 4.66108e-05
31 *885:A *1060:A1 4.18203e-05
32 *885:A *310:62 0.000101945
33 *885:A *310:81 9.70043e-06
34 *886:B2 *915:A2 1.79483e-05
35 *887:D *887:B 3.11381e-05
36 *890:A *890:C 1.08758e-05
37 *890:D *890:C 4.66108e-05
38 *891:A1 *310:100 0
39 *891:B1 *891:A2 6.88004e-05
40 *891:B1 *1060:A1 7.70758e-05
41 *891:B1 *310:62 0.000129123
42 *891:B1 *310:81 1.7635e-05
43 *891:B2 *310:81 0.000104102
44 *891:B2 *310:100 4.09654e-05
45 *894:A_N *1060:A1 8.80948e-05
46 *895:A *1060:A1 3.47668e-05
47 *900:B *924:B 6.54361e-06
48 *903:A *310:47 3.45588e-05
49 *903:A *310:135 3.86607e-05
50 *903:B *924:B 0
51 *903:B *310:135 0
52 *915:A1 *915:A2 1.08758e-05
53 *918:A_N *924:B 0.000378769
54 *968:B1 *924:B 0
55 *1006:B *915:A2 7.9642e-06
56 *1006:B *310:100 0.000130397
57 *1007:B1 *915:A2 1.66783e-05
58 *1007:B1 *310:81 0.000101794
59 *1007:B1 *310:100 9.24575e-05
60 *1009:S *924:B 7.1624e-05
61 *1012:S *310:30 4.66108e-05
62 *1012:S *310:43 0.000554852
63 *1045:C *890:C 3.12916e-05
64 *1045:C *924:B 0.000177023
65 *1048:A3 *1060:A1 3.5678e-06
66 *1048:B1 *1060:A1 0
67 *1055:B *310:28 3.78625e-05
68 *1056:A1 *310:28 2.14655e-05
69 *1056:A3 *310:28 2.49909e-05
70 *1060:B1 *1060:A1 0.000557311
71 *1073:CLK *310:28 3.98782e-05
72 *1073:D *310:28 0.000116151
73 *1078:A *310:81 0.000212898
74 *1093:A *1060:A1 0
75 *1123:A *310:28 0.000940928
76 *55:20 *924:B 0
77 *55:20 *310:135 0
78 *61:14 *1060:A1 0
79 *72:12 *924:B 0
80 *73:8 *915:A2 5.83121e-06
81 *79:12 *310:43 4.10306e-05
82 *165:14 *924:B 6.56522e-05
83 *170:12 *310:43 0.000427876
84 *209:16 *310:28 4.38051e-05
85 *209:22 *310:28 0.000227536
86 *209:24 *1060:A1 0.000347943
87 *211:88 *1060:A1 0
88 *211:105 *310:28 1.54953e-05
89 *214:55 *310:28 0
90 *217:44 *310:81 0.000170171
91 *217:126 *310:28 4.40028e-05
92 *223:16 *310:30 5.74791e-05
93 *243:24 *1060:A1 4.23008e-05
94 *243:106 *310:28 0.000283594
95 *243:110 *310:28 5.23362e-05
96 *246:70 *924:B 0
97 *247:65 *915:A2 0.00015969
98 *248:23 *887:B 1.08758e-05
99 *249:18 *887:B 5.30176e-05
100 *249:18 *310:104 4.66108e-05
101 *249:62 *915:A2 8.64435e-05
102 *249:62 *310:100 4.8174e-05
103 *251:10 *887:B 8.35118e-05
104 *251:10 *915:A2 0.00011109
105 *251:10 *310:104 1.91597e-05
106 *251:27 *915:A2 0.000127016
107 *252:8 *1060:A1 5.53549e-06
108 *252:8 *310:62 9.387e-06
109 *252:8 *310:81 4.82172e-06
110 *259:14 *899:B 4.82863e-05
111 *259:14 *1060:A1 2.42236e-05
112 *267:10 *1060:A1 0
113 *267:21 *890:C 0.00014294
114 *267:91 *887:B 8.73389e-06
115 *272:24 *924:B 5.92269e-05
116 *276:22 *891:A2 1.91597e-05
117 *288:8 *310:28 9.27326e-05
118 *309:49 *915:A2 2.54692e-05
119 *309:59 *310:100 3.54721e-05
120 *309:61 *310:100 2.65774e-05
121 *309:86 *310:47 1.4399e-05
122 *309:117 *310:43 0.00025276
123 *309:117 *310:47 6.2061e-05
*RES
1 *1113:X *310:28 47.38 
2 *310:28 *310:30 2.52 
3 *310:30 *855:A 1.6 
4 *310:30 *310:43 16.365 
5 *310:43 *310:47 4.865 
6 *310:47 *1060:A1 15.945 
7 *310:47 *310:62 1.635 
8 *310:62 *891:A2 4.395 
9 *310:62 *310:81 2.81433 
10 *310:81 *890:C 6.15 
11 *310:81 *310:100 3.465 
12 *310:100 *310:104 2.45 
13 *310:104 *1006:A 1.6 
14 *310:104 *887:B 3.805 
15 *310:100 *915:A2 8.58 
16 *310:43 *310:135 3.635 
17 *310:135 *899:B 4.05 
18 *310:135 *924:B 14.205 
19 *310:28 *853:A 1.6 
*END

*D_NET *311 0.0136506
*CONN
*I *868:A I *D sky130_fd_sc_hd__nand2_1
*I *852:A I *D sky130_fd_sc_hd__buf_2
*I *897:B I *D sky130_fd_sc_hd__nand2_2
*I *902:A I *D sky130_fd_sc_hd__and3_1
*I *898:A1 I *D sky130_fd_sc_hd__a31o_1
*I *889:A I *D sky130_fd_sc_hd__nand2_1
*I *1114:X O *D sky130_fd_sc_hd__clkbuf_2
*CAP
1 *868:A 0
2 *852:A 0
3 *897:B 1.55138e-05
4 *902:A 0
5 *898:A1 2.21004e-05
6 *889:A 8.15005e-05
7 *1114:X 0.00215222
8 *311:72 0.000425685
9 *311:62 0.000769235
10 *311:46 0.00168638
11 *311:32 0.0014731
12 *311:22 0.0024016
13 *881:A *897:B 1.27073e-05
14 *881:A *311:46 2.86975e-05
15 *881:A *311:62 4.8854e-05
16 *884:A *311:72 3.64998e-06
17 *889:B *889:A 0.000159059
18 *889:B *311:72 8.40213e-05
19 *898:A2 *311:72 1.91597e-05
20 *898:A3 *311:72 0.00015639
21 *898:B1 *889:A 8.68767e-06
22 *900:A *311:62 0.000185199
23 *900:A *311:72 2.21074e-05
24 *900:B *311:62 5.96989e-05
25 *902:C *311:62 2.33054e-05
26 *910:B *311:46 0
27 *923:A *311:46 1.42598e-05
28 *923:B *311:46 1.08758e-05
29 *934:B1_N *311:46 6.29549e-05
30 *934:B1_N *311:62 2.79137e-05
31 *1007:B1 *311:72 0.000160276
32 *1009:A0 *311:62 4.90227e-05
33 *1009:S *311:62 0.000104652
34 *1012:A0 *311:46 0.000246872
35 *1045:C *311:62 0.000255287
36 *1045:C *311:72 0.000121036
37 *1062:A1 *311:72 0.00012223
38 *1077:A *311:32 0.000156919
39 *1079:A *311:46 4.86117e-05
40 *1125:A *311:22 0.000420784
41 *55:6 *311:62 2.64607e-05
42 *55:10 *311:62 5.87935e-05
43 *79:12 *311:46 0
44 *209:22 *311:22 0.000168866
45 *211:105 *311:32 0.000110668
46 *211:105 *311:46 0.000662828
47 *214:35 *311:22 7.33743e-05
48 *214:35 *311:32 0.000224278
49 *214:55 *311:32 1.44259e-05
50 *217:40 *311:46 0
51 *217:126 *311:32 4.65515e-05
52 *217:126 *311:46 3.72916e-05
53 *243:20 *311:22 0.000157495
54 *245:8 *311:46 1.47783e-05
55 *246:21 *311:72 2.1553e-05
56 *252:8 *311:72 0.00027324
57 *261:10 *889:A 4.55864e-06
58 *261:12 *889:A 2.65028e-05
59 *267:10 *889:A 0
60 *293:84 *889:A 6.4413e-05
61 *309:86 *311:72 2.39856e-05
*RES
1 *1114:X *311:22 39.045 
2 *311:22 *311:32 9.895 
3 *311:32 *311:46 25.075 
4 *311:46 *311:62 13.99 
5 *311:62 *311:72 11.425 
6 *311:72 *889:A 7.7 
7 *311:72 *898:A1 1.96 
8 *311:62 *902:A 1.6 
9 *311:46 *897:B 1.96 
10 *311:32 *852:A 1.6 
11 *311:22 *868:A 1.6 
*END

*D_NET *312 0.00558067
*CONN
*I *1071:RESET_B I *D sky130_fd_sc_hd__dfrtp_1
*I *1070:RESET_B I *D sky130_fd_sc_hd__dfrtp_1
*I *1073:RESET_B I *D sky130_fd_sc_hd__dfrtp_1
*I *1072:RESET_B I *D sky130_fd_sc_hd__dfrtp_1
*I *1080:A I *D sky130_fd_sc_hd__buf_4
*I *1115:X O *D sky130_fd_sc_hd__clkbuf_2
*CAP
1 *1071:RESET_B 0
2 *1070:RESET_B 0.00010743
3 *1073:RESET_B 0.000516988
4 *1072:RESET_B 0.00060712
5 *1080:A 0.000167223
6 *1115:X 0.000453668
7 *312:33 0.000805334
8 *312:31 0.000514202
9 *312:10 0.000894724
10 *1055:A *1073:RESET_B 0
11 *1117:A *312:10 0.000158932
12 *1123:A *1073:RESET_B 0
13 *1129:A *1080:A 2.86975e-05
14 *211:122 *1073:RESET_B 0
15 *211:128 *1073:RESET_B 0
16 *211:132 *312:31 0.000708488
17 *211:132 *312:33 0.000181006
18 *271:16 *1080:A 4.77719e-05
19 *287:12 *1072:RESET_B 0.00025267
20 *287:12 *312:10 0.00013642
*RES
1 *1115:X *312:10 11.175 
2 *312:10 *1080:A 6.45 
3 *312:10 *1072:RESET_B 7.2275 
4 *1072:RESET_B *312:31 10.265 
5 *312:31 *312:33 3.675 
6 *312:33 *1073:RESET_B 10.145 
7 *312:33 *1070:RESET_B 3.3575 
8 *312:31 *1071:RESET_B 2 
*END
