*SPEF "ieee 1481-1999"
*DESIGN "gear_quantizer"
*DATE "11:11:11 Fri 11 11, 1111"
*VENDOR "OpenRCX"
*PROGRAM "Parallel Extraction"
*VERSION "1.0"
*DESIGN_FLOW "NAME_SCOPE LOCAL" "PIN_CAP NONE"
*DIVIDER /
*DELIMITER :
*BUS_DELIMITER []
*T_UNIT 1 NS
*C_UNIT 1 PF
*R_UNIT 1 OHM
*L_UNIT 1 HENRY

*NAME_MAP
*3 clk
*4 data_in[0]
*5 data_in[1]
*6 data_in[2]
*7 data_in[3]
*8 data_in[4]
*9 data_in[5]
*10 data_in[6]
*11 data_in[7]
*12 int4_out[0]
*13 int4_out[1]
*14 int4_out[2]
*15 int4_out[3]
*16 is_outlier
*17 round_mode
*18 rst_n
*19 scale[0]
*20 scale[1]
*21 scale[2]
*22 scale[3]
*23 sideband_out[0]
*24 sideband_out[1]
*25 sideband_out[2]
*26 sideband_out[3]
*27 sideband_out[4]
*28 sideband_out[5]
*29 sideband_out[6]
*30 sideband_out[7]
*31 threshold[0]
*32 threshold[1]
*33 threshold[2]
*34 threshold[3]
*35 threshold[4]
*36 threshold[5]
*37 threshold[6]
*38 threshold[7]
*39 valid_in
*40 valid_out
*41 _000_
*42 _001_
*43 _002_
*44 _003_
*45 _004_
*46 _005_
*47 _006_
*48 _007_
*49 _008_
*50 _009_
*51 _010_
*52 _011_
*53 _012_
*54 _013_
*55 _014_
*56 _015_
*57 _016_
*58 _017_
*59 _018_
*60 _019_
*61 _020_
*62 _021_
*63 _022_
*64 _023_
*65 _024_
*66 _025_
*67 _026_
*68 _027_
*69 _028_
*70 _029_
*71 _030_
*72 _031_
*73 _032_
*74 _033_
*75 _034_
*76 _035_
*77 _036_
*78 _037_
*79 _038_
*80 _039_
*81 _040_
*82 _041_
*83 _042_
*84 _043_
*85 _044_
*86 _045_
*87 _046_
*88 _047_
*89 _048_
*90 _049_
*91 _050_
*92 _051_
*93 _052_
*94 _053_
*95 _054_
*96 _055_
*97 _056_
*98 _057_
*99 _058_
*100 _059_
*101 _060_
*102 _061_
*103 _062_
*104 _063_
*105 _064_
*106 _065_
*107 _066_
*108 _067_
*109 _068_
*110 _069_
*111 _070_
*112 _071_
*113 _072_
*114 _073_
*115 _074_
*116 _075_
*117 _076_
*118 _077_
*119 _078_
*120 _079_
*121 _080_
*122 _081_
*123 _082_
*124 _083_
*125 _084_
*126 _085_
*127 _086_
*128 _087_
*129 _088_
*130 _089_
*131 _090_
*132 _091_
*133 _092_
*134 _093_
*135 _094_
*136 _095_
*137 _096_
*138 _097_
*139 _098_
*140 _099_
*141 _100_
*142 _101_
*143 _102_
*144 _103_
*145 _104_
*146 _105_
*147 _106_
*148 _107_
*149 _108_
*150 _109_
*151 _110_
*152 _111_
*153 _112_
*154 _113_
*155 _114_
*156 _115_
*157 _116_
*158 _117_
*159 _118_
*160 _119_
*161 _120_
*162 _121_
*163 _122_
*164 _123_
*165 _124_
*166 _125_
*167 _126_
*168 _127_
*169 _128_
*170 _129_
*171 _130_
*172 _131_
*173 _132_
*174 _133_
*175 _134_
*176 _135_
*177 _136_
*178 _137_
*179 _138_
*180 _139_
*181 _140_
*182 _141_
*183 _142_
*184 _143_
*185 _144_
*186 _145_
*187 _146_
*188 _147_
*189 _148_
*190 _149_
*191 _150_
*192 _151_
*193 _152_
*194 _153_
*195 _154_
*196 _155_
*197 _156_
*198 _157_
*199 _158_
*200 _159_
*201 _160_
*202 _161_
*203 _162_
*204 _163_
*205 _164_
*206 _165_
*207 _166_
*208 _167_
*209 _168_
*210 _169_
*211 _170_
*212 _171_
*213 _172_
*214 _173_
*215 _174_
*216 _175_
*217 _176_
*218 _177_
*219 _178_
*220 _179_
*221 _180_
*222 _181_
*223 _182_
*224 _183_
*225 _184_
*226 _185_
*227 _186_
*228 _187_
*229 _188_
*230 _189_
*231 _190_
*232 _191_
*233 _192_
*234 _193_
*235 _194_
*236 _195_
*237 _196_
*238 _197_
*239 _198_
*240 _199_
*241 _200_
*242 _201_
*243 _202_
*244 _203_
*245 _204_
*246 _205_
*247 _206_
*248 _207_
*249 _208_
*250 _209_
*251 _210_
*252 _211_
*253 _212_
*254 _213_
*255 _214_
*256 _215_
*257 _216_
*258 _217_
*259 _218_
*260 _219_
*261 _220_
*262 _221_
*263 _222_
*264 _223_
*265 _224_
*266 _225_
*267 _226_
*268 _227_
*269 _228_
*270 _229_
*271 _230_
*272 _231_
*273 _232_
*274 _233_
*275 _234_
*276 _235_
*277 _236_
*278 _237_
*279 _238_
*280 clknet_0_clk
*281 clknet_1_0__leaf_clk
*282 clknet_1_1__leaf_clk
*283 net1
*284 net10
*285 net11
*286 net12
*287 net13
*288 net14
*289 net15
*290 net16
*291 net17
*292 net18
*293 net19
*294 net2
*295 net20
*296 net21
*297 net22
*298 net23
*299 net24
*300 net25
*301 net26
*302 net27
*303 net28
*304 net29
*305 net3
*306 net30
*307 net31
*308 net32
*309 net33
*310 net34
*311 net35
*312 net36
*313 net37
*314 net38
*315 net39
*316 net4
*317 net40
*318 net41
*319 net42
*320 net43
*321 net44
*322 net45
*323 net46
*324 net47
*325 net48
*326 net49
*327 net5
*328 net50
*329 net51
*330 net6
*331 net7
*332 net8
*333 net9
*334 FILLER_0_0_109
*335 FILLER_0_0_113
*336 FILLER_0_0_118
*337 FILLER_0_0_130
*338 FILLER_0_0_138
*339 FILLER_0_0_14
*340 FILLER_0_0_147
*341 FILLER_0_0_155
*342 FILLER_0_0_161
*343 FILLER_0_0_169
*344 FILLER_0_0_26
*345 FILLER_0_0_35
*346 FILLER_0_0_47
*347 FILLER_0_0_57
*348 FILLER_0_0_69
*349 FILLER_0_0_7
*350 FILLER_0_0_76
*351 FILLER_0_0_85
*352 FILLER_0_0_97
*353 FILLER_0_10_119
*354 FILLER_0_10_131
*355 FILLER_0_10_139
*356 FILLER_0_10_141
*357 FILLER_0_10_15
*358 FILLER_0_10_153
*359 FILLER_0_10_165
*360 FILLER_0_10_27
*361 FILLER_0_10_29
*362 FILLER_0_10_3
*363 FILLER_0_10_42
*364 FILLER_0_10_58
*365 FILLER_0_10_66
*366 FILLER_0_10_75
*367 FILLER_0_11_108
*368 FILLER_0_11_13
*369 FILLER_0_11_131
*370 FILLER_0_11_143
*371 FILLER_0_11_155
*372 FILLER_0_11_167
*373 FILLER_0_11_169
*374 FILLER_0_11_25
*375 FILLER_0_11_29
*376 FILLER_0_11_42
*377 FILLER_0_11_54
*378 FILLER_0_11_57
*379 FILLER_0_11_65
*380 FILLER_0_11_75
*381 FILLER_0_11_81
*382 FILLER_0_11_89
*383 FILLER_0_11_96
*384 FILLER_0_12_107
*385 FILLER_0_12_115
*386 FILLER_0_12_121
*387 FILLER_0_12_133
*388 FILLER_0_12_139
*389 FILLER_0_12_141
*390 FILLER_0_12_15
*391 FILLER_0_12_153
*392 FILLER_0_12_165
*393 FILLER_0_12_3
*394 FILLER_0_12_41
*395 FILLER_0_12_66
*396 FILLER_0_12_74
*397 FILLER_0_12_85
*398 FILLER_0_12_89
*399 FILLER_0_13_103
*400 FILLER_0_13_111
*401 FILLER_0_13_129
*402 FILLER_0_13_141
*403 FILLER_0_13_153
*404 FILLER_0_13_165
*405 FILLER_0_13_169
*406 FILLER_0_13_3
*407 FILLER_0_13_30
*408 FILLER_0_13_54
*409 FILLER_0_13_61
*410 FILLER_0_13_69
*411 FILLER_0_13_91
*412 FILLER_0_14_106
*413 FILLER_0_14_114
*414 FILLER_0_14_141
*415 FILLER_0_14_153
*416 FILLER_0_14_25
*417 FILLER_0_14_3
*418 FILLER_0_14_34
*419 FILLER_0_14_42
*420 FILLER_0_14_65
*421 FILLER_0_14_90
*422 FILLER_0_15_113
*423 FILLER_0_15_137
*424 FILLER_0_15_149
*425 FILLER_0_15_161
*426 FILLER_0_15_167
*427 FILLER_0_15_169
*428 FILLER_0_15_17
*429 FILLER_0_15_25
*430 FILLER_0_15_38
*431 FILLER_0_15_44
*432 FILLER_0_15_50
*433 FILLER_0_15_57
*434 FILLER_0_15_73
*435 FILLER_0_15_84
*436 FILLER_0_15_9
*437 FILLER_0_16_110
*438 FILLER_0_16_130
*439 FILLER_0_16_138
*440 FILLER_0_16_141
*441 FILLER_0_16_15
*442 FILLER_0_16_153
*443 FILLER_0_16_165
*444 FILLER_0_16_29
*445 FILLER_0_16_3
*446 FILLER_0_16_67
*447 FILLER_0_16_74
*448 FILLER_0_16_82
*449 FILLER_0_16_88
*450 FILLER_0_16_96
*451 FILLER_0_17_104
*452 FILLER_0_17_125
*453 FILLER_0_17_137
*454 FILLER_0_17_149
*455 FILLER_0_17_15
*456 FILLER_0_17_161
*457 FILLER_0_17_169
*458 FILLER_0_17_3
*459 FILLER_0_17_35
*460 FILLER_0_17_43
*461 FILLER_0_17_57
*462 FILLER_0_17_68
*463 FILLER_0_17_76
*464 FILLER_0_17_86
*465 FILLER_0_17_94
*466 FILLER_0_18_105
*467 FILLER_0_18_124
*468 FILLER_0_18_136
*469 FILLER_0_18_141
*470 FILLER_0_18_15
*471 FILLER_0_18_153
*472 FILLER_0_18_165
*473 FILLER_0_18_27
*474 FILLER_0_18_3
*475 FILLER_0_18_42
*476 FILLER_0_18_48
*477 FILLER_0_18_59
*478 FILLER_0_18_64
*479 FILLER_0_18_68
*480 FILLER_0_18_81
*481 FILLER_0_18_85
*482 FILLER_0_18_89
*483 FILLER_0_19_104
*484 FILLER_0_19_113
*485 FILLER_0_19_127
*486 FILLER_0_19_139
*487 FILLER_0_19_151
*488 FILLER_0_19_163
*489 FILLER_0_19_167
*490 FILLER_0_19_169
*491 FILLER_0_19_48
*492 FILLER_0_19_62
*493 FILLER_0_19_76
*494 FILLER_0_19_9
*495 FILLER_0_19_91
*496 FILLER_0_1_105
*497 FILLER_0_1_111
*498 FILLER_0_1_113
*499 FILLER_0_1_125
*500 FILLER_0_1_137
*501 FILLER_0_1_149
*502 FILLER_0_1_161
*503 FILLER_0_1_167
*504 FILLER_0_1_169
*505 FILLER_0_1_19
*506 FILLER_0_1_31
*507 FILLER_0_1_43
*508 FILLER_0_1_55
*509 FILLER_0_1_57
*510 FILLER_0_1_69
*511 FILLER_0_1_7
*512 FILLER_0_1_81
*513 FILLER_0_1_93
*514 FILLER_0_20_101
*515 FILLER_0_20_141
*516 FILLER_0_20_153
*517 FILLER_0_20_165
*518 FILLER_0_20_27
*519 FILLER_0_20_3
*520 FILLER_0_20_34
*521 FILLER_0_20_43
*522 FILLER_0_20_64
*523 FILLER_0_20_76
*524 FILLER_0_20_90
*525 FILLER_0_21_103
*526 FILLER_0_21_111
*527 FILLER_0_21_113
*528 FILLER_0_21_128
*529 FILLER_0_21_13
*530 FILLER_0_21_132
*531 FILLER_0_21_147
*532 FILLER_0_21_159
*533 FILLER_0_21_169
*534 FILLER_0_21_25
*535 FILLER_0_21_29
*536 FILLER_0_21_48
*537 FILLER_0_21_57
*538 FILLER_0_21_65
*539 FILLER_0_21_74
*540 FILLER_0_21_86
*541 FILLER_0_21_93
*542 FILLER_0_22_107
*543 FILLER_0_22_127
*544 FILLER_0_22_139
*545 FILLER_0_22_141
*546 FILLER_0_22_153
*547 FILLER_0_22_165
*548 FILLER_0_22_29
*549 FILLER_0_22_3
*550 FILLER_0_22_41
*551 FILLER_0_22_53
*552 FILLER_0_22_63
*553 FILLER_0_22_81
*554 FILLER_0_22_99
*555 FILLER_0_23_134
*556 FILLER_0_23_146
*557 FILLER_0_23_158
*558 FILLER_0_23_166
*559 FILLER_0_23_169
*560 FILLER_0_23_18
*561 FILLER_0_23_3
*562 FILLER_0_23_54
*563 FILLER_0_23_60
*564 FILLER_0_23_68
*565 FILLER_0_23_81
*566 FILLER_0_23_9
*567 FILLER_0_24_11
*568 FILLER_0_24_128
*569 FILLER_0_24_141
*570 FILLER_0_24_153
*571 FILLER_0_24_165
*572 FILLER_0_24_20
*573 FILLER_0_24_29
*574 FILLER_0_24_3
*575 FILLER_0_24_37
*576 FILLER_0_24_54
*577 FILLER_0_24_67
*578 FILLER_0_24_85
*579 FILLER_0_24_91
*580 FILLER_0_25_110
*581 FILLER_0_25_120
*582 FILLER_0_25_132
*583 FILLER_0_25_144
*584 FILLER_0_25_15
*585 FILLER_0_25_156
*586 FILLER_0_25_169
*587 FILLER_0_25_27
*588 FILLER_0_25_3
*589 FILLER_0_25_39
*590 FILLER_0_25_47
*591 FILLER_0_25_57
*592 FILLER_0_25_63
*593 FILLER_0_25_75
*594 FILLER_0_25_87
*595 FILLER_0_25_93
*596 FILLER_0_25_98
*597 FILLER_0_26_100
*598 FILLER_0_26_114
*599 FILLER_0_26_126
*600 FILLER_0_26_138
*601 FILLER_0_26_141
*602 FILLER_0_26_153
*603 FILLER_0_26_165
*604 FILLER_0_26_21
*605 FILLER_0_26_27
*606 FILLER_0_26_29
*607 FILLER_0_26_41
*608 FILLER_0_26_51
*609 FILLER_0_26_59
*610 FILLER_0_26_78
*611 FILLER_0_26_9
*612 FILLER_0_27_120
*613 FILLER_0_27_132
*614 FILLER_0_27_144
*615 FILLER_0_27_15
*616 FILLER_0_27_156
*617 FILLER_0_27_164
*618 FILLER_0_27_169
*619 FILLER_0_27_27
*620 FILLER_0_27_3
*621 FILLER_0_27_39
*622 FILLER_0_27_51
*623 FILLER_0_27_55
*624 FILLER_0_27_57
*625 FILLER_0_27_73
*626 FILLER_0_28_107
*627 FILLER_0_28_111
*628 FILLER_0_28_113
*629 FILLER_0_28_121
*630 FILLER_0_28_125
*631 FILLER_0_28_137
*632 FILLER_0_28_141
*633 FILLER_0_28_147
*634 FILLER_0_28_169
*635 FILLER_0_28_20
*636 FILLER_0_28_29
*637 FILLER_0_28_37
*638 FILLER_0_28_44
*639 FILLER_0_28_57
*640 FILLER_0_28_62
*641 FILLER_0_28_72
*642 FILLER_0_28_76
*643 FILLER_0_28_83
*644 FILLER_0_28_85
*645 FILLER_0_28_9
*646 FILLER_0_28_93
*647 FILLER_0_2_109
*648 FILLER_0_2_121
*649 FILLER_0_2_133
*650 FILLER_0_2_139
*651 FILLER_0_2_141
*652 FILLER_0_2_15
*653 FILLER_0_2_153
*654 FILLER_0_2_165
*655 FILLER_0_2_27
*656 FILLER_0_2_29
*657 FILLER_0_2_3
*658 FILLER_0_2_41
*659 FILLER_0_2_53
*660 FILLER_0_2_65
*661 FILLER_0_2_77
*662 FILLER_0_2_83
*663 FILLER_0_2_85
*664 FILLER_0_2_97
*665 FILLER_0_3_111
*666 FILLER_0_3_113
*667 FILLER_0_3_121
*668 FILLER_0_3_129
*669 FILLER_0_3_138
*670 FILLER_0_3_15
*671 FILLER_0_3_150
*672 FILLER_0_3_162
*673 FILLER_0_3_169
*674 FILLER_0_3_3
*675 FILLER_0_3_43
*676 FILLER_0_3_54
*677 FILLER_0_3_63
*678 FILLER_0_3_75
*679 FILLER_0_3_87
*680 FILLER_0_3_99
*681 FILLER_0_4_109
*682 FILLER_0_4_113
*683 FILLER_0_4_134
*684 FILLER_0_4_141
*685 FILLER_0_4_153
*686 FILLER_0_4_165
*687 FILLER_0_4_74
*688 FILLER_0_4_82
*689 FILLER_0_4_85
*690 FILLER_0_4_9
*691 FILLER_0_4_97
*692 FILLER_0_5_113
*693 FILLER_0_5_131
*694 FILLER_0_5_143
*695 FILLER_0_5_155
*696 FILLER_0_5_167
*697 FILLER_0_5_169
*698 FILLER_0_5_26
*699 FILLER_0_5_3
*700 FILLER_0_5_50
*701 FILLER_0_5_57
*702 FILLER_0_5_70
*703 FILLER_0_5_80
*704 FILLER_0_5_93
*705 FILLER_0_6_112
*706 FILLER_0_6_135
*707 FILLER_0_6_139
*708 FILLER_0_6_141
*709 FILLER_0_6_153
*710 FILLER_0_6_165
*711 FILLER_0_6_3
*712 FILLER_0_6_36
*713 FILLER_0_6_65
*714 FILLER_0_6_97
*715 FILLER_0_7_104
*716 FILLER_0_7_118
*717 FILLER_0_7_124
*718 FILLER_0_7_130
*719 FILLER_0_7_139
*720 FILLER_0_7_151
*721 FILLER_0_7_163
*722 FILLER_0_7_167
*723 FILLER_0_7_169
*724 FILLER_0_7_39
*725 FILLER_0_7_47
*726 FILLER_0_7_55
*727 FILLER_0_7_6
*728 FILLER_0_7_60
*729 FILLER_0_7_82
*730 FILLER_0_7_90
*731 FILLER_0_7_98
*732 FILLER_0_8_109
*733 FILLER_0_8_117
*734 FILLER_0_8_130
*735 FILLER_0_8_138
*736 FILLER_0_8_141
*737 FILLER_0_8_15
*738 FILLER_0_8_153
*739 FILLER_0_8_165
*740 FILLER_0_8_27
*741 FILLER_0_8_3
*742 FILLER_0_8_37
*743 FILLER_0_8_49
*744 FILLER_0_8_61
*745 FILLER_0_8_68
*746 FILLER_0_8_80
*747 FILLER_0_8_85
*748 FILLER_0_8_93
*749 FILLER_0_9_107
*750 FILLER_0_9_111
*751 FILLER_0_9_113
*752 FILLER_0_9_145
*753 FILLER_0_9_15
*754 FILLER_0_9_157
*755 FILLER_0_9_165
*756 FILLER_0_9_169
*757 FILLER_0_9_27
*758 FILLER_0_9_3
*759 FILLER_0_9_39
*760 FILLER_0_9_45
*761 FILLER_0_9_53
*762 FILLER_0_9_57
*763 FILLER_0_9_67
*764 FILLER_0_9_78
*765 FILLER_0_9_95
*766 PHY_0
*767 PHY_1
*768 PHY_10
*769 PHY_11
*770 PHY_12
*771 PHY_13
*772 PHY_14
*773 PHY_15
*774 PHY_16
*775 PHY_17
*776 PHY_18
*777 PHY_19
*778 PHY_2
*779 PHY_20
*780 PHY_21
*781 PHY_22
*782 PHY_23
*783 PHY_24
*784 PHY_25
*785 PHY_26
*786 PHY_27
*787 PHY_28
*788 PHY_29
*789 PHY_3
*790 PHY_30
*791 PHY_31
*792 PHY_32
*793 PHY_33
*794 PHY_34
*795 PHY_35
*796 PHY_36
*797 PHY_37
*798 PHY_38
*799 PHY_39
*800 PHY_4
*801 PHY_40
*802 PHY_41
*803 PHY_42
*804 PHY_43
*805 PHY_44
*806 PHY_45
*807 PHY_46
*808 PHY_47
*809 PHY_48
*810 PHY_49
*811 PHY_5
*812 PHY_50
*813 PHY_51
*814 PHY_52
*815 PHY_53
*816 PHY_54
*817 PHY_55
*818 PHY_56
*819 PHY_57
*820 PHY_6
*821 PHY_7
*822 PHY_8
*823 PHY_9
*824 TAP_100
*825 TAP_101
*826 TAP_102
*827 TAP_103
*828 TAP_104
*829 TAP_105
*830 TAP_106
*831 TAP_107
*832 TAP_108
*833 TAP_109
*834 TAP_110
*835 TAP_111
*836 TAP_112
*837 TAP_113
*838 TAP_114
*839 TAP_115
*840 TAP_116
*841 TAP_117
*842 TAP_118
*843 TAP_119
*844 TAP_120
*845 TAP_121
*846 TAP_122
*847 TAP_123
*848 TAP_124
*849 TAP_125
*850 TAP_126
*851 TAP_127
*852 TAP_128
*853 TAP_129
*854 TAP_130
*855 TAP_131
*856 TAP_132
*857 TAP_133
*858 TAP_134
*859 TAP_135
*860 TAP_136
*861 TAP_137
*862 TAP_138
*863 TAP_139
*864 TAP_140
*865 TAP_141
*866 TAP_142
*867 TAP_143
*868 TAP_144
*869 TAP_145
*870 TAP_146
*871 TAP_147
*872 TAP_148
*873 TAP_149
*874 TAP_150
*875 TAP_58
*876 TAP_59
*877 TAP_60
*878 TAP_61
*879 TAP_62
*880 TAP_63
*881 TAP_64
*882 TAP_65
*883 TAP_66
*884 TAP_67
*885 TAP_68
*886 TAP_69
*887 TAP_70
*888 TAP_71
*889 TAP_72
*890 TAP_73
*891 TAP_74
*892 TAP_75
*893 TAP_76
*894 TAP_77
*895 TAP_78
*896 TAP_79
*897 TAP_80
*898 TAP_81
*899 TAP_82
*900 TAP_83
*901 TAP_84
*902 TAP_85
*903 TAP_86
*904 TAP_87
*905 TAP_88
*906 TAP_89
*907 TAP_90
*908 TAP_91
*909 TAP_92
*910 TAP_93
*911 TAP_94
*912 TAP_95
*913 TAP_96
*914 TAP_97
*915 TAP_98
*916 TAP_99
*917 _239_
*918 _240_
*919 _241_
*920 _242_
*921 _243_
*922 _244_
*923 _245_
*924 _246_
*925 _247_
*926 _248_
*927 _249_
*928 _250_
*929 _251_
*930 _252_
*931 _253_
*932 _254_
*933 _255_
*934 _256_
*935 _257_
*936 _258_
*937 _259_
*938 _260_
*939 _261_
*940 _262_
*941 _263_
*942 _264_
*943 _265_
*944 _266_
*945 _267_
*946 _268_
*947 _269_
*948 _270_
*949 _271_
*950 _272_
*951 _273_
*952 _274_
*953 _275_
*954 _276_
*955 _277_
*956 _278_
*957 _279_
*958 _280_
*959 _281_
*960 _282_
*961 _283_
*962 _284_
*963 _285_
*964 _286_
*965 _287_
*966 _288_
*967 _289_
*968 _290_
*969 _291_
*970 _292_
*971 _293_
*972 _294_
*973 _295_
*974 _296_
*975 _297_
*976 _298_
*977 _299_
*978 _300_
*979 _301_
*980 _302_
*981 _303_
*982 _304_
*983 _305_
*984 _306_
*985 _307_
*986 _308_
*987 _309_
*988 _310_
*989 _311_
*990 _312_
*991 _313_
*992 _314_
*993 _315_
*994 _316_
*995 _317_
*996 _318_
*997 _319_
*998 _320_
*999 _321_
*1000 _322_
*1001 _323_
*1002 _324_
*1003 _325_
*1004 _326_
*1005 _327_
*1006 _328_
*1007 _329_
*1008 _330_
*1009 _331_
*1010 _332_
*1011 _333_
*1012 _334_
*1013 _335_
*1014 _336_
*1015 _337_
*1016 _338_
*1017 _339_
*1018 _340_
*1019 _341_
*1020 _342_
*1021 _343_
*1022 _344_
*1023 _345_
*1024 _346_
*1025 _347_
*1026 _348_
*1027 _349_
*1028 _350_
*1029 _351_
*1030 _352_
*1031 _353_
*1032 _354_
*1033 _355_
*1034 _356_
*1035 _357_
*1036 _358_
*1037 _359_
*1038 _360_
*1039 _361_
*1040 _362_
*1041 _363_
*1042 _364_
*1043 _365_
*1044 _366_
*1045 _367_
*1046 _368_
*1047 _369_
*1048 _370_
*1049 _371_
*1050 _372_
*1051 _373_
*1052 _374_
*1053 _375_
*1054 _376_
*1055 _377_
*1056 _378_
*1057 _379_
*1058 _380_
*1059 _381_
*1060 _382_
*1061 _383_
*1062 _384_
*1063 _385_
*1064 _386_
*1065 _387_
*1066 _388_
*1067 _389_
*1068 _390_
*1069 _391_
*1070 _392_
*1071 _393_
*1072 _394_
*1073 _395_
*1074 _396_
*1075 _397_
*1076 _398_
*1077 _399_
*1078 _400_
*1079 _401_
*1080 _402_
*1081 _403_
*1082 _404_
*1083 _405_
*1084 _406_
*1085 _407_
*1086 _408_
*1087 _409_
*1088 _410_
*1089 _411_
*1090 _412_
*1091 _413_
*1092 _414_
*1093 _415_
*1094 _416_
*1095 _417_
*1096 _418_
*1097 _419_
*1098 _420_
*1099 _421_
*1100 _422_
*1101 _423_
*1102 _424_
*1103 _425_
*1104 _426_
*1105 _427_
*1106 _428_
*1107 _429_
*1108 _430_
*1109 _431_
*1110 _432_
*1111 _433_
*1112 _434_
*1113 _435_
*1114 _436_
*1115 _437_
*1116 _438_
*1117 _439_
*1118 _440_
*1119 _441_
*1120 _442_
*1121 _443_
*1122 _444_
*1123 _445_
*1124 _446_
*1125 _447_
*1126 _448_
*1127 _449_
*1128 _450_
*1129 _451_
*1130 _452_
*1131 _453_
*1132 _454_
*1133 _455_
*1134 _456_
*1135 _457_
*1136 _458_
*1137 _459_
*1138 _460_
*1139 _461_
*1140 _462_
*1141 _463_
*1142 _464_
*1143 _465_
*1144 _466_
*1145 _467_
*1146 _468_
*1147 _469_
*1148 _470_
*1149 _471_
*1150 _472_
*1151 _473_
*1152 _474_
*1153 _475_
*1154 _476_
*1155 _477_
*1156 _478_
*1157 _479_
*1158 _480_
*1159 _481_
*1160 _482_
*1161 _483_
*1162 _484_
*1163 _485_
*1164 _486_
*1165 _487_
*1166 _488_
*1167 _489_
*1168 _490_
*1169 _491_
*1170 clkbuf_0_clk
*1171 clkbuf_1_0__f_clk
*1172 clkbuf_1_1__f_clk
*1173 fanout39
*1174 hold1
*1175 hold10
*1176 hold11
*1177 hold12
*1178 hold2
*1179 hold3
*1180 hold4
*1181 hold5
*1182 hold6
*1183 hold7
*1184 hold8
*1185 hold9
*1186 input1
*1187 input10
*1188 input11
*1189 input12
*1190 input13
*1191 input14
*1192 input15
*1193 input16
*1194 input17
*1195 input18
*1196 input19
*1197 input2
*1198 input20
*1199 input21
*1200 input22
*1201 input23
*1202 input3
*1203 input4
*1204 input5
*1205 input6
*1206 input7
*1207 input8
*1208 input9
*1209 max_cap38
*1210 output24
*1211 output25
*1212 output26
*1213 output27
*1214 output28
*1215 output29
*1216 output30
*1217 output31
*1218 output32
*1219 output33
*1220 output34
*1221 output35
*1222 output36
*1223 output37

*PORTS
clk I
data_in[0] I
data_in[1] I
data_in[2] I
data_in[3] I
data_in[4] I
data_in[5] I
data_in[6] I
data_in[7] I
int4_out[0] O
int4_out[1] O
int4_out[2] O
int4_out[3] O
is_outlier O
round_mode I
rst_n I
scale[0] I
scale[1] I
scale[2] I
scale[3] I
sideband_out[0] O
sideband_out[1] O
sideband_out[2] O
sideband_out[3] O
sideband_out[4] O
sideband_out[5] O
sideband_out[6] O
sideband_out[7] O
threshold[0] I
threshold[1] I
threshold[2] I
threshold[3] I
threshold[4] I
threshold[5] I
threshold[6] I
threshold[7] I
valid_in I
valid_out O

*D_NET *3 0.00641032
*CONN
*P clk I
*I *1170:A I *D sky130_fd_sc_hd__clkbuf_16
*CAP
1 clk 0.00226595
2 *1170:A 3.64537e-05
3 *3:9 0.00230241
4 *1170:A *305:41 9.84794e-05
5 *3:9 *945:A 0
6 *3:9 *1062:B 0
7 *3:9 *1063:B_N 0
8 *3:9 *1075:A 5.81897e-05
9 *3:9 *57:87 0
10 *3:9 *71:68 0
11 *3:9 *71:110 2.8133e-05
12 *3:9 *148:19 0
13 *3:9 *149:10 3.05092e-05
14 *3:9 *154:23 0.000157147
15 *3:9 *156:10 1.79668e-05
16 *3:9 *236:104 0
17 *3:9 *237:85 0
18 *3:9 *237:104 0
19 *3:9 *238:80 4.44955e-05
20 *3:9 *238:112 2.69265e-05
21 *3:9 *241:91 0.000299196
22 *3:9 *241:104 0.000181934
23 *3:9 *254:10 6.6869e-05
24 *3:9 *290:12 0
25 *3:9 *316:32 0.000433188
26 *3:9 *332:10 0.000303557
27 *3:9 *332:27 5.61457e-05
28 *3:9 *332:54 2.76611e-06
*RES
1 clk *3:9 46.4414 
2 *3:9 *1170:A 39.0979 
*END

*D_NET *4 0.000539309
*CONN
*P data_in[0] I
*I *1186:A I *D sky130_fd_sc_hd__buf_1
*CAP
1 data_in[0] 0.000269654
2 *1186:A 0.000269654
*RES
1 data_in[0] *1186:A 49.5289 
*END

*D_NET *5 0.000717475
*CONN
*P data_in[1] I
*I *1197:A I *D sky130_fd_sc_hd__dlymetal6s2s_1
*CAP
1 data_in[1] 0.000358737
2 *1197:A 0
3 *5:13 0.000358737
4 *5:13 *287:12 0
*RES
1 data_in[1] *5:13 28.2896 
2 *5:13 *1197:A 23 
*END

*D_NET *6 0.0011631
*CONN
*P data_in[2] I
*I *1202:A I *D sky130_fd_sc_hd__clkbuf_2
*CAP
1 data_in[2] 0.000581552
2 *1202:A 0
3 *6:9 0.000581552
*RES
1 data_in[2] *6:9 27.035 
2 *6:9 *1202:A 23 
*END

*D_NET *7 0.00114398
*CONN
*P data_in[3] I
*I *1203:A I *D sky130_fd_sc_hd__clkbuf_4
*CAP
1 data_in[3] 0.0005219
2 *1203:A 0.0005219
3 *1203:A *1134:A2 0
4 *1203:A *218:10 0.00010018
*RES
1 data_in[3] *1203:A 49.5586 
*END

*D_NET *8 0.00116207
*CONN
*P data_in[4] I
*I *1204:A I *D sky130_fd_sc_hd__buf_1
*CAP
1 data_in[4] 0.000552514
2 *1204:A 0
3 *8:9 0.000552514
4 *8:9 *327:8 5.70419e-05
*RES
1 data_in[4] *8:9 27.035 
2 *8:9 *1204:A 23 
*END

*D_NET *9 0.00104631
*CONN
*P data_in[5] I
*I *1205:A I *D sky130_fd_sc_hd__clkbuf_1
*CAP
1 data_in[5] 0.000523154
2 *1205:A 0.000523154
3 *1205:A *1201:A 0
*RES
1 data_in[5] *1205:A 49.0821 
*END

*D_NET *10 0.00172021
*CONN
*P data_in[6] I
*I *1206:A I *D sky130_fd_sc_hd__buf_1
*CAP
1 data_in[6] 0.000536162
2 *1206:A 0
3 *10:13 0.000536162
4 *10:13 *17:15 0.000647885
*RES
1 data_in[6] *10:13 28.8993 
2 *10:13 *1206:A 23 
*END

*D_NET *11 0.000873817
*CONN
*P data_in[7] I
*I *1207:A I *D sky130_fd_sc_hd__buf_2
*CAP
1 data_in[7] 0.000436908
2 *1207:A 0.000436908
*RES
1 data_in[7] *1207:A 47.3214 
*END

*D_NET *12 0.000703408
*CONN
*P int4_out[0] O
*I *1210:X O *D sky130_fd_sc_hd__clkbuf_4
*CAP
1 int4_out[0] 0.000288253
2 *1210:X 0.000288253
3 int4_out[0] *287:12 0.000126901
*RES
1 *1210:X int4_out[0] 48.5734 
*END

*D_NET *13 0.000715063
*CONN
*P int4_out[1] O
*I *1211:X O *D sky130_fd_sc_hd__clkbuf_4
*CAP
1 int4_out[1] 0.000345181
2 *1211:X 0.000345181
3 int4_out[1] *291:8 2.47015e-05
*RES
1 *1211:X int4_out[1] 47.4224 
*END

*D_NET *14 0.00104903
*CONN
*P int4_out[2] O
*I *1212:X O *D sky130_fd_sc_hd__clkbuf_4
*CAP
1 int4_out[2] 0.000524517
2 *1212:X 0.000524517
*RES
1 *1212:X int4_out[2] 48.5021 
*END

*D_NET *15 0.000805209
*CONN
*P int4_out[3] O
*I *1213:X O *D sky130_fd_sc_hd__clkbuf_4
*CAP
1 int4_out[3] 0.000376184
2 *1213:X 0.000376184
3 int4_out[3] *287:12 5.28413e-05
*RES
1 *1213:X int4_out[3] 47.6999 
*END

*D_NET *16 0.000713829
*CONN
*P is_outlier O
*I *1214:X O *D sky130_fd_sc_hd__clkbuf_4
*CAP
1 is_outlier 8.56082e-05
2 *1214:X 0.000271306
3 *16:10 0.000356915
4 *16:10 *1214:A 0
*RES
1 *1214:X *16:10 42.0289 
2 *16:10 is_outlier 8.32853 
*END

*D_NET *17 0.00187415
*CONN
*P round_mode I
*I *1208:A I *D sky130_fd_sc_hd__buf_1
*CAP
1 round_mode 0.000613133
2 *1208:A 0
3 *17:15 0.000613133
4 *10:13 *17:15 0.000647885
*RES
1 round_mode *17:15 33.3292 
2 *17:15 *1208:A 23 
*END

*D_NET *18 0.000738288
*CONN
*P rst_n I
*I *1187:A I *D sky130_fd_sc_hd__clkbuf_2
*CAP
1 rst_n 0.000369144
2 *1187:A 0
3 *18:13 0.000369144
*RES
1 rst_n *18:13 27.6535 
2 *18:13 *1187:A 23 
*END

*D_NET *19 0.000785703
*CONN
*P scale[0] I
*I *1188:A I *D sky130_fd_sc_hd__dlymetal6s2s_1
*CAP
1 scale[0] 0.000392851
2 *1188:A 0
3 *19:13 0.000392851
*RES
1 scale[0] *19:13 28.2335 
2 *19:13 *1188:A 23 
*END

*D_NET *20 0.00157438
*CONN
*P scale[1] I
*I *1189:A I *D sky130_fd_sc_hd__clkbuf_2
*CAP
1 scale[1] 0.00078719
2 *1189:A 0
3 *20:9 0.00078719
*RES
1 scale[1] *20:9 31.1157 
2 *20:9 *1189:A 23 
*END

*D_NET *21 0.00138565
*CONN
*P scale[2] I
*I *1190:A I *D sky130_fd_sc_hd__buf_1
*CAP
1 scale[2] 0.000692826
2 *1190:A 0
3 *21:11 0.000692826
*RES
1 scale[2] *21:11 29.5621 
2 *21:11 *1190:A 23 
*END

*D_NET *22 0.0010156
*CONN
*P scale[3] I
*I *1191:A I *D sky130_fd_sc_hd__buf_2
*CAP
1 scale[3] 0.000507798
2 *1191:A 0
3 *22:11 0.000507798
4 *22:11 sideband_out[5] 0
5 *22:11 *310:12 0
*RES
1 scale[3] *22:11 28.6568 
2 *22:11 *1191:A 23 
*END

*D_NET *23 0.000740866
*CONN
*P sideband_out[0] O
*I *1215:X O *D sky130_fd_sc_hd__clkbuf_4
*CAP
1 sideband_out[0] 0.000370433
2 *1215:X 0.000370433
*RES
1 *1215:X sideband_out[0] 45.9957 
*END

*D_NET *24 0.000577909
*CONN
*P sideband_out[1] O
*I *1216:X O *D sky130_fd_sc_hd__buf_2
*CAP
1 sideband_out[1] 0.000272201
2 *1216:X 0.000272201
3 sideband_out[1] *306:21 3.35075e-05
*RES
1 *1216:X sideband_out[1] 47.8691 
*END

*D_NET *25 0.00135906
*CONN
*P sideband_out[2] O
*I *1217:X O *D sky130_fd_sc_hd__clkbuf_4
*CAP
1 sideband_out[2] 9.33368e-05
2 *1217:X 0.00053934
3 *25:12 0.000632677
4 *25:12 *332:8 9.37067e-05
*RES
1 *1217:X *25:12 48.0568 
2 *25:12 sideband_out[2] 2.18536 
*END

*D_NET *26 0.000983879
*CONN
*P sideband_out[3] O
*I *1218:X O *D sky130_fd_sc_hd__clkbuf_4
*CAP
1 sideband_out[3] 0.000480425
2 *1218:X 0.000480425
3 sideband_out[3] *34:13 2.30292e-05
*RES
1 *1218:X sideband_out[3] 48.0257 
*END

*D_NET *27 0.000746753
*CONN
*P sideband_out[4] O
*I *1219:X O *D sky130_fd_sc_hd__buf_2
*CAP
1 sideband_out[4] 0.000108461
2 *1219:X 0.000264915
3 *27:12 0.000373376
*RES
1 *1219:X *27:12 42.0496 
2 *27:12 sideband_out[4] 8.4144 
*END

*D_NET *28 0.000747063
*CONN
*P sideband_out[5] O
*I *1220:X O *D sky130_fd_sc_hd__clkbuf_4
*CAP
1 sideband_out[5] 0.000373532
2 *1220:X 0.000373532
3 *22:11 sideband_out[5] 0
*RES
1 *1220:X sideband_out[5] 45.9957 
*END

*D_NET *29 0.00093007
*CONN
*P sideband_out[6] O
*I *1221:X O *D sky130_fd_sc_hd__clkbuf_4
*CAP
1 sideband_out[6] 0.000465035
2 *1221:X 0.000465035
*RES
1 *1221:X sideband_out[6] 47.3836 
*END

*D_NET *30 0.000696886
*CONN
*P sideband_out[7] O
*I *1222:X O *D sky130_fd_sc_hd__clkbuf_4
*CAP
1 sideband_out[7] 9.83601e-05
2 *1222:X 0.000250083
3 *30:10 0.000348443
*RES
1 *1222:X *30:10 42.6089 
2 *30:10 sideband_out[7] 8.32853 
*END

*D_NET *31 0.00099354
*CONN
*P threshold[0] I
*I *1192:A I *D sky130_fd_sc_hd__buf_1
*CAP
1 threshold[0] 0.000463728
2 *1192:A 0.000463728
3 *1192:A *289:10 2.26497e-05
4 *1192:A *289:20 3.73592e-05
5 *1192:A *291:8 6.07611e-06
6 *1192:A *333:10 0
*RES
1 threshold[0] *1192:A 49.6151 
*END

*D_NET *32 0.00108852
*CONN
*P threshold[1] I
*I *1193:A I *D sky130_fd_sc_hd__buf_1
*CAP
1 threshold[1] 0.000544259
2 *1193:A 0
3 *32:17 0.000544259
*RES
1 threshold[1] *32:17 28.2157 
2 *32:17 *1193:A 23 
*END

*D_NET *33 0.00106362
*CONN
*P threshold[2] I
*I *1194:A I *D sky130_fd_sc_hd__buf_1
*CAP
1 threshold[2] 0.000531812
2 *1194:A 0
3 *33:13 0.000531812
4 *33:13 *308:33 0
*RES
1 threshold[2] *33:13 29.6421 
2 *33:13 *1194:A 23 
*END

*D_NET *34 0.00215028
*CONN
*P threshold[3] I
*I *1195:A I *D sky130_fd_sc_hd__buf_1
*CAP
1 threshold[3] 0.00106362
2 *1195:A 0
3 *34:13 0.00106362
4 sideband_out[3] *34:13 2.30292e-05
*RES
1 threshold[3] *34:13 36.8536 
2 *34:13 *1195:A 23 
*END

*D_NET *35 0.00106229
*CONN
*P threshold[4] I
*I *1196:A I *D sky130_fd_sc_hd__buf_1
*CAP
1 threshold[4] 0.000516454
2 *1196:A 0.000516454
3 *1196:A *293:8 2.93845e-05
*RES
1 threshold[4] *1196:A 49.0821 
*END

*D_NET *36 0.00121453
*CONN
*P threshold[5] I
*I *1198:A I *D sky130_fd_sc_hd__buf_1
*CAP
1 threshold[5] 0.000558978
2 *1198:A 0
3 *36:13 0.000558978
4 *36:13 *171:12 2.3853e-05
5 *36:13 *205:10 7.27182e-05
*RES
1 threshold[5] *36:13 27.325 
2 *36:13 *1198:A 23 
*END

*D_NET *37 0.00120049
*CONN
*P threshold[6] I
*I *1199:A I *D sky130_fd_sc_hd__buf_1
*CAP
1 threshold[6] 0.000559452
2 *1199:A 0.000559452
3 *1199:A *332:8 8.15864e-05
*RES
1 threshold[6] *1199:A 49.6621 
*END

*D_NET *38 0.000555459
*CONN
*P threshold[7] I
*I *1200:A I *D sky130_fd_sc_hd__dlymetal6s2s_1
*CAP
1 threshold[7] 0.000266677
2 *1200:A 0.000266677
3 *1200:A *297:8 2.21044e-05
*RES
1 threshold[7] *1200:A 47.7832 
*END

*D_NET *39 0.00120192
*CONN
*P valid_in I
*I *1201:A I *D sky130_fd_sc_hd__buf_1
*CAP
1 valid_in 0.000600959
2 *1201:A 0.000600959
3 *1205:A *1201:A 0
*RES
1 valid_in *1201:A 49.5901 
*END

*D_NET *40 0.000771983
*CONN
*P valid_out O
*I *1223:X O *D sky130_fd_sc_hd__clkbuf_4
*CAP
1 valid_out 0.000353255
2 *1223:X 0.000353255
3 valid_out *291:8 6.54744e-05
*RES
1 *1223:X valid_out 48.7451 
*END

*D_NET *41 0.000597527
*CONN
*I *1156:D I *D sky130_fd_sc_hd__dfrtp_1
*I *957:X O *D sky130_fd_sc_hd__o21ba_1
*CAP
1 *1156:D 0
2 *957:X 0.000169842
3 *41:10 0.000169842
4 *41:10 *956:A 5.3304e-05
5 *41:10 *957:A2 1.08287e-05
6 *41:10 *957:B1_N 2.31591e-05
7 *41:10 *232:39 0.000112455
8 *41:10 *294:14 5.80963e-05
*RES
1 *957:X *41:10 41.1279 
2 *41:10 *1156:D 38 
*END

*D_NET *42 0.000721076
*CONN
*I *1158:D I *D sky130_fd_sc_hd__dfrtp_1
*I *1130:X O *D sky130_fd_sc_hd__a22o_1
*CAP
1 *1158:D 0
2 *1130:X 0.000203082
3 *42:10 0.000203082
4 *42:10 *232:47 0.000144501
5 *42:10 *232:62 0.000170411
6 *42:10 *294:14 0
*RES
1 *1130:X *42:10 41.6043 
2 *42:10 *1158:D 38 
*END

*D_NET *43 0.000625638
*CONN
*I *1159:D I *D sky130_fd_sc_hd__dfrtp_1
*I *1133:X O *D sky130_fd_sc_hd__a22o_1
*CAP
1 *1159:D 0.000115274
2 *1133:X 5.42001e-05
3 *43:8 0.000169474
4 *1159:D *1132:A3 7.4416e-05
5 *43:8 *315:134 0.000141888
6 *43:8 *327:20 7.03869e-05
*RES
1 *1133:X *43:8 39.9057 
2 *43:8 *1159:D 40.0507 
*END

*D_NET *44 0.000931031
*CONN
*I *1160:D I *D sky130_fd_sc_hd__dfrtp_1
*I *1137:X O *D sky130_fd_sc_hd__a22o_1
*CAP
1 *1160:D 0
2 *1137:X 0.000283974
3 *44:10 0.000283974
4 *44:10 *1138:A 0.000146822
5 *44:10 *1161:CLK 1.76557e-05
6 *44:10 *45:12 0
7 *44:10 *221:10 0.000192022
8 *44:10 *269:54 6.58415e-06
*RES
1 *1137:X *44:10 42.9093 
2 *44:10 *1160:D 38 
*END

*D_NET *45 0.000879919
*CONN
*I *1161:D I *D sky130_fd_sc_hd__dfrtp_1
*I *1139:X O *D sky130_fd_sc_hd__a22o_1
*CAP
1 *1161:D 2.79273e-05
2 *1139:X 0.000221805
3 *45:12 0.000249732
4 *1161:D *269:54 3.22051e-05
5 *45:12 *1160:CLK 0
6 *45:12 *221:10 0
7 *45:12 *269:54 0.000348249
8 *44:10 *45:12 0
*RES
1 *1139:X *45:12 43.4893 
2 *45:12 *1161:D 38.6214 
*END

*D_NET *46 0.00047481
*CONN
*I *1162:D I *D sky130_fd_sc_hd__dfrtp_1
*I *1141:X O *D sky130_fd_sc_hd__a31o_1
*CAP
1 *1162:D 1.41969e-05
2 *1141:X 0.00011177
3 *46:8 0.000125967
4 *1162:D *1162:CLK 2.95526e-05
5 *1162:D *1162:RESET_B 5.82853e-05
6 *46:8 *311:27 4.92798e-05
7 *46:8 *324:8 8.57577e-05
*RES
1 *1141:X *46:8 40.61 
2 *46:8 *1162:D 38.6214 
*END

*D_NET *47 0.00059291
*CONN
*I *1163:D I *D sky130_fd_sc_hd__dfrtp_1
*I *1143:X O *D sky130_fd_sc_hd__a31o_1
*CAP
1 *1163:D 0
2 *1143:X 0.000128284
3 *47:10 0.000128284
4 *47:10 *1143:A1 5.25848e-05
5 *47:10 *236:141 0.000141879
6 *47:10 *268:127 0.000141879
*RES
1 *1143:X *47:10 41.0036 
2 *47:10 *1163:D 38 
*END

*D_NET *48 0.000360085
*CONN
*I *1164:D I *D sky130_fd_sc_hd__dfrtp_1
*I *1145:X O *D sky130_fd_sc_hd__a31o_1
*CAP
1 *1164:D 0
2 *1145:X 0.000124684
3 *48:10 0.000124684
4 *48:10 *1166:CLK 0
5 *48:10 *268:101 0.000110718
*RES
1 *1145:X *48:10 40.175 
2 *48:10 *1164:D 38 
*END

*D_NET *49 0.000545833
*CONN
*I *1165:D I *D sky130_fd_sc_hd__dfrtp_1
*I *1147:X O *D sky130_fd_sc_hd__a31o_1
*CAP
1 *1165:D 4.90979e-05
2 *1147:X 0.000102901
3 *49:10 0.000151999
4 *49:10 *1147:A2 1.59094e-05
5 *49:10 *268:127 0.000111852
6 *49:10 *282:79 0.000114074
*RES
1 *1147:X *49:10 40.175 
2 *49:10 *1165:D 38.6214 
*END

*D_NET *50 0.000630912
*CONN
*I *1166:D I *D sky130_fd_sc_hd__dfrtp_1
*I *1149:X O *D sky130_fd_sc_hd__a31o_1
*CAP
1 *1166:D 0.000146157
2 *1149:X 8.56255e-05
3 *50:8 0.000231782
4 *1166:D *230:79 0.00010745
5 *50:8 *230:79 2.14486e-05
6 *50:8 *232:118 3.84486e-05
*RES
1 *1149:X *50:8 39.9057 
2 *50:8 *1166:D 41.48 
*END

*D_NET *51 0.000436716
*CONN
*I *1167:D I *D sky130_fd_sc_hd__dfrtp_1
*I *1151:X O *D sky130_fd_sc_hd__a31o_1
*CAP
1 *1167:D 3.48878e-05
2 *1151:X 0.000122636
3 *51:8 0.000157524
4 *1167:D *283:6 1.83408e-05
5 *51:8 *230:155 1.12863e-05
6 *51:8 *241:78 4.43152e-05
7 *51:8 *268:56 4.77263e-05
*RES
1 *1151:X *51:8 40.61 
2 *51:8 *1167:D 38.6214 
*END

*D_NET *52 0.00107079
*CONN
*I *1168:D I *D sky130_fd_sc_hd__dfrtp_1
*I *1153:X O *D sky130_fd_sc_hd__a31o_1
*CAP
1 *1168:D 0
2 *1153:X 0.000284836
3 *52:10 0.000284836
4 *52:10 *230:30 0.000183102
5 *52:10 *281:33 2.81066e-05
6 *52:10 *281:45 0.000289915
*RES
1 *1153:X *52:10 43.4686 
2 *52:10 *1168:D 38 
*END

*D_NET *53 0.000711699
*CONN
*I *1169:D I *D sky130_fd_sc_hd__dfrtp_1
*I *1155:X O *D sky130_fd_sc_hd__a31o_1
*CAP
1 *1169:D 0.000111156
2 *1155:X 0.000168839
3 *53:10 0.000279995
4 *53:10 *1162:RESET_B 7.83367e-06
5 *53:10 *268:36 5.81185e-05
6 *53:10 *281:45 8.57577e-05
*RES
1 *1155:X *53:10 40.7757 
2 *53:10 *1169:D 39.9471 
*END

*D_NET *54 0.000386233
*CONN
*I *970:C I *D sky130_fd_sc_hd__or4b_1
*I *968:X O *D sky130_fd_sc_hd__o21a_1
*CAP
1 *970:C 0.00011146
2 *968:X 0.00011146
3 *970:C *970:A 5.50049e-05
4 *970:C *271:126 5.50049e-05
5 *970:C *332:81 5.3304e-05
*RES
1 *968:X *970:C 48.0507 
*END

*D_NET *55 0.00074643
*CONN
*I *970:D_N I *D sky130_fd_sc_hd__or4b_1
*I *969:X O *D sky130_fd_sc_hd__or3_1
*CAP
1 *970:D_N 0.000113316
2 *969:X 4.69586e-05
3 *55:8 0.000160275
4 *970:D_N *970:A 0.00017761
5 *970:D_N *272:103 5.3304e-05
6 *55:8 *164:8 0.000114092
7 *55:8 *241:138 3.06079e-05
8 *55:8 *271:151 5.02657e-05
*RES
1 *969:X *55:8 39.5536 
2 *55:8 *970:D_N 40.0507 
*END

*D_NET *56 0.00274618
*CONN
*I *1003:A2 I *D sky130_fd_sc_hd__o211a_1
*I *995:B1_N I *D sky130_fd_sc_hd__a21bo_1
*I *970:X O *D sky130_fd_sc_hd__or4b_1
*CAP
1 *1003:A2 0
2 *995:B1_N 0
3 *970:X 0.000228475
4 *56:29 0.000401108
5 *56:12 0.000484556
6 *56:8 0.000311924
7 *56:8 *968:A2 4.77164e-06
8 *56:8 *86:14 6.73016e-05
9 *56:8 *241:138 0.000316872
10 *56:8 *274:91 0
11 *56:8 *279:23 5.93893e-05
12 *56:8 *316:22 2.70133e-05
13 *56:12 *995:A2 5.14826e-05
14 *56:29 *995:A2 5.94211e-05
15 *56:29 *1002:B 5.79559e-05
16 *56:29 *1003:A1 0.000256133
17 *56:29 *1003:B1 4.344e-05
18 *56:29 *270:16 0.000186606
19 *56:29 *285:28 0.000112161
20 *56:29 *316:22 7.75677e-05
*RES
1 *970:X *56:8 43.7793 
2 *56:8 *56:12 16.0979 
3 *56:12 *995:B1_N 23 
4 *56:12 *56:29 39.2386 
5 *56:29 *1003:A2 23 
*END

*D_NET *57 0.0171724
*CONN
*I *1002:A I *D sky130_fd_sc_hd__nand3_1
*I *995:A1 I *D sky130_fd_sc_hd__a21bo_1
*I *973:A1 I *D sky130_fd_sc_hd__a22o_1
*I *972:B I *D sky130_fd_sc_hd__nand2_1
*I *1073:A I *D sky130_fd_sc_hd__and4_1
*I *1069:A1 I *D sky130_fd_sc_hd__a22o_1
*I *1056:A I *D sky130_fd_sc_hd__nand4_1
*I *1009:A1 I *D sky130_fd_sc_hd__a22o_1
*I *977:A I *D sky130_fd_sc_hd__nand4_2
*I *1042:A I *D sky130_fd_sc_hd__and4_1
*I *971:X O *D sky130_fd_sc_hd__buf_2
*CAP
1 *1002:A 0.000171152
2 *995:A1 0
3 *973:A1 0.000368006
4 *972:B 0.000110845
5 *1073:A 0
6 *1069:A1 0
7 *1056:A 0
8 *1009:A1 0
9 *977:A 0
10 *1042:A 1.92001e-05
11 *971:X 0
12 *57:142 0.000335351
13 *57:121 0.000759506
14 *57:110 0.000412998
15 *57:100 0.000962175
16 *57:87 0.00100778
17 *57:74 0.000135746
18 *57:68 0.000952481
19 *57:54 0.000308338
20 *57:33 0.000308338
21 *57:31 0.000919056
22 *57:20 0.00119375
23 *57:8 0.000298187
24 *57:4 0.000284367
25 *972:B *272:153 9.16471e-05
26 *972:B *282:54 1.76557e-05
27 *973:A1 *969:A 4.49642e-05
28 *973:A1 *969:C 5.50049e-05
29 *973:A1 *973:B1 5.3304e-05
30 *973:A1 *278:31 3.85196e-05
31 *973:A1 *316:26 7.1915e-05
32 *1002:A *995:A2 0.000312454
33 *1002:A *1001:B 0.000128825
34 *1002:A *1002:B 5.33391e-05
35 *1002:A *241:138 4.21921e-05
36 *1042:A *237:59 5.3304e-05
37 *1042:A *238:59 5.58003e-05
38 *57:8 *142:8 8.39513e-05
39 *57:8 *272:24 0.000145481
40 *57:20 *971:A 0.000164641
41 *57:20 *237:59 0.000138859
42 *57:20 *238:59 0.000127744
43 *57:20 *272:32 0
44 *57:20 *286:18 7.43673e-05
45 *57:20 *293:24 0.000277872
46 *57:31 *63:8 1.13812e-05
47 *57:31 *130:14 0.000168515
48 *57:31 *137:10 0.000216721
49 *57:31 *233:44 0
50 *57:31 *235:109 0.000160125
51 *57:31 *271:60 0.000158719
52 *57:31 *293:24 0.000691208
53 *57:31 *305:41 8.05985e-05
54 *57:54 *978:A 6.72485e-05
55 *57:54 *978:B 0
56 *57:54 *1009:A2 5.5792e-05
57 *57:54 *1009:B2 1.06613e-05
58 *57:54 *63:8 0.000164392
59 *57:54 *63:25 4.95715e-05
60 *57:54 *71:10 3.46216e-05
61 *57:54 *233:69 5.55743e-06
62 *57:54 *233:73 0.000101282
63 *57:54 *316:62 9.66668e-05
64 *57:68 *1059:A 0.000123539
65 *57:68 *1059:C 3.15198e-05
66 *57:68 *142:8 7.28308e-05
67 *57:68 *145:6 0.000141052
68 *57:68 *272:24 1.52719e-05
69 *57:68 *272:45 0.000455389
70 *57:74 *238:80 4.60157e-05
71 *57:74 *295:16 0.000188071
72 *57:74 *332:35 7.06554e-05
73 *57:87 *1063:A 0.000126847
74 *57:87 *145:6 2.62931e-05
75 *57:87 *145:21 2.45032e-05
76 *57:87 *147:14 5.3304e-05
77 *57:87 *148:8 5.50049e-05
78 *57:87 *149:10 0.000208309
79 *57:87 *236:104 6.39204e-05
80 *57:100 *149:10 0.00040108
81 *57:100 *156:29 0.000261139
82 *57:100 *163:10 7.136e-05
83 *57:100 *164:8 3.47781e-05
84 *57:100 *236:104 1.29848e-05
85 *57:100 *272:115 5.45771e-05
86 *57:100 *316:32 0.000110044
87 *57:110 *241:123 8.62876e-05
88 *57:110 *305:35 0.000265829
89 *57:110 *305:41 1.24376e-05
90 *57:121 *164:8 0.000521846
91 *57:121 *272:103 0.000339893
92 *57:121 *316:32 8.21763e-05
93 *57:142 *995:A2 5.82853e-05
94 *57:142 *81:10 3.7122e-06
95 *57:142 *164:8 0.000241142
96 *57:142 *241:138 0.000141352
97 *57:142 *316:32 4.17929e-05
98 *57:142 *316:62 7.70213e-05
99 *3:9 *57:87 0
*RES
1 *971:X *57:4 23 
2 *57:4 *57:8 2.07143 
3 *57:8 *57:20 36.3593 
4 *57:20 *1042:A 23.6214 
5 *57:20 *57:31 36.9779 
6 *57:31 *57:33 15 
7 *57:33 *977:A 23 
8 *57:33 *57:54 37.6021 
9 *57:54 *1009:A1 23 
10 *57:8 *1056:A 23 
11 *57:4 *57:68 7.78857 
12 *57:68 *57:74 32.61 
13 *57:74 *1069:A1 23 
14 *57:68 *57:87 25.9993 
15 *57:87 *1073:A 38 
16 *57:87 *57:100 10.7714 
17 *57:100 *57:110 49.6814 
18 *57:110 *972:B 24.9471 
19 *57:100 *57:121 7.18786 
20 *57:121 *973:A1 44.0486 
21 *57:121 *57:142 19.8886 
22 *57:142 *995:A1 23 
23 *57:142 *1002:A 27.93 
*END

*D_NET *58 0.00102101
*CONN
*I *973:B1 I *D sky130_fd_sc_hd__a22o_1
*I *972:Y O *D sky130_fd_sc_hd__nand2_1
*CAP
1 *973:B1 2.77218e-05
2 *972:Y 0.00018021
3 *58:8 0.000207931
4 *973:B1 *969:A 2.64616e-05
5 *58:8 *968:A2 0.000136877
6 *58:8 *190:30 0
7 *58:8 *272:153 9.2996e-05
8 *58:8 *274:91 0.000153127
9 *58:8 *278:12 3.72639e-05
10 *58:8 *279:23 0.000105122
11 *58:8 *332:91 0
12 *973:A1 *973:B1 5.3304e-05
*RES
1 *972:Y *58:8 42.3707 
2 *58:8 *973:B1 38.6214 
*END

*D_NET *59 0.000967537
*CONN
*I *1001:A I *D sky130_fd_sc_hd__xnor2_1
*I *973:X O *D sky130_fd_sc_hd__a22o_1
*CAP
1 *1001:A 0
2 *973:X 0.000303711
3 *59:10 0.000303711
4 *59:10 *1147:A1 0.000272033
5 *59:10 *190:30 4.58444e-05
6 *59:10 *282:79 4.22374e-05
*RES
1 *973:X *59:10 43.2614 
2 *59:10 *1001:A 38 
*END

*D_NET *60 0.0017093
*CONN
*I *978:A I *D sky130_fd_sc_hd__and2_1
*I *1009:B1 I *D sky130_fd_sc_hd__a22o_1
*I *977:C I *D sky130_fd_sc_hd__nand4_2
*I *974:Y O *D sky130_fd_sc_hd__nand4_2
*CAP
1 *978:A 0.000143681
2 *1009:B1 0
3 *977:C 0
4 *974:Y 0.00012348
5 *60:23 0.000295142
6 *60:8 0.000274941
7 *978:A *978:B 8.01292e-06
8 *978:A *1009:A2 5.5792e-05
9 *978:A *95:14 9.91548e-05
10 *978:A *95:27 8.68775e-05
11 *60:8 *71:10 0.000167676
12 *60:8 *167:14 0.00010121
13 *60:8 *233:73 5.75756e-06
14 *60:23 *167:14 0.000165346
15 *60:23 *233:73 0.000108472
16 *60:23 *233:88 6.5117e-06
17 *57:54 *978:A 6.72485e-05
*RES
1 *974:Y *60:8 40.9621 
2 *60:8 *977:C 38 
3 *60:8 *60:23 19.4329 
4 *60:23 *1009:B1 23 
5 *60:23 *978:A 26.5007 
*END

*D_NET *61 0.0101374
*CONN
*I *1006:A1 I *D sky130_fd_sc_hd__a22o_1
*I *976:A1 I *D sky130_fd_sc_hd__a22o_1
*I *1007:B I *D sky130_fd_sc_hd__nand4_1
*I *1026:B I *D sky130_fd_sc_hd__nand4_1
*I *980:A1 I *D sky130_fd_sc_hd__a22o_1
*I *979:B I *D sky130_fd_sc_hd__nand4_2
*I *1040:B I *D sky130_fd_sc_hd__nand4_1
*I *1034:A1 I *D sky130_fd_sc_hd__a22o_1
*I *1041:A1 I *D sky130_fd_sc_hd__a22o_1
*I *1035:B I *D sky130_fd_sc_hd__nand4_1
*I *975:X O *D sky130_fd_sc_hd__buf_2
*CAP
1 *1006:A1 0.000135671
2 *976:A1 0.000147834
3 *1007:B 0.000222154
4 *1026:B 0.000283341
5 *980:A1 0
6 *979:B 0.000161459
7 *1040:B 5.37987e-05
8 *1034:A1 0
9 *1041:A1 6.58987e-05
10 *1035:B 0.000180006
11 *975:X 4.99221e-05
12 *61:97 0.000369987
13 *61:95 0.000236268
14 *61:64 0.000161459
15 *61:48 0.000303778
16 *61:29 0.000369676
17 *61:16 0.000377229
18 *61:14 0.000414277
19 *61:12 0.000233707
20 *61:10 0.000982748
21 *61:8 0.000779475
22 *976:A1 *1007:C 0.000144013
23 *976:A1 *234:6 9.98069e-06
24 *979:B *979:A 9.79925e-05
25 *979:B *979:C 5.55857e-06
26 *979:B *979:D 2.32645e-05
27 *979:B *980:B1 0.000133077
28 *979:B *66:10 0.000182222
29 *979:B *121:27 7.10386e-05
30 *1006:A1 *91:29 1.14762e-05
31 *1006:A1 *269:36 3.62323e-05
32 *1006:A1 *327:36 2.3853e-05
33 *1007:B *1007:C 0.000224414
34 *1007:B *1007:D 2.02872e-05
35 *1026:B *1026:A 7.12843e-05
36 *1026:B *1026:D 0.000221496
37 *1026:B *305:45 8.43466e-05
38 *1035:B *1040:D 1.74126e-05
39 *1035:B *234:39 6.35124e-05
40 *1035:B *237:10 8.57485e-05
41 *1035:B *237:40 9.84794e-05
42 *1035:B *283:18 4.16878e-06
43 *1040:B *126:10 2.45549e-06
44 *1040:B *286:14 2.39778e-06
45 *1040:B *305:70 3.34276e-06
46 *1041:A1 *1041:A2 4.08322e-05
47 *1041:A1 *237:10 5.5792e-05
48 *61:8 *234:6 5.3304e-05
49 *61:10 *234:35 0.000117858
50 *61:10 *235:20 4.91627e-05
51 *61:10 *272:8 0.000164545
52 *61:10 *272:18 0
53 *61:10 *287:35 0.000190742
54 *61:10 *305:70 2.3529e-05
55 *61:10 *305:85 0.000388829
56 *61:12 *234:35 3.72639e-05
57 *61:12 *234:37 2.60152e-05
58 *61:12 *305:70 8.39506e-05
59 *61:12 *331:26 1.14452e-05
60 *61:14 *305:70 0.000360418
61 *61:14 *331:26 0.000364483
62 *61:16 *1040:D 9.94268e-05
63 *61:16 *234:39 0.000136402
64 *61:16 *305:70 6.437e-05
65 *61:16 *331:26 1.0092e-05
66 *61:48 *1041:A2 0.000297655
67 *61:48 *294:20 8.78333e-05
68 *61:48 *316:158 0.000189903
69 *61:95 *167:14 0
70 *61:95 *235:20 1.09162e-05
71 *61:95 *235:48 1.05324e-05
72 *61:95 *269:36 2.18379e-05
73 *61:95 *287:35 7.35277e-05
*RES
1 *975:X *61:8 38.6214 
2 *61:8 *61:10 14.2307 
3 *61:10 *61:12 1.90571 
4 *61:12 *61:14 5.075 
5 *61:14 *61:16 4.01857 
6 *61:16 *1035:B 41.0036 
7 *61:16 *61:29 15 
8 *61:29 *1041:A1 24.595 
9 *61:29 *61:48 36.9393 
10 *61:48 *1034:A1 23 
11 *61:14 *1040:B 38.6214 
12 *61:12 *61:64 15 
13 *61:64 *979:B 27.4743 
14 *61:64 *980:A1 23 
15 *61:10 *1026:B 43.4271 
16 *61:8 *61:95 1.90571 
17 *61:95 *61:97 15 
18 *61:97 *1007:B 26.0036 
19 *61:97 *976:A1 25.5479 
20 *61:95 *1006:A1 40.32 
*END

*D_NET *62 0.0008178
*CONN
*I *1009:B2 I *D sky130_fd_sc_hd__a22o_1
*I *977:D I *D sky130_fd_sc_hd__nand4_2
*I *976:X O *D sky130_fd_sc_hd__a22o_1
*CAP
1 *1009:B2 5.31948e-05
2 *977:D 0
3 *976:X 9.11519e-05
4 *62:12 6.59421e-05
5 *62:6 0.000210289
6 *1009:B2 *976:A2 0
7 *62:6 *234:19 5.5792e-05
8 *62:12 *167:14 0.000165384
9 *62:12 *234:19 0.000165384
10 *57:54 *1009:B2 1.06613e-05
*RES
1 *976:X *62:6 24.0979 
2 *62:6 *62:12 32.2579 
3 *62:12 *977:D 23 
4 *62:6 *1009:B2 24.2014 
*END

*D_NET *63 0.00298486
*CONN
*I *1012:A1 I *D sky130_fd_sc_hd__a21o_1
*I *1010:A I *D sky130_fd_sc_hd__nand3_1
*I *1011:A I *D sky130_fd_sc_hd__and3_1
*I *978:B I *D sky130_fd_sc_hd__and2_1
*I *977:Y O *D sky130_fd_sc_hd__nand4_2
*CAP
1 *1012:A1 0.000242172
2 *1010:A 8.58238e-05
3 *1011:A 0
4 *978:B 0.000150279
5 *977:Y 8.81315e-05
6 *63:27 8.58238e-05
7 *63:25 0.000546713
8 *63:8 0.000542952
9 *978:B *95:27 6.89359e-06
10 *1010:A *1010:B 0.000141052
11 *1010:A *1011:C 0.000125931
12 *1010:A *94:16 3.17634e-05
13 *1010:A *327:36 6.35228e-05
14 *1012:A1 *95:14 2.64616e-05
15 *1012:A1 *98:12 4.18957e-05
16 *1012:A1 *233:88 0.000311447
17 *1012:A1 *293:16 3.3761e-05
18 *63:8 *293:16 3.68066e-05
19 *63:8 *293:24 1.76436e-05
20 *63:25 *233:73 5.29732e-06
21 *63:25 *233:88 7.56193e-05
22 *63:25 *293:16 9.15169e-05
23 *978:A *978:B 8.01292e-06
24 *57:31 *63:8 1.13812e-05
25 *57:54 *978:B 0
26 *57:54 *63:8 0.000164392
27 *57:54 *63:25 4.95715e-05
*RES
1 *977:Y *63:8 40.2579 
2 *63:8 *978:B 40.2993 
3 *63:8 *63:25 4.55714 
4 *63:25 *63:27 15 
5 *63:27 *1011:A 23 
6 *63:27 *1010:A 26.0243 
7 *63:25 *1012:A1 42.9921 
*END

*D_NET *64 0.000770567
*CONN
*I *984:A_N I *D sky130_fd_sc_hd__and2b_1
*I *986:B I *D sky130_fd_sc_hd__xnor2_1
*I *978:X O *D sky130_fd_sc_hd__and2_1
*CAP
1 *984:A_N 0.000107258
2 *986:B 0
3 *978:X 0.000149598
4 *64:6 0.000256856
5 *984:A_N *984:B 4.3198e-05
6 *984:A_N *986:A 0.000137361
7 *64:6 *986:A 5.79559e-05
8 *64:6 *95:27 1.83408e-05
*RES
1 *978:X *64:6 25.5271 
2 *64:6 *986:B 23 
3 *64:6 *984:A_N 25.0507 
*END

*D_NET *65 0.0042155
*CONN
*I *982:A1 I *D sky130_fd_sc_hd__a21o_1
*I *989:A1 I *D sky130_fd_sc_hd__a211oi_1
*I *990:B1 I *D sky130_fd_sc_hd__o211a_1
*I *981:B I *D sky130_fd_sc_hd__nand3_1
*I *979:Y O *D sky130_fd_sc_hd__nand4_2
*CAP
1 *982:A1 6.49227e-05
2 *989:A1 0
3 *990:B1 2.31366e-05
4 *981:B 2.35272e-05
5 *979:Y 0.000351366
6 *65:48 0.000175927
7 *65:29 0.000521951
8 *65:20 0.000361414
9 *65:18 0.000310386
10 *65:10 0.00058183
11 *981:B *67:8 5.37348e-06
12 *990:B1 *990:A2 2.02517e-05
13 *990:B1 *67:17 1.14154e-05
14 *990:B1 *233:144 3.09426e-05
15 *65:10 *979:C 5.4343e-05
16 *65:10 *979:D 3.08045e-05
17 *65:10 *981:C 5.58667e-05
18 *65:10 *1051:A 1.58805e-05
19 *65:10 *66:10 0.000211368
20 *65:10 *233:44 1.34487e-05
21 *65:10 *233:69 0.000217669
22 *65:10 *288:44 1.57659e-05
23 *65:18 *981:C 0.000181125
24 *65:18 *1051:A 9.67842e-05
25 *65:18 *137:10 0.000267178
26 *65:29 *983:B 0.0001423
27 *65:29 *67:8 0.000114484
28 *65:29 *67:17 0.000106318
29 *65:29 *69:10 5.50106e-05
30 *65:29 *233:144 1.22822e-05
31 *65:48 *989:C1 5.87296e-05
32 *65:48 *990:A2 2.02517e-05
33 *65:48 *67:23 5.80963e-05
34 *65:48 *69:10 0
35 *65:48 *74:8 4.6318e-06
36 *65:48 *233:144 7.22496e-07
*RES
1 *979:Y *65:10 46.0579 
2 *65:10 *65:18 20.5514 
3 *65:18 *65:20 0.497143 
4 *65:20 *981:B 23.6214 
5 *65:20 *65:29 7.76786 
6 *65:29 *990:B1 24.0927 
7 *65:29 *65:48 33.0243 
8 *65:48 *989:A1 23 
9 *65:18 *982:A1 24.0979 
*END

*D_NET *66 0.00383534
*CONN
*I *981:C I *D sky130_fd_sc_hd__nand3_1
*I *982:A2 I *D sky130_fd_sc_hd__a21o_1
*I *980:X O *D sky130_fd_sc_hd__a22o_1
*CAP
1 *981:C 0.00017531
2 *982:A2 0
3 *980:X 0.000324114
4 *66:18 0.000216176
5 *66:10 0.0007156
6 *981:C *1051:A 1.01436e-05
7 *981:C *271:60 0.000192077
8 *66:10 *959:A 2.64616e-05
9 *66:10 *979:D 2.37791e-05
10 *66:10 *271:10 0.000360966
11 *66:10 *271:60 0.000292278
12 *66:10 *288:44 6.0779e-05
13 *66:18 *981:A 1.14452e-05
14 *66:18 *982:B1 3.36312e-06
15 *66:18 *282:54 0.000352144
16 *66:18 *293:24 9.03054e-05
17 *66:18 *298:22 0.000349818
18 *979:B *66:10 0.000182222
19 *65:10 *981:C 5.58667e-05
20 *65:10 *66:10 0.000211368
21 *65:18 *981:C 0.000181125
*RES
1 *980:X *66:10 47.4043 
2 *66:10 *66:18 36.5664 
3 *66:18 *982:A2 38 
4 *66:10 *981:C 42.6607 
*END

*D_NET *67 0.00159146
*CONN
*I *990:C1 I *D sky130_fd_sc_hd__o211a_1
*I *989:A2 I *D sky130_fd_sc_hd__a211oi_1
*I *983:A I *D sky130_fd_sc_hd__and2_1
*I *981:Y O *D sky130_fd_sc_hd__nand3_1
*CAP
1 *990:C1 0
2 *989:A2 0
3 *983:A 0
4 *981:Y 0.000318559
5 *67:23 0.000154697
6 *67:17 0.000218762
7 *67:8 0.000382624
8 *67:8 *983:B 7.72563e-05
9 *67:17 *233:144 0.000143874
10 *67:23 *69:10 0
11 *67:23 *74:8 0
12 *981:B *67:8 5.37348e-06
13 *990:B1 *67:17 1.14154e-05
14 *65:29 *67:8 0.000114484
15 *65:29 *67:17 0.000106318
16 *65:48 *67:23 5.80963e-05
*RES
1 *981:Y *67:8 28.8829 
2 *67:8 *983:A 23 
3 *67:8 *67:17 2.54786 
4 *67:17 *67:23 32.2579 
5 *67:23 *989:A2 23 
6 *67:17 *990:C1 23 
*END

*D_NET *68 0.000294579
*CONN
*I *983:B I *D sky130_fd_sc_hd__and2_1
*I *982:X O *D sky130_fd_sc_hd__a21o_1
*CAP
1 *983:B 3.75109e-05
2 *982:X 3.75109e-05
3 *65:29 *983:B 0.0001423
4 *67:8 *983:B 7.72563e-05
*RES
1 *982:X *983:B 47.5743 
*END

*D_NET *69 0.00278192
*CONN
*I *984:B I *D sky130_fd_sc_hd__and2b_1
*I *986:A I *D sky130_fd_sc_hd__xnor2_1
*I *983:X O *D sky130_fd_sc_hd__and2_1
*CAP
1 *984:B 0.00015138
2 *986:A 9.53878e-05
3 *983:X 0.000530064
4 *69:12 0.000246768
5 *69:10 0.000530064
6 *984:B *72:8 6.17437e-06
7 *986:A *72:8 2.64616e-05
8 *69:10 *72:18 0.000267403
9 *69:10 *131:10 0.000111852
10 *69:10 *139:14 0.000168282
11 *69:10 *139:33 8.06952e-05
12 *69:10 *270:28 0
13 *69:10 *286:119 0.000273866
14 *69:10 *293:24 0
15 *984:A_N *984:B 4.3198e-05
16 *984:A_N *986:A 0.000137361
17 *64:6 *986:A 5.79559e-05
18 *65:29 *69:10 5.50106e-05
19 *65:48 *69:10 0
20 *67:23 *69:10 0
*RES
1 *983:X *69:10 49.3307 
2 *69:10 *69:12 15 
3 *69:12 *986:A 25.0507 
4 *69:12 *984:B 26.045 
*END

*D_NET *70 0.000916517
*CONN
*I *993:A1 I *D sky130_fd_sc_hd__o21ai_2
*I *1016:B I *D sky130_fd_sc_hd__or3_1
*I *984:X O *D sky130_fd_sc_hd__and2b_1
*CAP
1 *993:A1 0.000128578
2 *1016:B 2.17464e-05
3 *984:X 0.000136765
4 *70:6 0.00028709
5 *993:A1 *993:A2 0.00017611
6 *993:A1 *73:14 1.24376e-05
7 *993:A1 *235:14 0.000100486
8 *70:6 *73:14 5.3304e-05
*RES
1 *984:X *70:6 25.0507 
2 *70:6 *1016:B 23.4971 
3 *70:6 *993:A1 26.0243 
*END

*D_NET *71 0.0146299
*CONN
*I *994:A2 I *D sky130_fd_sc_hd__a31o_1
*I *1064:A I *D sky130_fd_sc_hd__nand2_1
*I *1045:A1 I *D sky130_fd_sc_hd__a31o_1
*I *1073:B I *D sky130_fd_sc_hd__and4_1
*I *1070:C I *D sky130_fd_sc_hd__and4b_1
*I *1060:A I *D sky130_fd_sc_hd__nand2_1
*I *987:B I *D sky130_fd_sc_hd__and3_1
*I *1081:A1 I *D sky130_fd_sc_hd__a31o_1
*I *1052:A1 I *D sky130_fd_sc_hd__a22o_1
*I *1051:A I *D sky130_fd_sc_hd__nand4_1
*I *985:X O *D sky130_fd_sc_hd__buf_2
*CAP
1 *994:A2 3.84042e-05
2 *1064:A 3.73824e-05
3 *1045:A1 0.000781028
4 *1073:B 0.000140493
5 *1070:C 2.1851e-05
6 *1060:A 2.02868e-05
7 *987:B 0
8 *1081:A1 0.000269387
9 *1052:A1 0
10 *1051:A 0.000224136
11 *985:X 0
12 *71:123 0.000866187
13 *71:110 0.000306561
14 *71:89 0.00037672
15 *71:76 0.000411456
16 *71:68 0.00100791
17 *71:64 0.00159361
18 *71:53 0.000387814
19 *71:12 0.000266485
20 *71:10 0.000790868
21 *71:4 0.00166439
22 *994:A2 *994:A3 5.58003e-05
23 *994:A2 *241:138 9.79925e-05
24 *1045:A1 *964:A 8.15603e-06
25 *1045:A1 *964:B 2.08774e-05
26 *1045:A1 *964:D 2.93335e-05
27 *1045:A1 *1066:A 0.000233587
28 *1045:A1 *129:10 7.42268e-06
29 *1045:A1 *131:10 1.13134e-05
30 *1045:A1 *152:8 7.23171e-05
31 *1051:A *137:10 4.5051e-05
32 *1051:A *233:69 0
33 *1051:A *271:60 8.82421e-05
34 *1070:C *1062:B 1.70419e-05
35 *1070:C *1075:A 6.12392e-05
36 *1070:C *236:34 5.75756e-06
37 *1073:B *154:23 5.3304e-05
38 *1073:B *156:29 9.41704e-05
39 *1073:B *236:18 0.000304813
40 *1073:B *238:92 8.29847e-05
41 *1081:A1 *1052:A2 0.0002246
42 *1081:A1 *1081:A2 5.59252e-05
43 *1081:A1 *1081:B1 3.91386e-05
44 *1081:A1 *136:6 8.91468e-07
45 *1081:A1 *136:23 3.70553e-06
46 *1081:A1 *167:8 5.50106e-05
47 *71:10 *985:A 2.95526e-05
48 *71:10 *167:14 3.94535e-05
49 *71:10 *233:69 5.58003e-05
50 *71:10 *271:60 9.78061e-05
51 *71:10 *285:34 2.193e-05
52 *71:10 *316:62 3.52362e-05
53 *71:12 *271:60 2.96051e-05
54 *71:53 *285:49 8.87351e-05
55 *71:53 *293:24 2.46399e-05
56 *71:53 *316:62 0.000400403
57 *71:64 *987:C 6.49372e-05
58 *71:64 *992:B 3.88629e-05
59 *71:64 *77:10 3.7707e-05
60 *71:64 *80:8 8.57485e-05
61 *71:64 *241:148 0.000138859
62 *71:64 *285:34 0.000615272
63 *71:68 *76:10 0.000138718
64 *71:68 *77:10 6.00005e-05
65 *71:68 *235:95 0.000218382
66 *71:68 *271:109 3.5664e-05
67 *71:68 *275:16 3.87866e-05
68 *71:68 *276:10 0.000288767
69 *71:68 *277:12 0
70 *71:68 *277:46 9.28842e-05
71 *71:68 *295:16 0.000108597
72 *71:68 *316:62 0
73 *71:68 *332:54 0
74 *71:68 *332:103 0
75 *71:68 *332:120 0
76 *71:76 *147:6 1.59094e-05
77 *71:76 *154:8 3.46216e-05
78 *71:76 *295:16 8.57485e-05
79 *71:89 *1060:B 5.5792e-05
80 *71:89 *1062:B 1.79317e-05
81 *71:89 *1068:B1 1.14781e-05
82 *71:89 *1075:A 0.000187612
83 *71:89 *154:8 2.60063e-05
84 *71:110 *1075:A 5.91105e-05
85 *71:110 *236:18 5.3304e-05
86 *71:110 *236:34 5.3304e-05
87 *71:123 *152:8 1.59094e-05
88 *981:C *1051:A 1.01436e-05
89 *3:9 *71:68 0
90 *3:9 *71:110 2.8133e-05
91 *57:54 *71:10 3.46216e-05
92 *60:8 *71:10 0.000167676
93 *65:10 *1051:A 1.58805e-05
94 *65:18 *1051:A 9.67842e-05
*RES
1 *985:X *71:4 23 
2 *71:4 *71:10 23.8036 
3 *71:10 *71:12 0.849286 
4 *71:12 *1051:A 42.6607 
5 *71:12 *1052:A1 38 
6 *71:10 *1081:A1 43.4479 
7 *71:4 *71:53 36.3386 
8 *71:53 *987:B 23 
9 *71:4 *71:64 27.8843 
10 *71:64 *71:68 16.0329 
11 *71:68 *71:76 18.7493 
12 *71:76 *1060:A 23.4971 
13 *71:76 *71:89 19.1843 
14 *71:89 *1070:C 38.8493 
15 *71:89 *71:110 47.5686 
16 *71:110 *1073:B 26.9771 
17 *71:68 *71:123 15.6214 
18 *71:123 *1045:A1 33.5229 
19 *71:123 *1064:A 23.8493 
20 *71:64 *994:A2 39.0979 
*END

*D_NET *72 0.00231445
*CONN
*I *1014:B I *D sky130_fd_sc_hd__xnor2_1
*I *987:C I *D sky130_fd_sc_hd__and3_1
*I *986:Y O *D sky130_fd_sc_hd__xnor2_1
*CAP
1 *1014:B 0.000215747
2 *987:C 1.37031e-05
3 *986:Y 5.48359e-05
4 *72:18 0.000237716
5 *72:8 0.000494596
6 *987:C *285:34 6.33631e-05
7 *1014:B *97:12 7.89883e-05
8 *1014:B *139:33 0.00034388
9 *1014:B *270:28 0
10 *1014:B *285:49 0
11 *72:18 *139:33 0.00025582
12 *72:18 *270:28 0
13 *72:18 *285:34 9.66585e-05
14 *72:18 *316:62 9.41704e-05
15 *984:B *72:8 6.17437e-06
16 *986:A *72:8 2.64616e-05
17 *69:10 *72:18 0.000267403
18 *71:64 *987:C 6.49372e-05
*RES
1 *986:Y *72:8 38.6214 
2 *72:8 *72:18 35.6136 
3 *72:18 *987:C 38.7043 
4 *72:8 *1014:B 42.7229 
*END

*D_NET *73 0.00176404
*CONN
*I *993:A2 I *D sky130_fd_sc_hd__o21ai_2
*I *1016:C I *D sky130_fd_sc_hd__or3_1
*I *987:X O *D sky130_fd_sc_hd__and3_1
*CAP
1 *993:A2 0.000126848
2 *1016:C 1.59871e-05
3 *987:X 0.000249467
4 *73:14 0.000182258
5 *73:10 0.00028889
6 *993:A2 *993:B1 0.000223908
7 *993:A2 *235:14 3.2277e-05
8 *1016:C *993:B1 5.55743e-06
9 *73:10 *141:16 0.000132337
10 *73:10 *270:28 3.1863e-05
11 *73:10 *316:62 0.000232794
12 *993:A1 *993:A2 0.00017611
13 *993:A1 *73:14 1.24376e-05
14 *70:6 *73:14 5.3304e-05
*RES
1 *987:X *73:10 42.4329 
2 *73:10 *73:14 15.6214 
3 *73:14 *1016:C 23.4971 
4 *73:14 *993:A2 27.1221 
*END

*D_NET *74 0.0011264
*CONN
*I *989:C1 I *D sky130_fd_sc_hd__a211oi_1
*I *990:A2 I *D sky130_fd_sc_hd__o211a_1
*I *988:Y O *D sky130_fd_sc_hd__a21oi_1
*CAP
1 *989:C1 7.2326e-05
2 *990:A2 7.69921e-05
3 *988:Y 0.000138009
4 *74:8 0.000287327
5 *989:C1 *295:16 0.000135557
6 *990:A2 *990:A1 6.17437e-06
7 *990:A2 *233:144 1.14762e-05
8 *74:8 *271:86 8.25782e-05
9 *74:8 *295:16 0.000212091
10 *990:B1 *990:A2 2.02517e-05
11 *65:48 *989:C1 5.87296e-05
12 *65:48 *990:A2 2.02517e-05
13 *65:48 *74:8 4.6318e-06
14 *67:23 *74:8 0
*RES
1 *988:Y *74:8 40.9621 
2 *74:8 *990:A2 39.4707 
3 *74:8 *989:C1 39.9057 
*END

*D_NET *75 0.000975801
*CONN
*I *994:B1 I *D sky130_fd_sc_hd__a31o_1
*I *991:A I *D sky130_fd_sc_hd__nor2_1
*I *989:Y O *D sky130_fd_sc_hd__a211oi_1
*CAP
1 *994:B1 0
2 *991:A 0.000213766
3 *989:Y 0
4 *75:21 9.98993e-05
5 *75:4 0.000313665
6 *991:A *77:10 7.73389e-05
7 *991:A *274:42 7.54868e-05
8 *991:A *277:46 5.81643e-05
9 *75:21 *295:16 0.000137481
*RES
1 *989:Y *75:4 23 
2 *75:4 *991:A 27.8264 
3 *75:4 *75:21 31.9057 
4 *75:21 *994:B1 23 
*END

*D_NET *76 0.000531784
*CONN
*I *991:B I *D sky130_fd_sc_hd__nor2_1
*I *990:X O *D sky130_fd_sc_hd__o211a_1
*CAP
1 *991:B 0
2 *990:X 0.000170241
3 *76:10 0.000170241
4 *76:10 *277:27 5.25848e-05
5 *76:10 *332:120 0
6 *71:68 *76:10 0.000138718
*RES
1 *990:X *76:10 41.0036 
2 *76:10 *991:B 38 
*END

*D_NET *77 0.00198105
*CONN
*I *992:B I *D sky130_fd_sc_hd__xnor2_1
*I *994:A3 I *D sky130_fd_sc_hd__a31o_1
*I *991:Y O *D sky130_fd_sc_hd__nor2_1
*CAP
1 *992:B 0.000182556
2 *994:A3 6.67083e-05
3 *991:Y 0.000264191
4 *77:10 0.000513454
5 *992:B *78:10 5.58003e-05
6 *992:B *270:18 0.000226899
7 *992:B *295:10 6.52951e-05
8 *992:B *316:62 0.00013652
9 *77:10 *295:10 2.0974e-05
10 *77:10 *295:16 0.000178941
11 *991:A *77:10 7.73389e-05
12 *994:A2 *994:A3 5.58003e-05
13 *71:64 *992:B 3.88629e-05
14 *71:64 *77:10 3.7707e-05
15 *71:68 *77:10 6.00005e-05
*RES
1 *991:Y *77:10 42.5364 
2 *77:10 *994:A3 39.4707 
3 *77:10 *992:B 42.785 
*END

*D_NET *78 0.00147736
*CONN
*I *993:B1 I *D sky130_fd_sc_hd__o21ai_2
*I *1016:A I *D sky130_fd_sc_hd__or3_1
*I *992:Y O *D sky130_fd_sc_hd__xnor2_1
*CAP
1 *993:B1 0.000155929
2 *1016:A 0
3 *992:Y 0.000158501
4 *78:12 0.000155929
5 *78:10 0.000158501
6 *993:B1 *79:6 5.82853e-05
7 *993:B1 *102:10 0.000192342
8 *993:B1 *235:14 2.96073e-05
9 *78:10 *235:14 4.66905e-05
10 *78:10 *295:10 0.000183001
11 *78:10 *316:62 5.3304e-05
12 *992:B *78:10 5.58003e-05
13 *993:A2 *993:B1 0.000223908
14 *1016:C *993:B1 5.55743e-06
*RES
1 *992:Y *78:10 41.2314 
2 *78:10 *78:12 15 
3 *78:12 *1016:A 23 
4 *78:12 *993:B1 27.93 
*END

*D_NET *79 0.00223965
*CONN
*I *1000:A1 I *D sky130_fd_sc_hd__o21a_1
*I *1109:A I *D sky130_fd_sc_hd__nand2_1
*I *1108:A I *D sky130_fd_sc_hd__or2_1
*I *1017:A I *D sky130_fd_sc_hd__and2_1
*I *993:Y O *D sky130_fd_sc_hd__o21ai_2
*CAP
1 *1000:A1 4.51216e-05
2 *1109:A 2.6518e-05
3 *1108:A 0
4 *1017:A 3.73224e-05
5 *993:Y 6.95646e-05
6 *79:25 0.000250109
7 *79:10 0.000418537
8 *79:6 0.00027231
9 *1000:A1 *235:14 3.2277e-05
10 *1017:A *1105:A 4.17736e-05
11 *1017:A *141:16 0.000143655
12 *1017:A *327:36 0.000103637
13 *1109:A *1108:B 5.67058e-05
14 *1109:A *195:10 4.66047e-05
15 *1109:A *315:22 0.000129522
16 *79:6 *235:14 6.94657e-05
17 *79:10 *102:10 0
18 *79:10 *164:8 0
19 *79:25 *141:24 0.000218962
20 *79:25 *164:23 0
21 *79:25 *195:10 2.93747e-05
22 *79:25 *196:10 6.17437e-06
23 *79:25 *315:22 0.000183733
24 *993:B1 *79:6 5.82853e-05
*RES
1 *993:Y *79:6 25.0507 
2 *79:6 *79:10 17.61 
3 *79:10 *1017:A 40.0507 
4 *79:10 *79:25 20.365 
5 *79:25 *1108:A 23 
6 *79:25 *1109:A 24.5743 
7 *79:6 *1000:A1 24.0979 
*END

*D_NET *80 0.00219208
*CONN
*I *998:A I *D sky130_fd_sc_hd__or2_1
*I *997:A I *D sky130_fd_sc_hd__nand2_1
*I *994:X O *D sky130_fd_sc_hd__a31o_1
*CAP
1 *998:A 0
2 *997:A 0
3 *994:X 5.87921e-05
4 *80:24 0.000150599
5 *80:14 0.000601959
6 *80:8 0.000510152
7 *80:14 *285:28 6.83142e-05
8 *80:14 *285:34 0.000580574
9 *80:24 *997:B 6.15689e-05
10 *80:24 *285:28 7.43741e-05
11 *71:64 *80:8 8.57485e-05
*RES
1 *994:X *80:8 39.2014 
2 *80:8 *80:14 22.3121 
3 *80:14 *80:24 32.2164 
4 *80:24 *997:A 23 
5 *80:14 *998:A 23 
*END

*D_NET *81 0.000685985
*CONN
*I *996:B I *D sky130_fd_sc_hd__xor2_1
*I *995:X O *D sky130_fd_sc_hd__a21bo_1
*CAP
1 *996:B 0
2 *995:X 0.000245407
3 *81:10 0.000245407
4 *81:10 *241:138 2.90421e-05
5 *81:10 *316:62 0.000162416
6 *57:142 *81:10 3.7122e-06
*RES
1 *995:X *81:10 41.8321 
2 *81:10 *996:B 38 
*END

*D_NET *82 0.000884699
*CONN
*I *997:B I *D sky130_fd_sc_hd__nand2_1
*I *998:B I *D sky130_fd_sc_hd__or2_1
*I *996:X O *D sky130_fd_sc_hd__xor2_1
*CAP
1 *997:B 8.81318e-05
2 *998:B 1.57972e-05
3 *996:X 1.82709e-05
4 *82:6 0.0001222
5 *997:B *270:16 0.000321419
6 *997:B *285:28 0.000144931
7 *997:B *285:34 1.57659e-05
8 *998:B *285:28 1.12796e-05
9 *82:6 *270:16 5.5792e-05
10 *82:6 *285:34 2.95423e-05
11 *80:24 *997:B 6.15689e-05
*RES
1 *996:X *82:6 23.6214 
2 *82:6 *998:B 23.4971 
3 *82:6 *997:B 26.9771 
*END

*D_NET *83 0.000865266
*CONN
*I *1000:B1 I *D sky130_fd_sc_hd__o21a_1
*I *999:A I *D sky130_fd_sc_hd__nand2_1
*I *997:Y O *D sky130_fd_sc_hd__nand2_1
*CAP
1 *1000:B1 0.000172155
2 *999:A 0
3 *997:Y 8.3359e-05
4 *83:10 0.000172155
5 *83:8 8.3359e-05
6 *1000:B1 *1000:A2 3.2277e-05
7 *1000:B1 *86:14 7.01168e-05
8 *83:8 *84:8 4.51746e-05
9 *83:8 *85:17 6.12484e-05
10 *83:8 *86:14 0.000137744
11 *83:8 *316:22 7.6774e-06
*RES
1 *997:Y *83:8 40.2579 
2 *83:8 *83:10 15 
3 *83:10 *999:A 23 
4 *83:10 *1000:B1 26.5214 
*END

*D_NET *84 0.00033087
*CONN
*I *999:B I *D sky130_fd_sc_hd__nand2_1
*I *998:X O *D sky130_fd_sc_hd__or2_1
*CAP
1 *999:B 0
2 *998:X 0.000112223
3 *84:8 0.000112223
4 *84:8 *85:17 6.12484e-05
5 *83:8 *84:8 4.51746e-05
*RES
1 *998:X *84:8 40.2579 
2 *84:8 *999:B 38 
*END

*D_NET *85 0.00175551
*CONN
*I *1108:B I *D sky130_fd_sc_hd__or2_1
*I *1109:B I *D sky130_fd_sc_hd__nand2_1
*I *1000:A2 I *D sky130_fd_sc_hd__o21a_1
*I *999:Y O *D sky130_fd_sc_hd__nand2_1
*CAP
1 *1108:B 7.33875e-05
2 *1109:B 0
3 *1000:A2 8.56584e-05
4 *999:Y 0
5 *85:17 0.000443628
6 *85:4 0.000455898
7 *1000:A2 *86:14 9.66585e-05
8 *1000:A2 *235:14 0.00027408
9 *1108:B *195:10 5.67058e-05
10 *1108:B *269:90 1.14154e-05
11 *1108:B *315:22 4.6595e-05
12 *85:17 *164:8 0
13 *85:17 *164:23 0
14 *85:17 *316:22 0
15 *1000:B1 *1000:A2 3.2277e-05
16 *1109:A *1108:B 5.67058e-05
17 *83:8 *85:17 6.12484e-05
18 *84:8 *85:17 6.12484e-05
*RES
1 *999:Y *85:4 23 
2 *85:4 *1000:A2 26.0036 
3 *85:4 *85:17 36.4836 
4 *85:17 *1109:B 23 
5 *85:17 *1108:B 25.0714 
*END

*D_NET *86 0.00269112
*CONN
*I *1001:B I *D sky130_fd_sc_hd__xnor2_1
*I *1000:X O *D sky130_fd_sc_hd__o21a_1
*CAP
1 *1001:B 0.000359122
2 *1000:X 0.000440467
3 *86:14 0.000799588
4 *1001:B *1002:B 1.43368e-05
5 *1001:B *88:10 1.59071e-05
6 *1001:B *270:6 7.75135e-05
7 *1001:B *332:91 0.000141185
8 *86:14 *235:14 4.22172e-05
9 *86:14 *316:22 0.000300135
10 *1000:A2 *86:14 9.66585e-05
11 *1000:B1 *86:14 7.01168e-05
12 *1002:A *1001:B 0.000128825
13 *56:8 *86:14 6.73016e-05
14 *83:8 *86:14 0.000137744
*RES
1 *1000:X *86:14 47.3007 
2 *86:14 *1001:B 44.38 
*END

*D_NET *87 0.000710579
*CONN
*I *1003:B1 I *D sky130_fd_sc_hd__o211a_1
*I *1001:Y O *D sky130_fd_sc_hd__xnor2_1
*CAP
1 *1003:B1 9.05282e-05
2 *1001:Y 6.18695e-05
3 *87:8 0.000152398
4 *1003:B1 *1003:A1 1.59071e-05
5 *1003:B1 *90:10 2.45549e-06
6 *1003:B1 *285:28 0.00018413
7 *87:8 *214:16 4.95928e-05
8 *87:8 *282:79 0.000110258
9 *56:29 *1003:B1 4.344e-05
*RES
1 *1001:Y *87:8 39.5536 
2 *87:8 *1003:B1 40.5479 
*END

*D_NET *88 0.000664503
*CONN
*I *1003:C1 I *D sky130_fd_sc_hd__o211a_1
*I *1002:Y O *D sky130_fd_sc_hd__nand3_1
*CAP
1 *1003:C1 0
2 *1002:Y 0.000207011
3 *88:10 0.000207011
4 *88:10 *190:30 0.000137907
5 *88:10 *270:6 9.66668e-05
6 *1001:B *88:10 1.59071e-05
*RES
1 *1002:Y *88:10 41.48 
2 *88:10 *1003:C1 38 
*END

*D_NET *89 0.000139925
*CONN
*I *1004:A I *D sky130_fd_sc_hd__inv_2
*I *1003:X O *D sky130_fd_sc_hd__o211a_1
*CAP
1 *1004:A 4.43304e-05
2 *1003:X 4.43304e-05
3 *1004:A *1003:A1 3.23857e-06
4 *1004:A *90:10 1.84831e-05
5 *1004:A *285:28 2.95423e-05
*RES
1 *1003:X *1004:A 47.1186 
*END

*D_NET *90 0.0054482
*CONN
*I *1124:A1 I *D sky130_fd_sc_hd__o211ai_2
*I *1114:A I *D sky130_fd_sc_hd__nand2_2
*I *1126:C1 I *D sky130_fd_sc_hd__o311ai_4
*I *1004:Y O *D sky130_fd_sc_hd__inv_2
*CAP
1 *1124:A1 0
2 *1114:A 5.73947e-05
3 *1126:C1 0.000170383
4 *1004:Y 0.000202322
5 *90:34 0.000537533
6 *90:24 0.000363457
7 *90:20 0.000515955
8 *90:10 0.000664575
9 *1114:A *199:14 1.37349e-05
10 *1114:A *200:10 0.000169674
11 *1114:A *211:10 0.000185104
12 *1126:C1 *198:27 0
13 *1126:C1 *200:69 5.50049e-05
14 *1126:C1 *212:10 0.000117769
15 *90:10 *214:16 4.73379e-05
16 *90:10 *282:79 0.000110258
17 *90:10 *285:28 5.32912e-06
18 *90:20 *1106:A 3.06438e-05
19 *90:20 *1131:A 0.000271906
20 *90:20 *190:30 7.71971e-05
21 *90:20 *192:18 0.000482957
22 *90:20 *200:40 0.000273614
23 *90:20 *210:16 0
24 *90:20 *235:14 0.000191417
25 *90:20 *235:68 9.64943e-05
26 *90:20 *282:79 0
27 *90:24 *1136:A2 4.2573e-05
28 *90:24 *210:10 7.1535e-05
29 *90:24 *220:12 0.00018413
30 *90:34 *200:10 4.93359e-05
31 *90:34 *200:16 0
32 *90:34 *210:16 1.58805e-05
33 *90:34 *211:10 1.14452e-05
34 *90:34 *212:10 0.000193388
35 *90:34 *212:16 3.91422e-05
36 *90:34 *219:14 0.000179769
37 *1003:B1 *90:10 2.45549e-06
38 *1004:A *90:10 1.84831e-05
*RES
1 *1004:Y *90:10 41.1279 
2 *90:10 *90:20 42.6979 
3 *90:20 *90:24 17.0507 
4 *90:24 *90:34 21.4836 
5 *90:34 *1126:C1 41.9979 
6 *90:34 *1114:A 40.61 
7 *90:24 *1124:A1 23 
*END

*D_NET *91 0.00289999
*CONN
*I *1023:B1 I *D sky130_fd_sc_hd__a21o_1
*I *1008:A1 I *D sky130_fd_sc_hd__a21bo_1
*I *1022:B I *D sky130_fd_sc_hd__nand3_1
*I *1005:X O *D sky130_fd_sc_hd__and2_1
*CAP
1 *1023:B1 0.000174043
2 *1008:A1 5.46772e-05
3 *1022:B 0
4 *1005:X 0
5 *91:29 0.000638866
6 *91:16 0.000403036
7 *91:4 0.000813182
8 *1008:A1 *1022:A 0
9 *1008:A1 *1022:C 5.06388e-05
10 *1008:A1 *1023:A1 5.96135e-05
11 *1008:A1 *1023:A2 6.14905e-05
12 *1008:A1 *92:14 1.51028e-05
13 *1023:B1 *94:8 0.00010018
14 *1023:B1 *215:18 5.70419e-05
15 *91:16 *1022:C 4.53366e-05
16 *91:16 *282:30 4.68911e-05
17 *91:16 *286:94 1.07201e-06
18 *91:16 *330:10 7.84107e-05
19 *91:29 *1006:B1 4.2062e-05
20 *91:29 *1006:B2 2.64616e-05
21 *91:29 *92:10 0.000191491
22 *91:29 *269:36 2.35393e-05
23 *91:29 *327:36 5.37348e-06
24 *1006:A1 *91:29 1.14762e-05
*RES
1 *1005:X *91:4 23 
2 *91:4 *91:16 36.38 
3 *91:16 *1022:B 23 
4 *91:4 *91:29 21.5871 
5 *91:29 *1008:A1 39.595 
6 *91:29 *1023:B1 40.6721 
*END

*D_NET *92 0.00200987
*CONN
*I *1023:A2 I *D sky130_fd_sc_hd__a21o_1
*I *1008:A2 I *D sky130_fd_sc_hd__a21bo_1
*I *1022:C I *D sky130_fd_sc_hd__nand3_1
*I *1006:X O *D sky130_fd_sc_hd__a22o_1
*CAP
1 *1023:A2 6.53344e-05
2 *1008:A2 0
3 *1022:C 0.000233048
4 *1006:X 0.000171488
5 *92:14 0.000237149
6 *92:12 6.94354e-05
7 *92:10 0.000171488
8 *1022:C *1022:A 2.51807e-05
9 *1022:C *1023:A1 5.79042e-05
10 *1022:C *215:18 0.000290343
11 *1023:A2 *1023:A1 1.03955e-05
12 *1023:A2 *94:8 5.67058e-05
13 *1023:A2 *215:18 9.38775e-05
14 *92:10 *269:36 0.000135547
15 *92:10 *327:36 2.65879e-05
16 *92:14 *215:18 1.32308e-06
17 *1008:A1 *1022:C 5.06388e-05
18 *1008:A1 *1023:A2 6.14905e-05
19 *1008:A1 *92:14 1.51028e-05
20 *91:16 *1022:C 4.53366e-05
21 *91:29 *92:10 0.000191491
*RES
1 *1006:X *92:10 41.48 
2 *92:10 *92:12 15 
3 *92:12 *92:14 0.176071 
4 *92:14 *1022:C 28.8932 
5 *92:14 *1008:A2 23 
6 *92:12 *1023:A2 25.2164 
*END

*D_NET *93 0.00206875
*CONN
*I *1023:A1 I *D sky130_fd_sc_hd__a21o_1
*I *1022:A I *D sky130_fd_sc_hd__nand3_1
*I *1008:B1_N I *D sky130_fd_sc_hd__a21bo_1
*I *1007:Y O *D sky130_fd_sc_hd__nand4_1
*CAP
1 *1023:A1 0.000277162
2 *1022:A 3.77086e-05
3 *1008:B1_N 0
4 *1007:Y 0.000228207
5 *93:21 0.000358509
6 *93:10 0.000271845
7 *1022:A *108:10 3.23149e-05
8 *1023:A1 *94:8 0.00010018
9 *1023:A1 *108:10 5.50106e-05
10 *93:10 *1006:B1 0.000116314
11 *93:10 *1006:B2 1.47563e-05
12 *93:10 *113:16 5.6578e-05
13 *93:10 *215:18 0.000299169
14 *93:10 *330:10 2.39018e-05
15 *93:21 *113:16 2.96051e-05
16 *93:21 *330:10 1.43921e-05
17 *1008:A1 *1022:A 0
18 *1008:A1 *1023:A1 5.96135e-05
19 *1022:C *1022:A 2.51807e-05
20 *1022:C *1023:A1 5.79042e-05
21 *1023:A2 *1023:A1 1.03955e-05
*RES
1 *1007:Y *93:10 43.3443 
2 *93:10 *1008:B1_N 38 
3 *93:10 *93:21 15.8493 
4 *93:21 *1022:A 24.305 
5 *93:21 *1023:A1 28.075 
*END

*D_NET *94 0.00233019
*CONN
*I *1012:B1 I *D sky130_fd_sc_hd__a21o_1
*I *1011:B I *D sky130_fd_sc_hd__and3_1
*I *1010:B I *D sky130_fd_sc_hd__nand3_1
*I *1008:X O *D sky130_fd_sc_hd__a21bo_1
*CAP
1 *1012:B1 0
2 *1011:B 0
3 *1010:B 0.000125089
4 *1008:X 0.000200937
5 *94:16 0.000413974
6 *94:8 0.000489823
7 *1010:B *1011:C 2.18409e-05
8 *1010:B *97:12 9.67842e-05
9 *94:8 *98:6 5.12254e-05
10 *94:8 *109:10 0.000139346
11 *94:8 *215:18 9.32888e-05
12 *94:16 *95:14 0.000163361
13 *94:16 *167:14 8.06039e-05
14 *94:16 *327:36 2.40374e-05
15 *1010:A *1010:B 0.000141052
16 *1010:A *94:16 3.17634e-05
17 *1023:A1 *94:8 0.00010018
18 *1023:A2 *94:8 5.67058e-05
19 *1023:B1 *94:8 0.00010018
*RES
1 *1008:X *94:8 28.8829 
2 *94:8 *94:16 34.785 
3 *94:16 *1010:B 26.3971 
4 *94:16 *1011:B 23 
5 *94:8 *1012:B1 23 
*END

*D_NET *95 0.00293236
*CONN
*I *1010:C I *D sky130_fd_sc_hd__nand3_1
*I *1011:C I *D sky130_fd_sc_hd__and3_1
*I *1012:A2 I *D sky130_fd_sc_hd__a21o_1
*I *1009:X O *D sky130_fd_sc_hd__a22o_1
*CAP
1 *1010:C 1.79326e-05
2 *1011:C 6.89849e-05
3 *1012:A2 0
4 *1009:X 0
5 *95:27 0.000441617
6 *95:14 0.000286835
7 *95:4 0.000641534
8 *1010:C *97:12 1.83408e-05
9 *1010:C *327:36 4.3198e-05
10 *1011:C *97:12 1.21972e-05
11 *1011:C *327:36 0.000207783
12 *95:14 *98:6 9.41704e-05
13 *95:14 *167:14 7.13673e-05
14 *95:14 *233:88 0.000370859
15 *95:27 *285:49 0.000108681
16 *978:A *95:14 9.91548e-05
17 *978:A *95:27 8.68775e-05
18 *978:B *95:27 6.89359e-06
19 *1010:A *1011:C 0.000125931
20 *1010:B *1011:C 2.18409e-05
21 *1012:A1 *95:14 2.64616e-05
22 *64:6 *95:27 1.83408e-05
23 *94:16 *95:14 0.000163361
*RES
1 *1009:X *95:4 23 
2 *95:4 *95:14 37.2707 
3 *95:14 *1012:A2 23 
4 *95:4 *95:27 35.0336 
5 *95:27 *1011:C 25.3614 
6 *95:27 *1010:C 23.6214 
*END

*D_NET *96 0.00169386
*CONN
*I *1015:A1 I *D sky130_fd_sc_hd__a21boi_2
*I *1031:A1 I *D sky130_fd_sc_hd__a21bo_1
*I *1010:Y O *D sky130_fd_sc_hd__nand3_1
*CAP
1 *1015:A1 0.000103158
2 *1031:A1 3.41136e-05
3 *1010:Y 0.000154612
4 *96:10 0.000137272
5 *96:8 0.000154612
6 *1015:A1 *1019:C_N 5.56356e-05
7 *1015:A1 *1138:A 0.000137467
8 *1015:A1 *220:30 0.000246252
9 *1031:A1 *1138:A 5.12254e-05
10 *1031:A1 *220:30 9.67842e-05
11 *96:8 *285:49 0.000344882
12 *96:8 *293:16 0.000177849
*RES
1 *1010:Y *96:8 42.7229 
2 *96:8 *96:10 15 
3 *96:10 *1031:A1 24.0979 
4 *96:10 *1015:A1 27.1221 
*END

*D_NET *97 0.00315248
*CONN
*I *1019:B I *D sky130_fd_sc_hd__or3b_1
*I *1013:B I *D sky130_fd_sc_hd__or3b_2
*I *1011:X O *D sky130_fd_sc_hd__and3_1
*CAP
1 *1019:B 0
2 *1013:B 0.00011247
3 *1011:X 0.000317752
4 *97:29 0.000531403
5 *97:14 0.000643873
6 *97:12 0.000317752
7 *1013:B *215:18 0.000143156
8 *97:12 *139:33 1.24376e-05
9 *97:12 *285:49 0
10 *97:12 *327:36 3.90643e-05
11 *97:29 *100:10 0.000105995
12 *97:29 *139:33 0
13 *97:29 *139:39 0
14 *97:29 *215:18 0.000398071
15 *97:29 *270:28 8.58779e-05
16 *97:29 *295:10 0
17 *97:29 *315:22 0.000238313
18 *1010:B *97:12 9.67842e-05
19 *1010:C *97:12 1.83408e-05
20 *1011:C *97:12 1.21972e-05
21 *1014:B *97:12 7.89883e-05
*RES
1 *1011:X *97:12 43.655 
2 *97:12 *97:14 15 
3 *97:14 *1013:B 24.5743 
4 *97:14 *97:29 39.1557 
5 *97:29 *1019:B 23 
*END

*D_NET *98 0.00132849
*CONN
*I *1013:C_N I *D sky130_fd_sc_hd__or3b_2
*I *1031:A2 I *D sky130_fd_sc_hd__a21bo_1
*I *1012:X O *D sky130_fd_sc_hd__a21o_1
*CAP
1 *1013:C_N 3.17899e-05
2 *1031:A2 0
3 *1012:X 0.000133467
4 *98:12 0.00010487
5 *98:6 0.000270127
6 *1013:C_N *215:18 4.17736e-05
7 *98:6 *215:18 0.000305431
8 *98:12 *233:88 3.53348e-05
9 *98:12 *293:16 0.000218407
10 *1012:A1 *98:12 4.18957e-05
11 *94:8 *98:6 5.12254e-05
12 *95:14 *98:6 9.41704e-05
*RES
1 *1012:X *98:6 26.48 
2 *98:6 *98:12 32.9621 
3 *98:12 *1031:A2 23 
4 *98:6 *1013:C_N 23.6214 
*END

*D_NET *99 0.00352297
*CONN
*I *1032:A I *D sky130_fd_sc_hd__and3_2
*I *1087:A1 I *D sky130_fd_sc_hd__a21oi_1
*I *1019:C_N I *D sky130_fd_sc_hd__or3b_1
*I *1015:A2 I *D sky130_fd_sc_hd__a21boi_2
*I *1013:X O *D sky130_fd_sc_hd__or3b_2
*CAP
1 *1032:A 9.28085e-05
2 *1087:A1 0
3 *1019:C_N 0.000229125
4 *1015:A2 0
5 *1013:X 0.000377571
6 *99:34 0.000445757
7 *99:12 0.000229125
8 *99:10 0.00073052
9 *1019:C_N *1015:B1_N 5.40241e-05
10 *1019:C_N *1019:A 2.64616e-05
11 *1019:C_N *1138:A 9.5877e-05
12 *1019:C_N *101:17 0.000442917
13 *1019:C_N *101:19 0
14 *1019:C_N *105:10 2.4732e-05
15 *1019:C_N *220:30 0.000107546
16 *1019:C_N *269:78 5.12254e-05
17 *1032:A *1087:B1 5.79559e-05
18 *1032:A *117:29 5.56356e-05
19 *1032:A *118:27 9.77922e-06
20 *99:10 *1013:A 2.93335e-05
21 *99:10 *139:33 2.98816e-05
22 *99:10 *139:39 0
23 *99:10 *215:18 1.71077e-05
24 *99:10 *270:30 7.87243e-05
25 *99:10 *270:47 1.64096e-05
26 *99:10 *285:49 0
27 *99:34 *105:10 3.69018e-05
28 *99:34 *117:29 2.80537e-05
29 *99:34 *118:27 9.03364e-06
30 *99:34 *139:39 8.50366e-05
31 *99:34 *200:75 0.000105787
32 *99:34 *285:49 0
33 *99:34 *293:16 0
34 *1015:A1 *1019:C_N 5.56356e-05
*RES
1 *1013:X *99:10 43.2614 
2 *99:10 *99:12 15 
3 *99:12 *1015:A2 23 
4 *99:12 *1019:C_N 30.3121 
5 *99:10 *99:34 21.4421 
6 *99:34 *1087:A1 23 
7 *99:34 *1032:A 25.0714 
*END

*D_NET *100 0.00085783
*CONN
*I *1019:A I *D sky130_fd_sc_hd__or3b_1
*I *1015:B1_N I *D sky130_fd_sc_hd__a21boi_2
*I *1014:Y O *D sky130_fd_sc_hd__xnor2_1
*CAP
1 *1019:A 5.02993e-05
2 *1015:B1_N 2.71895e-05
3 *1014:Y 0.000161061
4 *100:12 7.74888e-05
5 *100:10 0.000161061
6 *1015:B1_N *220:30 9.93575e-05
7 *1019:A *220:30 4.08664e-05
8 *100:10 *139:33 0
9 *100:10 *270:28 5.40241e-05
10 *1019:C_N *1015:B1_N 5.40241e-05
11 *1019:C_N *1019:A 2.64616e-05
12 *97:29 *100:10 0.000105995
*RES
1 *1014:Y *100:10 40.6514 
2 *100:10 *100:12 15 
3 *100:12 *1015:B1_N 24.0979 
4 *100:12 *1019:A 24.1186 
*END

*D_NET *101 0.00326911
*CONN
*I *1111:A1 I *D sky130_fd_sc_hd__o211a_1
*I *1018:A I *D sky130_fd_sc_hd__xor2_1
*I *1110:A1 I *D sky130_fd_sc_hd__o21a_1
*I *1020:A I *D sky130_fd_sc_hd__or2b_1
*I *1015:Y O *D sky130_fd_sc_hd__a21boi_2
*CAP
1 *1111:A1 0
2 *1018:A 0
3 *1110:A1 0
4 *1020:A 0
5 *1015:Y 0
6 *101:47 0.00021454
7 *101:25 0.000107341
8 *101:19 0.000141438
9 *101:17 0.000607031
10 *101:10 5.45908e-05
11 *101:4 0.000412984
12 *101:10 *105:10 8.62876e-05
13 *101:10 *139:39 0.000109352
14 *101:10 *200:75 1.22906e-05
15 *101:17 *1018:B 5.50106e-05
16 *101:17 *105:10 0.000185368
17 *101:17 *269:78 9.32157e-05
18 *101:19 *1112:C1 0
19 *101:19 *104:12 1.37232e-05
20 *101:25 *1110:A2 0.000214862
21 *101:25 *103:8 1.83564e-05
22 *101:25 *103:19 8.93766e-05
23 *101:47 *1094:B1 5.94125e-05
24 *101:47 *1110:A2 0.000111852
25 *101:47 *1111:A2 1.14154e-05
26 *101:47 *104:12 0.000138718
27 *101:47 *141:24 7.76364e-06
28 *101:47 *200:69 5.3304e-05
29 *101:47 *269:78 2.79662e-05
30 *1019:C_N *101:17 0.000442917
31 *1019:C_N *101:19 0
*RES
1 *1015:Y *101:4 23 
2 *101:4 *101:10 31.5536 
3 *101:10 *1020:A 23 
4 *101:4 *101:17 8.24429 
5 *101:17 *101:19 0.849286 
6 *101:19 *101:25 32.9621 
7 *101:25 *1110:A1 23 
8 *101:19 *1018:A 23 
9 *101:17 *101:47 34.4743 
10 *101:47 *1111:A1 23 
*END

*D_NET *102 0.000666233
*CONN
*I *1017:B I *D sky130_fd_sc_hd__and2_1
*I *1016:X O *D sky130_fd_sc_hd__or3_1
*CAP
1 *1017:B 0
2 *1016:X 0.000236946
3 *102:10 0.000236946
4 *102:10 *295:10 0
5 *993:B1 *102:10 0.000192342
6 *79:10 *102:10 0
*RES
1 *1016:X *102:10 41.9564 
2 *102:10 *1017:B 38 
*END

*D_NET *103 0.00188329
*CONN
*I *1111:A2 I *D sky130_fd_sc_hd__o211a_1
*I *1018:B I *D sky130_fd_sc_hd__xor2_1
*I *1110:B1 I *D sky130_fd_sc_hd__o21a_1
*I *1017:X O *D sky130_fd_sc_hd__and2_1
*CAP
1 *1111:A2 0.000245438
2 *1018:B 1.80182e-05
3 *1110:B1 5.6369e-05
4 *1017:X 0.000126358
5 *103:19 0.000416288
6 *103:8 0.000335558
7 *1018:B *269:78 2.93845e-05
8 *1110:B1 *215:18 0.000128401
9 *1110:B1 *315:22 0.000223698
10 *1111:A2 *1094:B1 2.19539e-05
11 *1111:A2 *1110:A2 3.98859e-05
12 *1111:A2 *119:12 1.14452e-05
13 *1111:A2 *178:22 1.14452e-05
14 *1111:A2 *200:69 3.71369e-05
15 *1111:A2 *295:10 0
16 *103:8 *141:24 0
17 *103:8 *295:10 0
18 *103:19 *1110:A2 7.75329e-06
19 *103:19 *295:10 0
20 *101:17 *1018:B 5.50106e-05
21 *101:25 *103:8 1.83564e-05
22 *101:25 *103:19 8.93766e-05
23 *101:47 *1111:A2 1.14154e-05
*RES
1 *1017:X *103:8 40.2579 
2 *103:8 *1110:B1 40.5271 
3 *103:8 *103:19 2.96214 
4 *103:19 *1018:B 38.6214 
5 *103:19 *1111:A2 43.0543 
*END

*D_NET *104 0.00101553
*CONN
*I *1095:A I *D sky130_fd_sc_hd__xnor2_2
*I *1018:X O *D sky130_fd_sc_hd__xor2_1
*CAP
1 *1095:A 0.000123898
2 *1018:X 0.000113279
3 *104:12 0.000237177
4 *1095:A *200:69 0.000123944
5 *104:12 *1094:B1 1.37349e-05
6 *104:12 *1112:C1 6.67149e-05
7 *104:12 *141:24 6.35385e-05
8 *104:12 *197:8 8.85189e-05
9 *104:12 *269:78 3.22879e-05
10 *101:19 *104:12 1.37232e-05
11 *101:47 *104:12 0.000138718
*RES
1 *1018:X *104:12 41.7286 
2 *104:12 *1095:A 40.5271 
*END

*D_NET *105 0.000974226
*CONN
*I *1020:B_N I *D sky130_fd_sc_hd__or2b_1
*I *1019:X O *D sky130_fd_sc_hd__or3b_1
*CAP
1 *1020:B_N 0
2 *1019:X 0.000257577
3 *105:10 0.000257577
4 *105:10 *139:39 3.72639e-05
5 *105:10 *200:75 8.85189e-05
6 *1019:C_N *105:10 2.4732e-05
7 *99:34 *105:10 3.69018e-05
8 *101:10 *105:10 8.62876e-05
9 *101:17 *105:10 0.000185368
*RES
1 *1019:X *105:10 42.785 
2 *105:10 *1020:B_N 38 
*END

*D_NET *106 0.00043749
*CONN
*I *1093:A_N I *D sky130_fd_sc_hd__and2b_1
*I *1033:A I *D sky130_fd_sc_hd__xnor2_2
*I *1020:X O *D sky130_fd_sc_hd__or2b_1
*CAP
1 *1093:A_N 0
2 *1033:A 0
3 *1020:X 5.57308e-05
4 *106:14 0.000124434
5 *106:8 0.000180165
6 *106:8 *315:38 3.22051e-05
7 *106:14 *118:33 4.49561e-05
8 *106:14 *139:39 0
*RES
1 *1020:X *106:8 24.1186 
2 *106:8 *106:14 32.2579 
3 *106:14 *1033:A 23 
4 *106:8 *1093:A_N 23 
*END

*D_NET *107 0.00239784
*CONN
*I *1079:B I *D sky130_fd_sc_hd__or3_1
*I *1082:B1 I *D sky130_fd_sc_hd__o21ai_1
*I *1030:A1 I *D sky130_fd_sc_hd__o21bai_1
*I *1021:Y O *D sky130_fd_sc_hd__nand2_1
*CAP
1 *1079:B 0
2 *1082:B1 0
3 *1030:A1 3.48344e-05
4 *1021:Y 0.000416954
5 *107:16 0.000357655
6 *107:12 0.00032282
7 *107:10 0.000416954
8 *1030:A1 *1030:A2 4.00259e-06
9 *1030:A1 *114:16 6.09174e-05
10 *107:10 *1029:B 1.32314e-05
11 *107:10 *1029:C 7.45075e-05
12 *107:10 *115:8 6.4393e-05
13 *107:10 *117:8 0
14 *107:10 *165:8 4.41821e-06
15 *107:10 *167:14 0.000105432
16 *107:10 *233:88 0.000151331
17 *107:10 *293:16 0
18 *107:10 *315:38 7.80696e-05
19 *107:16 *114:16 2.25419e-05
20 *107:16 *116:6 0.000269775
*RES
1 *1021:Y *107:10 45.4986 
2 *107:10 *107:12 15 
3 *107:12 *107:16 5.28214 
4 *107:16 *1030:A1 24.1186 
5 *107:16 *1082:B1 23 
6 *107:12 *1079:B 23 
*END

*D_NET *108 0.00279131
*CONN
*I *1029:A I *D sky130_fd_sc_hd__and3_1
*I *1028:A1 I *D sky130_fd_sc_hd__a21oi_1
*I *1022:Y O *D sky130_fd_sc_hd__nand3_1
*CAP
1 *1029:A 0.000128326
2 *1028:A1 0
3 *1022:Y 0.000261627
4 *108:20 0.000119058
5 *108:14 0.000321306
6 *108:10 0.000335549
7 *1029:A *1029:B 0.000429534
8 *1029:A *1181:A 0.000230604
9 *1029:A *315:38 0.00012116
10 *108:10 *1029:B 8.92841e-05
11 *108:10 *113:16 0.000110922
12 *108:10 *232:66 2.96154e-05
13 *108:10 *232:79 0.000110116
14 *108:14 *1029:B 9.84794e-05
15 *108:14 *1160:RESET_B 2.8521e-05
16 *108:14 *315:38 2.18409e-05
17 *108:14 *315:56 3.44502e-05
18 *108:20 *1029:B 7.461e-05
19 *108:20 *114:10 0.000136486
20 *108:20 *167:14 0
21 *108:20 *321:8 2.24973e-05
22 *1022:A *108:10 3.23149e-05
23 *1023:A1 *108:10 5.50106e-05
*RES
1 *1022:Y *108:10 43.8207 
2 *108:10 *108:14 17.0507 
3 *108:14 *108:20 32.9621 
4 *108:20 *1028:A1 23 
5 *108:14 *1029:A 28.7586 
*END

*D_NET *109 0.00234067
*CONN
*I *1029:C I *D sky130_fd_sc_hd__and3_1
*I *1028:A2 I *D sky130_fd_sc_hd__a21oi_1
*I *1023:X O *D sky130_fd_sc_hd__a21o_1
*CAP
1 *1029:C 0.000170346
2 *1028:A2 8.90623e-05
3 *1023:X 0.000212071
4 *109:10 0.000471478
5 *1028:A2 *1137:A2 5.67058e-05
6 *1028:A2 *1138:A 0.000215406
7 *1028:A2 *220:30 0.000443667
8 *1029:C *1029:B 1.41077e-05
9 *1029:C *167:14 0.000260647
10 *1029:C *233:88 0
11 *1029:C *315:38 6.04112e-05
12 *109:10 *167:14 0.000132912
13 *109:10 *233:88 0
14 *94:8 *109:10 0.000139346
15 *107:10 *1029:C 7.45075e-05
*RES
1 *1023:X *109:10 41.48 
2 *109:10 *1028:A2 42.9093 
3 *109:10 *1029:C 42.3707 
*END

*D_NET *110 0.00233674
*CONN
*I *1027:A1 I *D sky130_fd_sc_hd__a21bo_1
*I *1048:B1 I *D sky130_fd_sc_hd__a21o_1
*I *1046:B I *D sky130_fd_sc_hd__nand3_1
*I *1024:X O *D sky130_fd_sc_hd__and2_1
*CAP
1 *1027:A1 6.58557e-05
2 *1048:B1 0.000189647
3 *1046:B 0
4 *1024:X 0
5 *110:23 0.000402447
6 *110:14 0.000208862
7 *110:4 0.000355806
8 *1027:A1 *111:22 0.000136609
9 *1027:A1 *235:32 0.000100176
10 *1048:B1 *111:22 0.000270241
11 *1048:B1 *112:8 5.58975e-06
12 *1048:B1 *235:32 8.58779e-05
13 *110:14 *132:12 0.000263538
14 *110:14 *286:73 0.000125019
15 *110:14 *294:14 3.55887e-05
16 *110:23 *132:12 9.14874e-05
*RES
1 *1024:X *110:4 23 
2 *110:4 *110:14 34.35 
3 *110:14 *1046:B 23 
4 *110:4 *110:23 17.0507 
5 *110:23 *1048:B1 41.6664 
6 *110:23 *1027:A1 39.9057 
*END

*D_NET *111 0.0033977
*CONN
*I *1027:A2 I *D sky130_fd_sc_hd__a21bo_1
*I *1048:A2 I *D sky130_fd_sc_hd__a21o_1
*I *1046:C I *D sky130_fd_sc_hd__nand3_1
*I *1025:X O *D sky130_fd_sc_hd__a22o_1
*CAP
1 *1027:A2 5.72663e-05
2 *1048:A2 0
3 *1046:C 0
4 *1025:X 0.000176018
5 *111:34 0.000382912
6 *111:22 0.000798112
7 *111:10 0.000648484
8 *1027:A2 *235:32 2.64616e-05
9 *1027:A2 *286:119 3.46521e-05
10 *111:10 *287:14 9.92279e-05
11 *111:22 *1080:B 2.84912e-05
12 *111:22 *112:8 6.23248e-06
13 *111:22 *112:23 3.30539e-05
14 *111:22 *133:8 3.70187e-05
15 *111:22 *133:23 2.99561e-05
16 *111:22 *134:19 0.000166522
17 *111:22 *288:81 4.83325e-05
18 *111:22 *316:119 1.32314e-05
19 *111:34 *1046:A 5.96305e-05
20 *111:34 *112:23 0.000142636
21 *111:34 *132:12 3.18142e-05
22 *111:34 *230:10 2.9927e-05
23 *111:34 *269:21 0.000137594
24 *111:34 *286:73 3.27749e-06
25 *111:34 *294:14 0
26 *1027:A1 *111:22 0.000136609
27 *1048:B1 *111:22 0.000270241
*RES
1 *1025:X *111:10 40.6514 
2 *111:10 *111:22 24.7979 
3 *111:22 *111:34 36.9807 
4 *111:34 *1046:C 23 
5 *111:22 *1048:A2 23 
6 *111:10 *1027:A2 39.1186 
*END

*D_NET *112 0.00254223
*CONN
*I *1027:B1_N I *D sky130_fd_sc_hd__a21bo_1
*I *1046:A I *D sky130_fd_sc_hd__nand3_1
*I *1048:A1 I *D sky130_fd_sc_hd__a21o_1
*I *1026:Y O *D sky130_fd_sc_hd__nand4_1
*CAP
1 *1027:B1_N 0.000179692
2 *1046:A 0.000119617
3 *1048:A1 0
4 *1026:Y 0.000192815
5 *112:23 0.00046658
6 *112:10 0.000167271
7 *112:8 0.000192815
8 *1027:B1_N *269:21 0.000261913
9 *1027:B1_N *282:21 0.000267896
10 *1027:B1_N *286:84 6.17437e-06
11 *1027:B1_N *286:119 2.68258e-05
12 *1046:A *132:12 6.8137e-05
13 *1046:A *235:32 1.24376e-05
14 *112:8 *230:10 0
15 *112:8 *282:21 4.85019e-05
16 *112:8 *316:123 5.12448e-05
17 *112:8 *316:133 2.75733e-06
18 *112:23 *269:21 0.000116314
19 *112:23 *282:21 0.000114092
20 *1048:B1 *112:8 5.58975e-06
21 *111:22 *112:8 6.23248e-06
22 *111:22 *112:23 3.30539e-05
23 *111:34 *1046:A 5.96305e-05
24 *111:34 *112:23 0.000142636
*RES
1 *1026:Y *112:8 42.0186 
2 *112:8 *112:10 15 
3 *112:10 *1048:A1 23 
4 *112:10 *112:23 19.1014 
5 *112:23 *1046:A 40.5686 
6 *112:23 *1027:B1_N 42.7643 
*END

*D_NET *113 0.00455486
*CONN
*I *1029:B I *D sky130_fd_sc_hd__and3_1
*I *1028:B1 I *D sky130_fd_sc_hd__a21oi_1
*I *1027:X O *D sky130_fd_sc_hd__a21bo_1
*CAP
1 *1029:B 0.000493782
2 *1028:B1 0
3 *1027:X 0.000355549
4 *113:16 0.000878021
5 *113:12 0.000739788
6 *1029:B *269:78 2.46922e-05
7 *1029:B *315:38 5.61255e-06
8 *113:12 *269:36 4.68559e-05
9 *113:12 *286:119 0.000140021
10 *113:12 *287:35 6.63214e-05
11 *113:12 *288:103 5.77764e-05
12 *113:12 *305:85 0.000132638
13 *113:12 *316:119 0.000184634
14 *113:16 *1006:B2 0.00021006
15 *113:16 *269:36 0.000272755
16 *113:16 *269:78 7.65883e-06
17 *113:16 *288:103 2.23467e-05
18 *1029:A *1029:B 0.000429534
19 *1029:C *1029:B 1.41077e-05
20 *93:10 *113:16 5.6578e-05
21 *93:21 *113:16 2.96051e-05
22 *107:10 *1029:B 1.32314e-05
23 *108:10 *1029:B 8.92841e-05
24 *108:10 *113:16 0.000110922
25 *108:14 *1029:B 9.84794e-05
26 *108:20 *1029:B 7.461e-05
*RES
1 *1027:X *113:12 44.7425 
2 *113:12 *113:16 9.04179 
3 *113:16 *1028:B1 38 
4 *113:16 *1029:B 48.4193 
*END

*D_NET *114 0.00207299
*CONN
*I *1082:A2 I *D sky130_fd_sc_hd__o21ai_1
*I *1079:C I *D sky130_fd_sc_hd__or3_1
*I *1030:A2 I *D sky130_fd_sc_hd__o21bai_1
*I *1028:Y O *D sky130_fd_sc_hd__a21oi_1
*CAP
1 *1082:A2 0
2 *1079:C 4.38558e-05
3 *1030:A2 1.34103e-05
4 *1028:Y 0.000351932
5 *114:16 0.000142794
6 *114:12 8.5528e-05
7 *114:10 0.000351932
8 *1079:C *1030:B1_N 2.93747e-05
9 *1079:C *1082:A1 0.000192449
10 *1079:C *116:6 5.29672e-05
11 *114:10 *1138:A 0.000139357
12 *114:10 *1181:A 2.96051e-05
13 *114:10 *167:14 0
14 *114:10 *232:79 0
15 *114:10 *301:23 5.87296e-05
16 *114:10 *321:8 8.62876e-05
17 *114:16 *1082:A1 0.000265445
18 *114:16 *116:6 5.37348e-06
19 *1030:A1 *1030:A2 4.00259e-06
20 *1030:A1 *114:16 6.09174e-05
21 *107:16 *114:16 2.25419e-05
22 *108:20 *114:10 0.000136486
*RES
1 *1028:Y *114:10 44.2971 
2 *114:10 *114:12 15 
3 *114:12 *114:16 3.02429 
4 *114:16 *1030:A2 23.4971 
5 *114:16 *1079:C 25.5479 
6 *114:12 *1082:A2 23 
*END

*D_NET *115 0.00205814
*CONN
*I *1079:A I *D sky130_fd_sc_hd__or3_1
*I *1030:B1_N I *D sky130_fd_sc_hd__o21bai_1
*I *1082:A1 I *D sky130_fd_sc_hd__o21ai_1
*I *1029:X O *D sky130_fd_sc_hd__and3_1
*CAP
1 *1079:A 0
2 *1030:B1_N 5.58552e-05
3 *1082:A1 0.000446243
4 *1029:X 8.41261e-05
5 *115:12 0.000555243
6 *115:8 0.000137271
7 *1030:B1_N *1087:B1 0
8 *1030:B1_N *116:6 0.000139352
9 *1082:A1 *1087:B1 0
10 *115:8 *117:8 4.334e-05
11 *115:8 *293:16 0
12 *115:12 *116:6 4.5051e-05
13 *1079:C *1030:B1_N 2.93747e-05
14 *1079:C *1082:A1 0.000192449
15 *107:10 *115:8 6.4393e-05
16 *114:16 *1082:A1 0.000265445
*RES
1 *1029:X *115:8 39.9057 
2 *115:8 *115:12 16.0979 
3 *115:12 *1082:A1 30.5607 
4 *115:12 *1030:B1_N 25.0714 
5 *115:12 *1079:A 23 
*END

*D_NET *116 0.00210688
*CONN
*I *1032:B I *D sky130_fd_sc_hd__and3_2
*I *1087:B1 I *D sky130_fd_sc_hd__a21oi_1
*I *1030:Y O *D sky130_fd_sc_hd__o21bai_1
*CAP
1 *1032:B 0.000123415
2 *1087:B1 0.000132727
3 *1030:Y 0.000197101
4 *116:6 0.000453242
5 *1032:B *118:8 9.58714e-05
6 *1032:B *118:27 6.09174e-05
7 *1087:B1 *117:12 0.000146444
8 *1087:B1 *117:29 3.22879e-05
9 *1087:B1 *118:8 0.000128765
10 *1087:B1 *118:27 0.000155739
11 *116:6 *117:12 9.8971e-06
12 *1030:B1_N *1087:B1 0
13 *1030:B1_N *116:6 0.000139352
14 *1032:A *1087:B1 5.79559e-05
15 *1079:C *116:6 5.29672e-05
16 *1082:A1 *1087:B1 0
17 *107:16 *116:6 0.000269775
18 *114:16 *116:6 5.37348e-06
19 *115:12 *116:6 4.5051e-05
*RES
1 *1030:Y *116:6 28.3857 
2 *116:6 *1087:B1 28.3236 
3 *116:6 *1032:B 25.5479 
*END

*D_NET *117 0.00176398
*CONN
*I *1087:A2 I *D sky130_fd_sc_hd__a21oi_1
*I *1032:C I *D sky130_fd_sc_hd__and3_2
*I *1031:X O *D sky130_fd_sc_hd__a21bo_1
*CAP
1 *1087:A2 0
2 *1032:C 0
3 *1031:X 0.00015766
4 *117:29 0.000241573
5 *117:12 0.000411363
6 *117:8 0.00032745
7 *117:8 *233:88 0.000166513
8 *117:8 *293:16 8.97299e-05
9 *117:29 *118:27 5.40337e-05
10 *1032:A *117:29 5.56356e-05
11 *1087:B1 *117:12 0.000146444
12 *1087:B1 *117:29 3.22879e-05
13 *99:34 *117:29 2.80537e-05
14 *107:10 *117:8 0
15 *115:8 *117:8 4.334e-05
16 *116:6 *117:12 9.8971e-06
*RES
1 *1031:X *117:8 42.0186 
2 *117:8 *117:12 17.5271 
3 *117:12 *1032:C 23 
4 *117:12 *117:29 34.1429 
5 *117:29 *1087:A2 23 
*END

*D_NET *118 0.00272318
*CONN
*I *1033:B I *D sky130_fd_sc_hd__xnor2_2
*I *1093:B I *D sky130_fd_sc_hd__and2b_1
*I *1088:A I *D sky130_fd_sc_hd__nor2_2
*I *1032:X O *D sky130_fd_sc_hd__and3_2
*CAP
1 *1033:B 0
2 *1093:B 0
3 *1088:A 0
4 *1032:X 4.31746e-05
5 *118:33 0.000110128
6 *118:27 0.000691971
7 *118:14 0.000112404
8 *118:8 0.000737421
9 *118:14 *139:39 0
10 *118:14 *173:10 2.34077e-05
11 *118:14 *293:16 0.000220969
12 *118:27 *173:10 5.79559e-05
13 *118:27 *178:22 0
14 *118:33 *295:10 0.000131878
15 *118:33 *315:22 3.47781e-05
16 *1032:A *118:27 9.77922e-06
17 *1032:B *118:8 9.58714e-05
18 *1032:B *118:27 6.09174e-05
19 *1087:B1 *118:8 0.000128765
20 *1087:B1 *118:27 0.000155739
21 *99:34 *118:27 9.03364e-06
22 *106:14 *118:33 4.49561e-05
23 *117:29 *118:27 5.40337e-05
*RES
1 *1032:X *118:8 24.595 
2 *118:8 *118:14 32.9621 
3 *118:14 *1088:A 23 
4 *118:8 *118:27 10.6886 
5 *118:27 *118:33 33.3143 
6 *118:33 *1093:B 23 
7 *118:27 *1033:B 23 
*END

*D_NET *119 0.00247295
*CONN
*I *1098:A I *D sky130_fd_sc_hd__xnor2_1
*I *1094:A1 I *D sky130_fd_sc_hd__a21oi_1
*I *1111:B1 I *D sky130_fd_sc_hd__o211a_1
*I *1033:Y O *D sky130_fd_sc_hd__xnor2_2
*CAP
1 *1098:A 0
2 *1094:A1 0
3 *1111:B1 0
4 *1033:Y 0.000122437
5 *119:42 0.000435996
6 *119:21 0.000560707
7 *119:12 8.03223e-05
8 *119:6 0.000327471
9 *119:6 *178:22 5.12254e-05
10 *119:12 *1094:B1 6.6869e-05
11 *119:12 *178:22 6.42902e-05
12 *119:21 *1094:B1 5.50049e-05
13 *119:21 *178:22 3.75269e-05
14 *119:42 *1092:A1 0.000208209
15 *119:42 *1096:A 5.44704e-05
16 *119:42 *1098:B 5.58003e-05
17 *119:42 *141:24 0.000221064
18 *119:42 *164:23 0
19 *119:42 *178:22 5.67058e-05
20 *119:42 *180:12 6.34074e-05
21 *1111:A2 *119:12 1.14452e-05
*RES
1 *1033:Y *119:6 24.5743 
2 *119:6 *119:12 31.9057 
3 *119:12 *1111:B1 23 
4 *119:6 *119:21 2.07143 
5 *119:21 *1094:A1 23 
6 *119:21 *119:42 39.715 
7 *119:42 *1098:A 23 
*END

*D_NET *120 0.00137451
*CONN
*I *1047:A1 I *D sky130_fd_sc_hd__a21bo_1
*I *1037:A I *D sky130_fd_sc_hd__nand3_1
*I *1038:A1 I *D sky130_fd_sc_hd__a21o_1
*I *1034:X O *D sky130_fd_sc_hd__a22o_1
*CAP
1 *1047:A1 0
2 *1037:A 0
3 *1038:A1 0
4 *1034:X 7.24143e-05
5 *120:18 8.18655e-05
6 *120:12 0.000133328
7 *120:10 5.14628e-05
8 *120:8 7.24143e-05
9 *120:8 *288:32 0.000137744
10 *120:8 *305:70 3.56295e-05
11 *120:12 *1047:A2 4.21921e-05
12 *120:12 *122:15 0.000100486
13 *120:12 *123:10 0.000186029
14 *120:12 *124:14 1.24376e-05
15 *120:12 *288:44 8.48502e-06
16 *120:18 *121:33 0.000248358
17 *120:18 *133:8 0.000170917
18 *120:18 *288:32 2.07509e-05
*RES
1 *1034:X *120:8 39.9057 
2 *120:8 *120:10 15 
3 *120:10 *120:12 2.05071 
4 *120:12 *120:18 33.3143 
5 *120:18 *1038:A1 23 
6 *120:12 *1037:A 23 
7 *120:10 *1047:A1 23 
*END

*D_NET *121 0.00429545
*CONN
*I *1038:A2 I *D sky130_fd_sc_hd__a21o_1
*I *1037:B I *D sky130_fd_sc_hd__nand3_1
*I *1047:B1_N I *D sky130_fd_sc_hd__a21bo_1
*I *1035:Y O *D sky130_fd_sc_hd__nand4_1
*CAP
1 *1038:A2 0
2 *1037:B 0
3 *1047:B1_N 0.000126469
4 *1035:Y 0.000193935
5 *121:33 0.00011206
6 *121:27 0.000668848
7 *121:8 0.000877192
8 *1047:B1_N *123:10 0.000135037
9 *121:8 *234:39 0.000497223
10 *121:8 *272:18 0.000386956
11 *121:8 *272:24 0.000112396
12 *121:27 *956:A 0
13 *121:27 *979:C 0
14 *121:27 *979:D 5.50106e-05
15 *121:27 *980:B1 1.21972e-05
16 *121:27 *980:B2 9.84851e-05
17 *121:27 *234:37 6.14399e-05
18 *121:27 *234:39 0.000229515
19 *121:27 *272:18 0.000287978
20 *121:27 *316:133 5.73288e-05
21 *121:33 *316:133 6.39814e-05
22 *979:B *121:27 7.10386e-05
23 *120:18 *121:33 0.000248358
*RES
1 *1035:Y *121:8 44.8357 
2 *121:8 *1047:B1_N 39.5743 
3 *121:8 *121:27 25.875 
4 *121:27 *121:33 33.3143 
5 *121:33 *1037:B 23 
6 *121:27 *1038:A2 23 
*END

*D_NET *122 0.0012313
*CONN
*I *1047:A2 I *D sky130_fd_sc_hd__a21bo_1
*I *1038:B1 I *D sky130_fd_sc_hd__a21o_1
*I *1037:C I *D sky130_fd_sc_hd__nand3_1
*I *1036:X O *D sky130_fd_sc_hd__and2_1
*CAP
1 *1047:A2 2.61318e-05
2 *1038:B1 0
3 *1037:C 1.91122e-05
4 *1036:X 5.26123e-05
5 *122:23 8.41783e-05
6 *122:15 0.000234339
7 *122:6 0.000195753
8 *1037:C *316:158 1.12349e-05
9 *1047:A2 *288:44 6.17437e-06
10 *122:6 *1036:B 5.56279e-05
11 *122:6 *316:158 1.47394e-05
12 *122:15 *316:158 2.78272e-05
13 *122:23 *124:14 1.9054e-05
14 *122:23 *133:8 0.000170917
15 *122:23 *288:32 1.13812e-05
16 *122:23 *288:55 0.000159536
17 *120:12 *1047:A2 4.21921e-05
18 *120:12 *122:15 0.000100486
*RES
1 *1036:X *122:6 24.0979 
2 *122:6 *1037:C 23.4971 
3 *122:6 *122:15 2.52714 
4 *122:15 *122:23 33.1071 
5 *122:23 *1038:B1 23 
6 *122:15 *1047:A2 23.6214 
*END

*D_NET *123 0.00249452
*CONN
*I *1043:A1 I *D sky130_fd_sc_hd__a211o_1
*I *1044:B1 I *D sky130_fd_sc_hd__o211a_1
*I *1037:Y O *D sky130_fd_sc_hd__nand3_1
*CAP
1 *1043:A1 0
2 *1044:B1 0
3 *1037:Y 0.000424069
4 *123:28 0.000391644
5 *123:10 0.000815713
6 *123:10 *1043:A2 1.12796e-05
7 *123:10 *1043:B1 3.86731e-05
8 *123:10 *1044:C1 2.33782e-05
9 *123:10 *124:14 0.000217064
10 *123:10 *125:14 1.24376e-05
11 *123:10 *316:158 0
12 *123:28 *1044:A2 6.38427e-05
13 *123:28 *1044:C1 3.91586e-05
14 *123:28 *233:44 2.37602e-05
15 *123:28 *233:106 3.08294e-05
16 *123:28 *271:12 4.89846e-05
17 *123:28 *288:44 3.26241e-05
18 *1047:B1_N *123:10 0.000135037
19 *120:12 *123:10 0.000186029
*RES
1 *1037:Y *123:10 31.2857 
2 *123:10 *123:28 48.5982 
3 *123:28 *1044:B1 23 
4 *123:10 *1043:A1 23 
*END

*D_NET *124 0.00186216
*CONN
*I *1044:C1 I *D sky130_fd_sc_hd__o211a_1
*I *1043:A2 I *D sky130_fd_sc_hd__a211o_1
*I *1038:X O *D sky130_fd_sc_hd__a21o_1
*CAP
1 *1044:C1 9.53163e-05
2 *1043:A2 1.57878e-05
3 *1038:X 6.60781e-05
4 *124:14 0.0003159
5 *124:8 0.000270874
6 *1043:A2 *1043:B1 3.96959e-07
7 *1044:C1 *1043:B1 6.27008e-05
8 *1044:C1 *1044:A1 2.80379e-05
9 *1044:C1 *125:14 9.86777e-06
10 *1044:C1 *288:44 0.000229821
11 *124:8 *288:32 3.673e-05
12 *124:8 *288:55 8.57577e-05
13 *124:8 *305:70 2.91178e-05
14 *124:14 *288:44 0.000293399
15 *120:12 *124:14 1.24376e-05
16 *122:23 *124:14 1.9054e-05
17 *123:10 *1043:A2 1.12796e-05
18 *123:10 *1044:C1 2.33782e-05
19 *123:10 *124:14 0.000217064
20 *123:28 *1044:C1 3.91586e-05
*RES
1 *1038:X *124:8 39.5536 
2 *124:8 *124:14 20.4064 
3 *124:14 *1043:A2 23.4971 
4 *124:14 *1044:C1 26.3764 
*END

*D_NET *125 0.00211347
*CONN
*I *1044:A1 I *D sky130_fd_sc_hd__o211a_1
*I *1043:B1 I *D sky130_fd_sc_hd__a211o_1
*I *1039:X O *D sky130_fd_sc_hd__and4_1
*CAP
1 *1044:A1 0.00026502
2 *1043:B1 3.8897e-05
3 *1039:X 0.000268066
4 *125:14 0.000349385
5 *125:10 0.000313533
6 *1044:A1 *1044:A2 0.000141644
7 *1044:A1 *129:10 3.95707e-06
8 *1044:A1 *288:44 6.11176e-06
9 *125:10 *1039:D 3.20631e-05
10 *125:10 *233:44 1.91971e-05
11 *125:10 *237:59 8.06804e-06
12 *125:10 *271:12 0.000137754
13 *125:10 *271:14 0.000162254
14 *125:10 *331:18 0.000215405
15 *1043:A2 *1043:B1 3.96959e-07
16 *1044:C1 *1043:B1 6.27008e-05
17 *1044:C1 *1044:A1 2.80379e-05
18 *1044:C1 *125:14 9.86777e-06
19 *123:10 *1043:B1 3.86731e-05
20 *123:10 *125:14 1.24376e-05
*RES
1 *1039:X *125:10 43.5929 
2 *125:10 *125:14 15.6214 
3 *125:14 *1043:B1 24.6364 
4 *125:14 *1044:A1 27.3293 
*END

*D_NET *126 0.00294139
*CONN
*I *1042:C I *D sky130_fd_sc_hd__and4_1
*I *1058:B1 I *D sky130_fd_sc_hd__a22o_1
*I *1056:C I *D sky130_fd_sc_hd__nand4_1
*I *1040:Y O *D sky130_fd_sc_hd__nand4_1
*CAP
1 *1042:C 0
2 *1058:B1 9.84723e-05
3 *1056:C 0
4 *1040:Y 0.000421623
5 *126:22 3.95843e-05
6 *126:16 0.000341172
7 *126:12 0.000203115
8 *126:10 0.000421623
9 *1058:B1 *236:42 8.48709e-05
10 *126:10 *1040:A 0.000115425
11 *126:10 *128:8 2.36418e-05
12 *126:10 *235:109 4.92509e-05
13 *126:10 *236:48 1.13812e-05
14 *126:10 *237:59 2.56281e-05
15 *126:10 *238:59 6.12392e-05
16 *126:10 *286:14 0.000603675
17 *126:10 *331:26 1.61361e-05
18 *126:16 *127:8 3.62251e-05
19 *126:16 *127:17 3.46476e-05
20 *126:16 *236:42 0.000179725
21 *126:22 *127:25 8.57485e-05
22 *126:22 *293:24 8.57485e-05
23 *1040:B *126:10 2.45549e-06
*RES
1 *1040:Y *126:10 47.7771 
2 *126:10 *126:12 15 
3 *126:12 *126:16 3.02429 
4 *126:16 *126:22 31.2014 
5 *126:22 *1056:C 23 
6 *126:16 *1058:B1 24.595 
7 *126:12 *1042:C 23 
*END

*D_NET *127 0.00258182
*CONN
*I *1058:B2 I *D sky130_fd_sc_hd__a22o_1
*I *1056:D I *D sky130_fd_sc_hd__nand4_1
*I *1042:D I *D sky130_fd_sc_hd__and4_1
*I *1041:X O *D sky130_fd_sc_hd__a22o_1
*CAP
1 *1058:B2 1.24153e-05
2 *1056:D 0
3 *1042:D 0
4 *1041:X 0.00048955
5 *127:25 0.000104594
6 *127:17 0.000204202
7 *127:8 0.000576743
8 *1058:B2 *236:42 4.33627e-05
9 *1058:B2 *238:59 5.58003e-05
10 *127:8 *1039:B 9.79925e-05
11 *127:8 *237:59 0.000236765
12 *127:17 *236:42 0.000138859
13 *127:17 *237:59 2.73934e-05
14 *127:17 *238:59 0.000224411
15 *127:25 *1056:B 5.68873e-05
16 *127:25 *235:109 0.000134767
17 *127:25 *293:24 2.14599e-05
18 *126:16 *127:8 3.62251e-05
19 *126:16 *127:17 3.46476e-05
20 *126:22 *127:25 8.57485e-05
*RES
1 *1041:X *127:8 29.3593 
2 *127:8 *1042:D 23 
3 *127:8 *127:17 3.02429 
4 *127:17 *127:25 32.755 
5 *127:25 *1056:D 23 
6 *127:17 *1058:B2 23.6214 
*END

*D_NET *128 0.00122364
*CONN
*I *1044:A2 I *D sky130_fd_sc_hd__o211a_1
*I *1043:C1 I *D sky130_fd_sc_hd__a211o_1
*I *1042:X O *D sky130_fd_sc_hd__and4_1
*CAP
1 *1044:A2 7.00895e-05
2 *1043:C1 7.47425e-05
3 *1042:X 0.000179006
4 *128:8 0.000323838
5 *1043:C1 *233:44 1.94151e-05
6 *1044:A2 *129:10 1.09834e-05
7 *128:8 *233:44 0.000305058
8 *128:8 *237:59 1.13812e-05
9 *1044:A1 *1044:A2 0.000141644
10 *123:28 *1044:A2 6.38427e-05
11 *126:10 *128:8 2.36418e-05
*RES
1 *1042:X *128:8 42.3707 
2 *128:8 *1043:C1 39.1186 
3 *128:8 *1044:A2 40.2164 
*END

*D_NET *129 0.00253151
*CONN
*I *1045:A3 I *D sky130_fd_sc_hd__a31o_1
*I *1065:B I *D sky130_fd_sc_hd__and2b_1
*I *1043:X O *D sky130_fd_sc_hd__a211o_1
*CAP
1 *1045:A3 0
2 *1065:B 0.000132403
3 *1043:X 0.000739076
4 *129:10 0.000871478
5 *1065:B *235:109 0.000218838
6 *1065:B *293:24 7.66914e-06
7 *129:10 *1045:B1 2.64616e-05
8 *129:10 *130:6 2.64616e-05
9 *129:10 *235:99 6.38342e-05
10 *129:10 *235:109 2.74096e-05
11 *129:10 *280:14 0
12 *129:10 *288:44 0.00039552
13 *1044:A1 *129:10 3.95707e-06
14 *1044:A2 *129:10 1.09834e-05
15 *1045:A1 *129:10 7.42268e-06
*RES
1 *1043:X *129:10 48.3986 
2 *129:10 *1065:B 41.3143 
3 *129:10 *1045:A3 38 
*END

*D_NET *130 0.000739817
*CONN
*I *1045:B1 I *D sky130_fd_sc_hd__a31o_1
*I *1065:A_N I *D sky130_fd_sc_hd__and2b_1
*I *1044:X O *D sky130_fd_sc_hd__o211a_1
*CAP
1 *1045:B1 3.53094e-05
2 *1065:A_N 0
3 *1044:X 4.11597e-05
4 *130:14 9.84628e-05
5 *130:6 0.000174932
6 *130:14 *293:24 0.000168515
7 *57:31 *130:14 0.000168515
8 *129:10 *1045:B1 2.64616e-05
9 *129:10 *130:6 2.64616e-05
*RES
1 *1044:X *130:6 23.6214 
2 *130:6 *130:14 33.1071 
3 *130:14 *1065:A_N 23 
4 *130:6 *1045:B1 23.6214 
*END

*D_NET *131 0.00290806
*CONN
*I *1054:B1 I *D sky130_fd_sc_hd__a21oi_1
*I *1053:A I *D sky130_fd_sc_hd__and3_2
*I *1045:X O *D sky130_fd_sc_hd__a31o_1
*CAP
1 *1054:B1 0
2 *1053:A 0.000287069
3 *1045:X 0.000686193
4 *131:14 0.000339973
5 *131:10 0.000739097
6 *1053:A *1053:C 2.28308e-05
7 *1053:A *1054:A1 2.46906e-05
8 *1053:A *1054:A2 0.00015921
9 *1053:A *138:8 7.65141e-05
10 *1053:A *139:14 9.77922e-06
11 *1053:A *274:10 2.93431e-05
12 *131:10 *964:D 0
13 *131:10 *982:B1 1.69395e-05
14 *131:10 *1172:A 0.000110184
15 *131:10 *233:125 0
16 *131:10 *233:144 0
17 *131:10 *274:10 2.86129e-05
18 *131:10 *280:14 0.000200431
19 *131:10 *293:24 0
20 *131:14 *274:10 5.40241e-05
21 *1045:A1 *131:10 1.13134e-05
22 *69:10 *131:10 0.000111852
*RES
1 *1045:X *131:10 49.5793 
2 *131:10 *131:14 16.0979 
3 *131:14 *1053:A 28.7171 
4 *131:14 *1054:B1 23 
*END

*D_NET *132 0.00238556
*CONN
*I *1080:A I *D sky130_fd_sc_hd__and3_1
*I *1049:A I *D sky130_fd_sc_hd__nand3_1
*I *1050:A1 I *D sky130_fd_sc_hd__a21o_1
*I *1046:Y O *D sky130_fd_sc_hd__nand3_1
*CAP
1 *1080:A 5.56911e-05
2 *1049:A 0
3 *1050:A1 0
4 *1046:Y 0.000300383
5 *132:31 0.000120065
6 *132:19 0.000279488
7 *132:12 0.000404115
8 *1080:A *1080:C 4.67488e-05
9 *1080:A *136:6 5.3304e-05
10 *132:12 *1050:A2 6.49812e-05
11 *132:12 *235:32 0.000227473
12 *132:12 *286:73 2.31591e-05
13 *132:19 *1050:A2 6.17437e-06
14 *132:19 *1050:B1 5.3304e-05
15 *132:19 *1080:C 3.44001e-05
16 *132:31 *1049:B 1.32314e-05
17 *132:31 *1049:C 1.37232e-05
18 *132:31 *135:10 6.17437e-06
19 *132:31 *288:81 0.000114083
20 *132:31 *316:119 0.000114083
21 *1046:A *132:12 6.8137e-05
22 *110:14 *132:12 0.000263538
23 *110:23 *132:12 9.14874e-05
24 *111:34 *132:12 3.18142e-05
*RES
1 *1046:Y *132:12 30.83 
2 *132:12 *1050:A1 23 
3 *132:12 *132:19 1.57429 
4 *132:19 *132:31 33.1693 
5 *132:31 *1049:A 23 
6 *132:19 *1080:A 24.0979 
*END

*D_NET *133 0.00328574
*CONN
*I *1080:B I *D sky130_fd_sc_hd__and3_1
*I *1050:B1 I *D sky130_fd_sc_hd__a21o_1
*I *1049:B I *D sky130_fd_sc_hd__nand3_1
*I *1047:X O *D sky130_fd_sc_hd__a21bo_1
*CAP
1 *1080:B 0.000268644
2 *1050:B1 2.32701e-05
3 *1049:B 7.01508e-05
4 *1047:X 0.000281235
5 *133:23 0.000422691
6 *133:8 0.000482162
7 *1049:B *1049:C 5.50106e-05
8 *1049:B *316:119 7.15126e-05
9 *1050:B1 *1080:C 5.3304e-05
10 *1080:B *1080:C 0.000124896
11 *1080:B *134:19 2.55642e-05
12 *1080:B *288:81 8.72173e-05
13 *133:8 *288:66 9.80568e-05
14 *133:8 *288:81 9.70251e-05
15 *133:8 *316:123 0.000211691
16 *133:8 *316:133 8.62876e-05
17 *133:23 *134:19 0.000140958
18 *133:23 *288:81 0.000182233
19 *111:22 *1080:B 2.84912e-05
20 *111:22 *133:8 3.70187e-05
21 *111:22 *133:23 2.99561e-05
22 *120:18 *133:8 0.000170917
23 *122:23 *133:8 0.000170917
24 *132:19 *1050:B1 5.3304e-05
25 *132:31 *1049:B 1.32314e-05
*RES
1 *1047:X *133:8 45.8921 
2 *133:8 *1049:B 39.5743 
3 *133:8 *133:23 3.37643 
4 *133:23 *1050:B1 38.6214 
5 *133:23 *1080:B 42.205 
*END

*D_NET *134 0.00155194
*CONN
*I *1080:C I *D sky130_fd_sc_hd__and3_1
*I *1050:A2 I *D sky130_fd_sc_hd__a21o_1
*I *1049:C I *D sky130_fd_sc_hd__nand3_1
*I *1048:X O *D sky130_fd_sc_hd__a21o_1
*CAP
1 *1080:C 0.000192751
2 *1050:A2 6.17302e-05
3 *1049:C 5.01259e-05
4 *1048:X 0
5 *134:19 0.000323448
6 *134:4 0.000119093
7 *1080:C *1081:B1 0
8 *1080:C *136:6 7.25076e-05
9 *1049:B *1049:C 5.50106e-05
10 *1050:B1 *1080:C 5.3304e-05
11 *1080:A *1080:C 4.67488e-05
12 *1080:B *1080:C 0.000124896
13 *1080:B *134:19 2.55642e-05
14 *111:22 *134:19 0.000166522
15 *132:12 *1050:A2 6.49812e-05
16 *132:19 *1050:A2 6.17437e-06
17 *132:19 *1080:C 3.44001e-05
18 *132:31 *1049:C 1.37232e-05
19 *133:23 *134:19 0.000140958
*RES
1 *1048:X *134:4 23 
2 *134:4 *1049:C 24.1186 
3 *134:4 *134:19 32.2579 
4 *134:19 *1050:A2 24.1186 
5 *134:19 *1080:C 27.5571 
*END

*D_NET *135 0.00174854
*CONN
*I *1052:B1 I *D sky130_fd_sc_hd__a22o_1
*I *1051:C I *D sky130_fd_sc_hd__nand4_1
*I *1049:Y O *D sky130_fd_sc_hd__nand3_1
*CAP
1 *1052:B1 0
2 *1051:C 0
3 *1049:Y 0.000290432
4 *135:25 0.000227304
5 *135:10 0.000517736
6 *135:10 *136:14 1.14154e-05
7 *135:10 *234:35 0.000182832
8 *135:10 *316:119 0
9 *135:25 *1052:A2 4.95081e-05
10 *135:25 *1052:B2 9.5877e-05
11 *135:25 *233:69 0.000167452
12 *135:25 *234:25 0.000113153
13 *135:25 *234:35 8.66551e-05
14 *132:31 *135:10 6.17437e-06
*RES
1 *1049:Y *135:10 28.4271 
2 *135:10 *1051:C 23 
3 *135:10 *135:25 35.4064 
4 *135:25 *1052:B1 23 
*END

*D_NET *136 0.0016823
*CONN
*I *1052:B2 I *D sky130_fd_sc_hd__a22o_1
*I *1081:A3 I *D sky130_fd_sc_hd__a31o_1
*I *1051:D I *D sky130_fd_sc_hd__nand4_1
*I *1050:X O *D sky130_fd_sc_hd__a21o_1
*CAP
1 *1052:B2 5.13375e-05
2 *1081:A3 0
3 *1051:D 0
4 *1050:X 0.000306495
5 *136:23 0.000169407
6 *136:14 9.16584e-05
7 *136:6 0.000516224
8 *1052:B2 *1052:A2 8.43466e-05
9 *1052:B2 *1081:A2 5.50106e-05
10 *136:6 *1081:B1 2.72257e-05
11 *136:14 *234:25 3.47776e-05
12 *136:14 *234:35 6.07611e-06
13 *136:14 *272:18 8.62783e-05
14 *136:23 *1052:A2 0
15 *136:23 *1081:A2 1.57571e-05
16 *1080:A *136:6 5.3304e-05
17 *1080:C *136:6 7.25076e-05
18 *1081:A1 *136:6 8.91468e-07
19 *1081:A1 *136:23 3.70553e-06
20 *135:10 *136:14 1.14154e-05
21 *135:25 *1052:B2 9.5877e-05
*RES
1 *1050:X *136:6 26.9564 
2 *136:6 *136:14 32.0507 
3 *136:14 *1051:D 23 
4 *136:6 *136:23 1.94714 
5 *136:23 *1081:A3 23 
6 *136:23 *1052:B2 24.5743 
*END

*D_NET *137 0.00220936
*CONN
*I *1053:B I *D sky130_fd_sc_hd__and3_2
*I *1054:A1 I *D sky130_fd_sc_hd__a21oi_1
*I *1051:Y O *D sky130_fd_sc_hd__nand4_1
*CAP
1 *1053:B 0
2 *1054:A1 0.00011793
3 *1051:Y 0.000370517
4 *137:14 0.000207236
5 *137:10 0.000459823
6 *1054:A1 *1053:C 0
7 *1054:A1 *1054:A2 0.00018611
8 *1054:A1 *138:8 2.69545e-05
9 *1054:A1 *139:14 0.000146197
10 *137:10 *271:60 0.000114645
11 *137:14 *138:8 2.63049e-05
12 *1051:A *137:10 4.5051e-05
13 *1053:A *1054:A1 2.46906e-05
14 *57:31 *137:10 0.000216721
15 *65:18 *137:10 0.000267178
*RES
1 *1051:Y *137:10 44.9186 
2 *137:10 *137:14 16.0979 
3 *137:14 *1054:A1 26.8736 
4 *137:14 *1053:B 23 
*END

*D_NET *138 0.000822582
*CONN
*I *1054:A2 I *D sky130_fd_sc_hd__a21oi_1
*I *1053:C I *D sky130_fd_sc_hd__and3_2
*I *1052:X O *D sky130_fd_sc_hd__a22o_1
*CAP
1 *1054:A2 3.72506e-05
2 *1053:C 1.50833e-05
3 *1052:X 9.98692e-05
4 *138:8 0.000152203
5 *138:8 *1052:A2 2.02517e-05
6 *1053:A *1053:C 2.28308e-05
7 *1053:A *1054:A2 0.00015921
8 *1053:A *138:8 7.65141e-05
9 *1054:A1 *1053:C 0
10 *1054:A1 *1054:A2 0.00018611
11 *1054:A1 *138:8 2.69545e-05
12 *137:14 *138:8 2.63049e-05
*RES
1 *1052:X *138:8 25.4236 
2 *138:8 *1053:C 23.4971 
3 *138:8 *1054:A2 25.0507 
*END

*D_NET *139 0.00704062
*CONN
*I *1086:A I *D sky130_fd_sc_hd__xor2_2
*I *1119:A I *D sky130_fd_sc_hd__nand2_1
*I *1090:A1 I *D sky130_fd_sc_hd__a21o_1
*I *1055:A I *D sky130_fd_sc_hd__nor2_1
*I *1053:X O *D sky130_fd_sc_hd__and3_2
*CAP
1 *1086:A 0
2 *1119:A 0
3 *1090:A1 0
4 *1055:A 0
5 *1053:X 0.000286083
6 *139:66 0.00016391
7 *139:56 0.000503392
8 *139:39 0.000998383
9 *139:33 0.00147854
10 *139:14 0.00110572
11 *139:14 *140:10 0.000134854
12 *139:14 *241:148 2.48764e-05
13 *139:14 *274:10 0.000143874
14 *139:14 *293:24 0
15 *139:33 *241:148 0.000157955
16 *139:33 *270:28 0
17 *139:33 *285:49 0
18 *139:33 *327:36 3.16784e-05
19 *139:56 *1097:A 5.3304e-05
20 *139:56 *169:29 0.000243064
21 *139:56 *170:18 0.000208694
22 *139:56 *183:12 0.000119153
23 *139:66 *1085:A 0
24 *139:66 *1118:B 2.76611e-06
25 *139:66 *171:12 6.26126e-05
26 *139:66 *171:16 4.31366e-05
27 *1014:B *139:33 0.00034388
28 *1053:A *139:14 9.77922e-06
29 *1054:A1 *139:14 0.000146197
30 *69:10 *139:14 0.000168282
31 *69:10 *139:33 8.06952e-05
32 *72:18 *139:33 0.00025582
33 *97:12 *139:33 1.24376e-05
34 *97:29 *139:33 0
35 *97:29 *139:39 0
36 *99:10 *139:33 2.98816e-05
37 *99:10 *139:39 0
38 *99:34 *139:39 8.50366e-05
39 *100:10 *139:33 0
40 *101:10 *139:39 0.000109352
41 *105:10 *139:39 3.72639e-05
42 *106:14 *139:39 0
43 *118:14 *139:39 0
*RES
1 *1053:X *139:14 44.8564 
2 *139:14 *1055:A 38 
3 *139:14 *139:33 46.2193 
4 *139:33 *139:39 12.4286 
5 *139:39 *1090:A1 38 
6 *139:39 *139:56 23.265 
7 *139:56 *139:66 33.3764 
8 *139:66 *1119:A 23 
9 *139:56 *1086:A 23 
*END

*D_NET *140 0.00069725
*CONN
*I *1055:B I *D sky130_fd_sc_hd__nor2_1
*I *1054:Y O *D sky130_fd_sc_hd__a21oi_1
*CAP
1 *1055:B 0.000140575
2 *1054:Y 0.00010807
3 *140:10 0.000248644
4 *1055:B *241:148 5.52998e-05
5 *1055:B *286:119 9.80703e-06
6 *140:10 *293:24 0
7 *139:14 *140:10 0.000134854
*RES
1 *1054:Y *140:10 39.8229 
2 *140:10 *1055:B 40.2993 
*END

*D_NET *141 0.00727512
*CONN
*I *1105:A I *D sky130_fd_sc_hd__xor2_1
*I *1092:A1 I *D sky130_fd_sc_hd__a41o_1
*I *1116:A I *D sky130_fd_sc_hd__and2_1
*I *1055:Y O *D sky130_fd_sc_hd__nor2_1
*CAP
1 *1105:A 0.000116948
2 *1092:A1 0.000155437
3 *1116:A 4.24639e-05
4 *1055:Y 0.000442012
5 *141:24 0.00088998
6 *141:16 0.00153999
7 *141:8 0.00117297
8 *1092:A1 *164:33 6.17437e-06
9 *1092:A1 *177:10 5.82853e-05
10 *1092:A1 *178:12 0.000180465
11 *1092:A1 *202:8 5.71002e-06
12 *1092:A1 *202:21 1.00286e-05
13 *1105:A *327:36 5.10805e-05
14 *1116:A *164:23 2.64616e-05
15 *141:8 *241:148 9.70797e-05
16 *141:8 *286:119 0.000179725
17 *141:16 *270:28 0
18 *141:16 *295:10 0.00053946
19 *141:16 *327:36 0.000162104
20 *141:24 *1094:B1 4.83838e-05
21 *141:24 *1110:A2 0
22 *141:24 *164:23 0
23 *141:24 *178:12 0.000221124
24 *141:24 *180:12 6.78567e-05
25 *141:24 *196:10 0.000135557
26 *141:24 *197:8 8.85189e-05
27 *1017:A *1105:A 4.17736e-05
28 *1017:A *141:16 0.000143655
29 *73:10 *141:16 0.000132337
30 *79:25 *141:24 0.000218962
31 *101:47 *141:24 7.76364e-06
32 *103:8 *141:24 0
33 *104:12 *141:24 6.35385e-05
34 *119:42 *1092:A1 0.000208209
35 *119:42 *141:24 0.000221064
*RES
1 *1055:Y *141:8 44.3386 
2 *141:8 *141:16 29.3757 
3 *141:16 *141:24 29.645 
4 *141:24 *1116:A 38.6214 
5 *141:24 *1092:A1 42.06 
6 *141:16 *1105:A 25.5479 
*END

*D_NET *142 0.00271172
*CONN
*I *1059:A I *D sky130_fd_sc_hd__and3_1
*I *1061:A1 I *D sky130_fd_sc_hd__a21oi_1
*I *1056:Y O *D sky130_fd_sc_hd__nand4_1
*CAP
1 *1059:A 4.11939e-05
2 *1061:A1 0
3 *1056:Y 0.000204502
4 *142:18 0.00032936
5 *142:8 0.000575056
6 *1059:A *1059:C 0.000177398
7 *1059:A *144:12 5.50106e-05
8 *142:8 *1056:B 4.01053e-05
9 *142:8 *144:12 0.000137361
10 *142:8 *272:24 1.24365e-05
11 *142:18 *1059:B 0
12 *142:18 *144:20 0.000466947
13 *142:18 *151:10 1.35999e-05
14 *142:18 *280:14 0.000378432
15 *57:8 *142:8 8.39513e-05
16 *57:68 *1059:A 0.000123539
17 *57:68 *142:8 7.28308e-05
*RES
1 *1056:Y *142:8 27.6814 
2 *142:8 *142:18 37.975 
3 *142:18 *1061:A1 23 
4 *142:8 *1059:A 25.5271 
*END

*D_NET *143 0.00224741
*CONN
*I *1070:A_N I *D sky130_fd_sc_hd__and4b_1
*I *1061:B1 I *D sky130_fd_sc_hd__a21oi_1
*I *1059:B I *D sky130_fd_sc_hd__and3_1
*I *1057:X O *D sky130_fd_sc_hd__and4_1
*CAP
1 *1070:A_N 0.000450575
2 *1061:B1 0.000103935
3 *1059:B 0.000282629
4 *1057:X 0
5 *143:6 0.000386564
6 *143:4 0.000450575
7 *1059:B *144:20 0
8 *1059:B *272:45 0.000229927
9 *1059:B *272:60 3.46586e-05
10 *1059:B *280:14 0
11 *1059:B *332:35 7.34394e-06
12 *1061:B1 *272:60 7.51623e-05
13 *1070:A_N *1070:B 3.60434e-06
14 *1070:A_N *236:34 1.9054e-05
15 *1070:A_N *237:72 0.00016679
16 *1070:A_N *237:85 3.65917e-05
17 *142:18 *1059:B 0
*RES
1 *1057:X *143:4 23 
2 *143:4 *143:6 15 
3 *143:6 *1059:B 43.4893 
4 *143:6 *1061:B1 40.2579 
5 *143:4 *1070:A_N 29.235 
*END

*D_NET *144 0.00234436
*CONN
*I *1059:C I *D sky130_fd_sc_hd__and3_1
*I *1061:A2 I *D sky130_fd_sc_hd__a21oi_1
*I *1058:X O *D sky130_fd_sc_hd__a22o_1
*CAP
1 *1059:C 0.000202519
2 *1061:A2 0
3 *1058:X 4.83753e-05
4 *144:20 0.000273973
5 *144:12 0.000635972
6 *144:8 0.000207855
7 *144:8 *971:A 2.23884e-05
8 *144:8 *272:32 8.50457e-05
9 *1059:A *1059:C 0.000177398
10 *1059:A *144:12 5.50106e-05
11 *1059:B *144:20 0
12 *57:68 *1059:C 3.15198e-05
13 *142:8 *144:12 0.000137361
14 *142:18 *144:20 0.000466947
*RES
1 *1058:X *144:8 39.2014 
2 *144:8 *144:12 17.0507 
3 *144:12 *144:20 36.1729 
4 *144:20 *1061:A2 23 
5 *144:12 *1059:C 26.0864 
*END

*D_NET *145 0.00234443
*CONN
*I *1063:A I *D sky130_fd_sc_hd__or2b_1
*I *1062:A I *D sky130_fd_sc_hd__or3_1
*I *1068:A1 I *D sky130_fd_sc_hd__o21ai_1
*I *1059:X O *D sky130_fd_sc_hd__and3_1
*CAP
1 *1063:A 0.000124959
2 *1062:A 0
3 *1068:A1 0
4 *1059:X 0.000138349
5 *145:21 0.000232036
6 *145:12 0.000192438
7 *145:6 0.000437864
8 *145:12 *1068:B1 7.17358e-06
9 *145:12 *147:14 0.000366022
10 *145:12 *237:85 2.70469e-05
11 *145:12 *295:16 0.000470475
12 *145:21 *147:14 2.93747e-05
13 *57:68 *145:6 0.000141052
14 *57:87 *1063:A 0.000126847
15 *57:87 *145:6 2.62931e-05
16 *57:87 *145:21 2.45032e-05
*RES
1 *1059:X *145:6 25.5271 
2 *145:6 *145:12 36.4836 
3 *145:12 *1068:A1 23 
4 *145:6 *145:21 2.07143 
5 *145:21 *1062:A 23 
6 *145:21 *1063:A 26.3764 
*END

*D_NET *146 0.00120783
*CONN
*I *1068:B1 I *D sky130_fd_sc_hd__o21ai_1
*I *1062:B I *D sky130_fd_sc_hd__or3_1
*I *1060:Y O *D sky130_fd_sc_hd__nand2_1
*CAP
1 *1068:B1 7.13185e-05
2 *1062:B 0.000309172
3 *1060:Y 4.30303e-05
4 *146:8 0.000423521
5 *1062:B *1063:B_N 1.99702e-05
6 *1062:B *147:14 4.14116e-05
7 *1062:B *148:19 1.54492e-05
8 *1062:B *236:34 5.03962e-05
9 *1062:B *237:85 0.000117626
10 *1068:B1 *147:14 6.5117e-06
11 *146:8 *154:8 5.58003e-05
12 *1070:C *1062:B 1.70419e-05
13 *3:9 *1062:B 0
14 *71:89 *1062:B 1.79317e-05
15 *71:89 *1068:B1 1.14781e-05
16 *145:12 *1068:B1 7.17358e-06
*RES
1 *1060:Y *146:8 38.6214 
2 *146:8 *1062:B 43.7793 
3 *146:8 *1068:B1 39.6157 
*END

*D_NET *147 0.00174093
*CONN
*I *1068:A2 I *D sky130_fd_sc_hd__o21ai_1
*I *1062:C I *D sky130_fd_sc_hd__or3_1
*I *1061:Y O *D sky130_fd_sc_hd__a21oi_1
*CAP
1 *1068:A2 0
2 *1062:C 0
3 *1061:Y 0.000322851
4 *147:14 0.000201067
5 *147:6 0.000523918
6 *147:14 *237:85 0.000180564
7 *1062:B *147:14 4.14116e-05
8 *1068:B1 *147:14 6.5117e-06
9 *57:87 *147:14 5.3304e-05
10 *71:76 *147:6 1.59094e-05
11 *145:12 *147:14 0.000366022
12 *145:21 *147:14 2.93747e-05
*RES
1 *1061:Y *147:6 27.4329 
2 *147:6 *147:14 35.6964 
3 *147:14 *1062:C 23 
4 *147:6 *1068:A2 23 
*END

*D_NET *148 0.00187728
*CONN
*I *1075:A I *D sky130_fd_sc_hd__and3_1
*I *1071:A1 I *D sky130_fd_sc_hd__a21oi_1
*I *1063:B_N I *D sky130_fd_sc_hd__or2b_1
*I *1062:X O *D sky130_fd_sc_hd__or3_1
*CAP
1 *1075:A 0.00025212
2 *1071:A1 0.000192112
3 *1063:B_N 4.17983e-05
4 *1062:X 4.29786e-05
5 *148:19 0.000520351
6 *148:8 0.000160895
7 *1071:A1 *1070:D 7.02666e-06
8 *1071:A1 *236:18 1.44199e-05
9 *1071:A1 *236:34 8.06804e-06
10 *1071:A1 *238:92 9.66668e-05
11 *1075:A *1060:B 5.58003e-05
12 *1075:A *236:34 1.05916e-05
13 *1075:A *238:80 1.57519e-05
14 *148:19 *238:80 2.12347e-06
15 *1062:B *1063:B_N 1.99702e-05
16 *1062:B *148:19 1.54492e-05
17 *1070:C *1075:A 6.12392e-05
18 *3:9 *1063:B_N 0
19 *3:9 *1075:A 5.81897e-05
20 *3:9 *148:19 0
21 *57:87 *148:8 5.50049e-05
22 *71:89 *1075:A 0.000187612
23 *71:110 *1075:A 5.91105e-05
*RES
1 *1062:X *148:8 38.6214 
2 *148:8 *1063:B_N 38.8493 
3 *148:8 *148:19 1.20143 
4 *148:19 *1071:A1 40.5271 
5 *148:19 *1075:A 43.6136 
*END

*D_NET *149 0.00302425
*CONN
*I *1067:A I *D sky130_fd_sc_hd__or2_1
*I *1099:A I *D sky130_fd_sc_hd__xnor2_1
*I *1077:A I *D sky130_fd_sc_hd__and2_1
*I *1063:X O *D sky130_fd_sc_hd__or2b_1
*CAP
1 *1067:A 9.83323e-05
2 *1099:A 3.27609e-05
3 *1077:A 8.00942e-05
4 *1063:X 0.000373734
5 *149:12 0.000211187
6 *149:10 0.000373734
7 *1067:A *1067:B 0.000115628
8 *1067:A *185:14 3.0918e-05
9 *1067:A *235:80 0.00034471
10 *1077:A *1077:B 1.12796e-05
11 *1077:A *152:8 3.26241e-05
12 *1077:A *152:17 8.13511e-05
13 *1077:A *235:80 0.000265572
14 *1099:A *1067:B 4.21921e-05
15 *1099:A *152:17 1.35999e-05
16 *149:10 *154:23 3.21898e-05
17 *149:10 *156:10 0.000187612
18 *149:10 *316:32 5.68297e-05
19 *3:9 *149:10 3.05092e-05
20 *57:87 *149:10 0.000208309
21 *57:100 *149:10 0.00040108
*RES
1 *1063:X *149:10 46.2857 
2 *149:10 *149:12 15 
3 *149:12 *1077:A 26.0243 
4 *149:12 *1099:A 24.1186 
5 *149:12 *1067:A 26.9564 
*END

*D_NET *150 0.00151377
*CONN
*I *1066:A I *D sky130_fd_sc_hd__xnor2_1
*I *1064:Y O *D sky130_fd_sc_hd__nand2_1
*CAP
1 *1066:A 9.6061e-05
2 *1064:Y 0.000248156
3 *150:10 0.000344217
4 *1066:A *152:8 2.93335e-05
5 *150:10 *964:D 6.07306e-05
6 *150:10 *152:8 0.000349509
7 *150:10 *272:60 1.08242e-05
8 *150:10 *276:10 0.000141355
9 *1045:A1 *1066:A 0.000233587
*RES
1 *1064:Y *150:10 43.1579 
2 *150:10 *1066:A 41.0243 
*END

*D_NET *151 0.000759463
*CONN
*I *1066:B I *D sky130_fd_sc_hd__xnor2_1
*I *1065:X O *D sky130_fd_sc_hd__and2b_1
*CAP
1 *1066:B 0
2 *1065:X 0.000290846
3 *151:10 0.000290846
4 *151:10 *280:14 0.000164171
5 *142:18 *151:10 1.35999e-05
*RES
1 *1065:X *151:10 42.3086 
2 *151:10 *1066:B 38 
*END

*D_NET *152 0.00262764
*CONN
*I *1067:B I *D sky130_fd_sc_hd__or2_1
*I *1099:B I *D sky130_fd_sc_hd__xnor2_1
*I *1077:B I *D sky130_fd_sc_hd__and2_1
*I *1066:Y O *D sky130_fd_sc_hd__xnor2_1
*CAP
1 *1067:B 0.000108377
2 *1099:B 0
3 *1077:B 1.96722e-05
4 *1066:Y 0.000374371
5 *152:17 0.000194192
6 *152:8 0.000479858
7 *1067:B *163:10 7.79323e-05
8 *1067:B *185:14 9.79925e-05
9 *1067:B *235:80 1.1258e-05
10 *152:8 *964:A 1.45713e-05
11 *152:8 *964:B 1.03641e-05
12 *152:8 *964:D 5.3304e-05
13 *152:8 *1064:B 9.66585e-05
14 *152:8 *235:80 0.000245769
15 *152:8 *276:10 2.50118e-05
16 *152:17 *163:10 5.45644e-05
17 *1045:A1 *152:8 7.23171e-05
18 *1066:A *152:8 2.93335e-05
19 *1067:A *1067:B 0.000115628
20 *1077:A *1077:B 1.12796e-05
21 *1077:A *152:8 3.26241e-05
22 *1077:A *152:17 8.13511e-05
23 *1099:A *1067:B 4.21921e-05
24 *1099:A *152:17 1.35999e-05
25 *71:123 *152:8 1.59094e-05
26 *150:10 *152:8 0.000349509
*RES
1 *1066:Y *152:8 32.6943 
2 *152:8 *1077:B 23.4971 
3 *152:8 *152:17 2.05071 
4 *152:17 *1099:B 23 
5 *152:17 *1067:B 26.5007 
*END

*D_NET *153 0.000991552
*CONN
*I *1078:A1 I *D sky130_fd_sc_hd__a21o_1
*I *1067:X O *D sky130_fd_sc_hd__or2_1
*CAP
1 *1078:A1 0
2 *1067:X 0.000209402
3 *153:10 0.000209402
4 *153:10 *185:14 0.000233044
5 *153:10 *241:123 0.000168788
6 *153:10 *272:115 0.000170917
*RES
1 *1067:X *153:10 42.785 
2 *153:10 *1078:A1 38 
*END

*D_NET *154 0.00145763
*CONN
*I *1071:A2 I *D sky130_fd_sc_hd__a21oi_1
*I *1075:B I *D sky130_fd_sc_hd__and3_1
*I *1068:Y O *D sky130_fd_sc_hd__o21ai_1
*CAP
1 *1071:A2 0
2 *1075:B 0
3 *1068:Y 0.000247078
4 *154:23 0.00016632
5 *154:8 0.000413398
6 *154:8 *1060:B 0.00012015
7 *154:23 *1060:B 1.21972e-05
8 *154:23 *156:10 8.36198e-05
9 *154:23 *238:92 5.58003e-05
10 *1073:B *154:23 5.3304e-05
11 *3:9 *154:23 0.000157147
12 *71:76 *154:8 3.46216e-05
13 *71:89 *154:8 2.60063e-05
14 *146:8 *154:8 5.58003e-05
15 *149:10 *154:23 3.21898e-05
*RES
1 *1068:Y *154:8 27.93 
2 *154:8 *1075:B 23 
3 *154:8 *154:23 33.5007 
4 *154:23 *1071:A2 23 
*END

*D_NET *155 0.000456047
*CONN
*I *1070:B I *D sky130_fd_sc_hd__and4b_1
*I *1069:X O *D sky130_fd_sc_hd__a22o_1
*CAP
1 *1070:B 0.000205827
2 *1069:X 0.000205827
3 *1070:B *236:34 1.43261e-05
4 *1070:B *237:85 2.64616e-05
5 *1070:A_N *1070:B 3.60434e-06
*RES
1 *1069:X *1070:B 48.5271 
*END

*D_NET *156 0.00237277
*CONN
*I *1071:B1 I *D sky130_fd_sc_hd__a21oi_1
*I *1075:C I *D sky130_fd_sc_hd__and3_1
*I *1070:X O *D sky130_fd_sc_hd__and4b_1
*CAP
1 *1071:B1 0
2 *1075:C 6.41438e-05
3 *1070:X 0.000204879
4 *156:29 0.00028028
5 *156:12 0.000344424
6 *156:10 0.000204879
7 *1075:C *1060:B 3.90896e-05
8 *1075:C *316:47 5.3304e-05
9 *156:10 *236:18 0.000140021
10 *156:10 *316:32 6.12392e-05
11 *156:29 *236:104 5.91105e-05
12 *156:29 *238:92 6.20906e-05
13 *156:29 *272:115 9.21995e-05
14 *156:29 *316:47 0.000122599
15 *1073:B *156:29 9.41704e-05
16 *3:9 *156:10 1.79668e-05
17 *57:100 *156:29 0.000261139
18 *149:10 *156:10 0.000187612
19 *154:23 *156:10 8.36198e-05
*RES
1 *1070:X *156:10 42.1843 
2 *156:10 *156:12 15 
3 *156:12 *1075:C 23.9321 
4 *156:12 *156:29 36.3386 
5 *156:29 *1071:B1 23 
*END

*D_NET *157 0.00239647
*CONN
*I *1101:B I *D sky130_fd_sc_hd__or2_1
*I *1076:A1 I *D sky130_fd_sc_hd__o21bai_1
*I *1071:Y O *D sky130_fd_sc_hd__a21oi_1
*CAP
1 *1101:B 9.92451e-05
2 *1076:A1 0
3 *1071:Y 0.000595508
4 *157:12 9.09649e-05
5 *157:6 0.000785718
6 *1101:B *1074:A 3.86731e-05
7 *157:6 *1072:B 2.46906e-05
8 *157:6 *1074:A 7.77235e-05
9 *157:6 *159:8 2.91905e-05
10 *157:6 *236:16 0.000309969
11 *157:6 *236:18 0.000135037
12 *157:12 *160:8 0.000162416
13 *157:12 *161:14 4.73379e-05
*RES
1 *1071:Y *157:6 31.2443 
2 *157:6 *157:12 32.2579 
3 *157:12 *1076:A1 23 
4 *157:6 *1101:B 24.8229 
*END

*D_NET *158 0.00033075
*CONN
*I *1074:A I *D sky130_fd_sc_hd__nand2_1
*I *1072:Y O *D sky130_fd_sc_hd__xnor2_1
*CAP
1 *1074:A 8.97701e-05
2 *1072:Y 8.97701e-05
3 *1074:A *159:8 3.48133e-05
4 *1101:B *1074:A 3.86731e-05
5 *157:6 *1074:A 7.77235e-05
*RES
1 *1072:Y *1074:A 48.5686 
*END

*D_NET *159 0.000669517
*CONN
*I *1074:B I *D sky130_fd_sc_hd__nand2_1
*I *1073:X O *D sky130_fd_sc_hd__and4_1
*CAP
1 *1074:B 0
2 *1073:X 0.000218575
3 *159:8 0.000218575
4 *159:8 *1072:B 2.46906e-05
5 *159:8 *272:115 0.000143673
6 *1074:A *159:8 3.48133e-05
7 *157:6 *159:8 2.91905e-05
*RES
1 *1073:X *159:8 27.4536 
2 *159:8 *1074:B 23 
*END

*D_NET *160 0.00174134
*CONN
*I *1076:A2 I *D sky130_fd_sc_hd__o21bai_1
*I *1103:A2 I *D sky130_fd_sc_hd__o21a_1
*I *1102:B I *D sky130_fd_sc_hd__nand2_1
*I *1074:Y O *D sky130_fd_sc_hd__nand2_1
*CAP
1 *1076:A2 0
2 *1103:A2 0
3 *1102:B 0
4 *1074:Y 8.71212e-05
5 *160:32 0.000110488
6 *160:24 0.000298905
7 *160:16 0.000285605
8 *160:8 0.000184309
9 *160:8 *161:14 7.66914e-06
10 *160:8 *230:108 0.000187484
11 *160:16 *1076:B1_N 3.7122e-06
12 *160:16 *161:6 4.40294e-05
13 *160:16 *162:10 0.000102551
14 *160:24 *1076:B1_N 2.93335e-05
15 *160:24 *187:29 5.58003e-05
16 *160:24 *236:14 8.48502e-06
17 *160:32 *187:12 3.25507e-05
18 *160:32 *268:127 0.000140884
19 *157:12 *160:8 0.000162416
*RES
1 *1074:Y *160:8 40.61 
2 *160:8 *160:16 17.5686 
3 *160:16 *160:24 32.6721 
4 *160:24 *160:32 32.755 
5 *160:32 *1102:B 23 
6 *160:24 *1103:A2 23 
7 *160:16 *1076:A2 23 
*END

*D_NET *161 0.00243675
*CONN
*I *1076:B1_N I *D sky130_fd_sc_hd__o21bai_1
*I *1101:A I *D sky130_fd_sc_hd__or2_1
*I *1075:X O *D sky130_fd_sc_hd__and3_1
*CAP
1 *1076:B1_N 4.76102e-05
2 *1101:A 0
3 *1075:X 0.000506152
4 *161:14 0.000216191
5 *161:6 0.000769953
6 *1076:B1_N *162:10 9.87985e-06
7 *1076:B1_N *236:14 0.000129736
8 *161:6 *236:14 0.000396252
9 *161:6 *316:47 0.000202961
10 *161:14 *187:12 2.59343e-05
11 *157:12 *161:14 4.73379e-05
12 *160:8 *161:14 7.66914e-06
13 *160:16 *1076:B1_N 3.7122e-06
14 *160:16 *161:6 4.40294e-05
15 *160:24 *1076:B1_N 2.93335e-05
*RES
1 *1075:X *161:6 32.6736 
2 *161:6 *161:14 33.2314 
3 *161:14 *1101:A 23 
4 *161:6 *1076:B1_N 24.5743 
*END

*D_NET *162 0.00212532
*CONN
*I *1100:B I *D sky130_fd_sc_hd__xnor2_1
*I *1078:A2 I *D sky130_fd_sc_hd__a21o_1
*I *1076:Y O *D sky130_fd_sc_hd__o21bai_1
*CAP
1 *1100:B 2.68017e-05
2 *1078:A2 0.000239271
3 *1076:Y 0.000275488
4 *162:14 0.000303455
5 *162:10 0.00031287
6 *1078:A2 *1104:A 0
7 *1078:A2 *305:35 0.000492901
8 *1100:B *305:35 2.48018e-05
9 *162:10 *185:14 4.11274e-05
10 *162:10 *230:108 0.000296177
11 *1076:B1_N *162:10 9.87985e-06
12 *160:16 *162:10 0.000102551
*RES
1 *1076:Y *162:10 43.5929 
2 *162:10 *162:14 15.8493 
3 *162:14 *1078:A2 28.8829 
4 *162:14 *1100:B 23.6214 
*END

*D_NET *163 0.000869735
*CONN
*I *1078:B1 I *D sky130_fd_sc_hd__a21o_1
*I *1077:X O *D sky130_fd_sc_hd__and2_1
*CAP
1 *1078:B1 0
2 *1077:X 0.000248545
3 *163:10 0.000248545
4 *163:10 *272:115 0.000168788
5 *1067:B *163:10 7.79323e-05
6 *57:100 *163:10 7.136e-05
7 *152:17 *163:10 5.45644e-05
*RES
1 *1077:X *163:10 42.785 
2 *163:10 *1078:B1 38 
*END

*D_NET *164 0.00598602
*CONN
*I *1116:B I *D sky130_fd_sc_hd__and2_1
*I *1092:A2 I *D sky130_fd_sc_hd__a41o_1
*I *1105:B I *D sky130_fd_sc_hd__xor2_1
*I *1078:X O *D sky130_fd_sc_hd__a21o_1
*CAP
1 *1116:B 1.64118e-05
2 *1092:A2 0
3 *1105:B 0
4 *1078:X 0
5 *164:33 0.000186815
6 *164:23 0.00119386
7 *164:8 0.00191712
8 *164:6 0.000926481
9 *164:8 *966:A 0.000104123
10 *164:8 *241:123 0
11 *164:8 *241:138 7.13673e-05
12 *164:8 *271:151 3.26321e-05
13 *164:8 *272:115 3.21223e-05
14 *164:8 *316:62 7.48137e-05
15 *164:23 *1096:A 5.75756e-06
16 *164:23 *180:12 8.33365e-05
17 *164:23 *195:10 0.000135557
18 *164:23 *269:90 0
19 *164:23 *314:10 0
20 *164:23 *316:10 0
21 *164:23 *316:22 0
22 *164:33 *1118:A 5.5792e-05
23 *164:33 *177:10 8.48502e-06
24 *164:33 *178:12 0.000111106
25 *164:33 *202:8 8.57485e-05
26 *1092:A1 *164:33 6.17437e-06
27 *1116:A *164:23 2.64616e-05
28 *55:8 *164:8 0.000114092
29 *57:100 *164:8 3.47781e-05
30 *57:121 *164:8 0.000521846
31 *57:142 *164:8 0.000241142
32 *79:10 *164:8 0
33 *79:25 *164:23 0
34 *85:17 *164:8 0
35 *85:17 *164:23 0
36 *119:42 *164:23 0
37 *141:24 *164:23 0
*RES
1 *1078:X *164:6 38 
2 *164:6 *164:8 19.5129 
3 *164:8 *1105:B 38 
4 *164:8 *164:23 33.2079 
5 *164:23 *164:33 33.2729 
6 *164:33 *1092:A2 23 
7 *164:23 *1116:B 23.4971 
*END

*D_NET *165 0.0011605
*CONN
*I *1083:A I *D sky130_fd_sc_hd__and3_2
*I *1084:A1 I *D sky130_fd_sc_hd__a21o_1
*I *1079:X O *D sky130_fd_sc_hd__or3_1
*CAP
1 *1083:A 0
2 *1084:A1 0
3 *1079:X 8.61561e-05
4 *165:24 0.000251297
5 *165:16 0.000370567
6 *165:8 0.000205426
7 *165:16 *1083:B 3.71887e-05
8 *165:16 *1083:C 5.76359e-05
9 *165:16 *169:12 5.55743e-06
10 *165:24 *1084:B1 0.0001398
11 *165:24 *170:10 2.45549e-06
12 *107:10 *165:8 4.41821e-06
*RES
1 *1079:X *165:8 39.2014 
2 *165:8 *165:16 18.2729 
3 *165:16 *165:24 33.6043 
4 *165:24 *1084:A1 23 
5 *165:16 *1083:A 23 
*END

*D_NET *166 0.000216991
*CONN
*I *1081:B1 I *D sky130_fd_sc_hd__a31o_1
*I *1080:X O *D sky130_fd_sc_hd__and3_1
*CAP
1 *1081:B1 7.53132e-05
2 *1080:X 7.53132e-05
3 *1080:C *1081:B1 0
4 *1081:A1 *1081:B1 3.91386e-05
5 *136:6 *1081:B1 2.72257e-05
*RES
1 *1080:X *1081:B1 47.595 
*END

*D_NET *167 0.00490305
*CONN
*I *1084:B1 I *D sky130_fd_sc_hd__a21o_1
*I *1083:B I *D sky130_fd_sc_hd__and3_2
*I *1081:X O *D sky130_fd_sc_hd__a31o_1
*CAP
1 *1084:B1 0.000205706
2 *1083:B 0.000111651
3 *1081:X 4.57773e-05
4 *167:14 0.00156392
5 *167:8 0.00129234
6 *1083:B *1083:C 3.29148e-06
7 *167:14 *233:69 0.000294777
8 *167:14 *233:88 0
9 *167:14 *234:19 3.12382e-05
10 *167:14 *235:48 0
11 *167:14 *301:23 0
12 *167:14 *321:8 0
13 *1029:C *167:14 0.000260647
14 *1081:A1 *167:8 5.50106e-05
15 *60:8 *167:14 0.00010121
16 *60:23 *167:14 0.000165346
17 *61:95 *167:14 0
18 *62:12 *167:14 0.000165384
19 *71:10 *167:14 3.94535e-05
20 *94:16 *167:14 8.06039e-05
21 *95:14 *167:14 7.13673e-05
22 *107:10 *167:14 0.000105432
23 *108:20 *167:14 0
24 *109:10 *167:14 0.000132912
25 *114:10 *167:14 0
26 *165:16 *1083:B 3.71887e-05
27 *165:24 *1084:B1 0.0001398
*RES
1 *1081:X *167:8 38.6214 
2 *167:8 *167:14 24.505 
3 *167:14 *1083:B 39.5743 
4 *167:14 *1084:B1 42.2879 
*END

*D_NET *168 0.00198141
*CONN
*I *1084:A2 I *D sky130_fd_sc_hd__a21o_1
*I *1083:C I *D sky130_fd_sc_hd__and3_2
*I *1082:Y O *D sky130_fd_sc_hd__o21ai_1
*CAP
1 *1084:A2 0.000258164
2 *1083:C 0.000444801
3 *1082:Y 0.000101854
4 *168:8 0.000804819
5 *1084:A2 *301:23 0.000112396
6 *168:8 *301:23 0.000198447
7 *1083:B *1083:C 3.29148e-06
8 *165:16 *1083:C 5.76359e-05
*RES
1 *1082:Y *168:8 40.61 
2 *168:8 *1083:C 43.8829 
3 *168:8 *1084:A2 42.4536 
*END

*D_NET *169 0.00308531
*CONN
*I *1090:B1 I *D sky130_fd_sc_hd__a21o_1
*I *1085:A I *D sky130_fd_sc_hd__nor2b_2
*I *1097:A I *D sky130_fd_sc_hd__xnor2_2
*I *1089:A I *D sky130_fd_sc_hd__xor2_1
*I *1083:X O *D sky130_fd_sc_hd__and3_2
*CAP
1 *1090:B1 4.82112e-05
2 *1085:A 0.00015107
3 *1097:A 0.000138682
4 *1089:A 2.82373e-05
5 *1083:X 0.000411758
6 *169:29 0.000452286
7 *169:25 0.000383049
8 *169:14 0.000200541
9 *169:12 0.000411758
10 *1085:A *170:18 8.5351e-05
11 *1085:A *171:12 5.56356e-05
12 *1085:A *171:16 0
13 *1089:A *170:10 2.93335e-05
14 *1090:B1 *1091:A 3.90207e-05
15 *169:12 *1088:B 5.8118e-05
16 *169:12 *174:8 6.90927e-05
17 *169:25 *1091:A 4.21062e-05
18 *169:25 *170:10 0.000167844
19 *169:29 *1118:B 0
20 *169:29 *170:18 1.12919e-05
21 *139:56 *1097:A 5.3304e-05
22 *139:56 *169:29 0.000243064
23 *139:66 *1085:A 0
24 *165:16 *169:12 5.55743e-06
*RES
1 *1083:X *169:12 44.7114 
2 *169:12 *169:14 15 
3 *169:14 *1089:A 23.6214 
4 *169:14 *169:25 3.50071 
5 *169:25 *169:29 18.6664 
6 *169:29 *1097:A 40.0507 
7 *169:29 *1085:A 41.2314 
8 *169:25 *1090:B1 24.1186 
*END

*D_NET *170 0.00234849
*CONN
*I *1090:A2 I *D sky130_fd_sc_hd__a21o_1
*I *1085:B_N I *D sky130_fd_sc_hd__nor2b_2
*I *1084:X O *D sky130_fd_sc_hd__a21o_1
*CAP
1 *1090:A2 0
2 *1085:B_N 0
3 *1084:X 0.000426402
4 *170:18 0.000348285
5 *170:10 0.000774688
6 *170:10 *1091:A 0.000294148
7 *170:18 *1097:B 0
8 *170:18 *293:16 0
9 *1085:A *170:18 8.5351e-05
10 *1089:A *170:10 2.93335e-05
11 *139:56 *170:18 0.000208694
12 *165:24 *170:10 2.45549e-06
13 *169:25 *170:10 0.000167844
14 *169:29 *170:18 1.12919e-05
*RES
1 *1084:X *170:10 32.2386 
2 *170:10 *170:18 36.8771 
3 *170:18 *1085:B_N 23 
4 *170:10 *1090:A2 23 
*END

*D_NET *171 0.00198247
*CONN
*I *1119:B I *D sky130_fd_sc_hd__nand2_1
*I *1086:B I *D sky130_fd_sc_hd__xor2_2
*I *1118:B I *D sky130_fd_sc_hd__nand2_1
*I *1085:Y O *D sky130_fd_sc_hd__nor2b_2
*CAP
1 *1119:B 0
2 *1086:B 0
3 *1118:B 0.000204384
4 *1085:Y 0.000340434
5 *171:16 0.000298648
6 *171:12 0.000434698
7 *1118:B *1118:A 5.55743e-06
8 *1118:B *175:8 9.66668e-05
9 *1118:B *295:10 0.000214966
10 *171:12 *205:10 5.50049e-05
11 *171:16 *1134:A1 0
12 *171:16 *295:10 0.00014411
13 *1085:A *171:12 5.56356e-05
14 *1085:A *171:16 0
15 *36:13 *171:12 2.3853e-05
16 *139:66 *1118:B 2.76611e-06
17 *139:66 *171:12 6.26126e-05
18 *139:66 *171:16 4.31366e-05
19 *169:29 *1118:B 0
*RES
1 *1085:Y *171:12 29.525 
2 *171:12 *171:16 17.61 
3 *171:16 *1118:B 42.5571 
4 *171:16 *1086:B 15 
5 *171:12 *1119:B 23 
*END

*D_NET *172 0.00340366
*CONN
*I *1134:A2 I *D sky130_fd_sc_hd__o21a_1
*I *1096:A I *D sky130_fd_sc_hd__inv_2
*I *1117:B I *D sky130_fd_sc_hd__nor2_1
*I *1092:A3 I *D sky130_fd_sc_hd__a41o_1
*I *1086:X O *D sky130_fd_sc_hd__xor2_2
*CAP
1 *1134:A2 0.000302154
2 *1096:A 0.000354419
3 *1117:B 4.89725e-05
4 *1092:A3 0
5 *1086:X 0
6 *172:34 0.000945604
7 *172:14 0.000221176
8 *172:6 0.000304246
9 *172:4 0.000323128
10 *1096:A *182:8 8.78864e-05
11 *1096:A *192:41 0
12 *1096:A *202:21 0
13 *1096:A *204:20 0
14 *1096:A *205:10 0
15 *1096:A *316:10 0
16 *1117:B *1120:A2 2.93747e-05
17 *1117:B *1120:B1 2.61608e-05
18 *1117:B *204:14 0.00012612
19 *1134:A2 *204:20 0
20 *1134:A2 *205:10 7.15126e-05
21 *1134:A2 *218:10 8.28854e-05
22 *1134:A2 *316:10 0
23 *172:6 *1120:A2 0
24 *172:6 *204:14 0
25 *172:14 *202:8 1.7403e-05
26 *172:14 *202:21 0.000107152
27 *172:14 *204:8 0
28 *172:14 *204:14 5.50106e-05
29 *172:34 *1120:A1 1.24376e-05
30 *172:34 *1120:A2 0.000225393
31 *172:34 *183:12 2.39778e-06
32 *1203:A *1134:A2 0
33 *119:42 *1096:A 5.44704e-05
34 *164:23 *1096:A 5.75756e-06
*RES
1 *1086:X *172:4 23 
2 *172:4 *172:6 0.849286 
3 *172:6 *172:14 34.2879 
4 *172:14 *1092:A3 23 
5 *172:6 *1117:B 25.0714 
6 *172:4 *172:34 19.4536 
7 *172:34 *1096:A 44.4836 
8 *172:34 *1134:A2 43.8829 
*END

*D_NET *173 0.00052763
*CONN
*I *1088:B I *D sky130_fd_sc_hd__nor2_2
*I *1087:Y O *D sky130_fd_sc_hd__a21oi_1
*CAP
1 *1088:B 7.9292e-05
2 *1087:Y 0.000114782
3 *173:10 0.000194074
4 *118:14 *173:10 2.34077e-05
5 *118:27 *173:10 5.79559e-05
6 *169:12 *1088:B 5.8118e-05
*RES
1 *1087:Y *173:10 39.8229 
2 *173:10 *1088:B 39.8229 
*END

*D_NET *174 0.00195124
*CONN
*I *1097:B I *D sky130_fd_sc_hd__xnor2_2
*I *1091:A I *D sky130_fd_sc_hd__and2_1
*I *1089:B I *D sky130_fd_sc_hd__xor2_1
*I *1088:Y O *D sky130_fd_sc_hd__nor2_2
*CAP
1 *1097:B 9.59091e-05
2 *1091:A 0.000335387
3 *1089:B 0
4 *1088:Y 7.23903e-05
5 *174:17 0.000471606
6 *174:8 0.0001127
7 *1091:A *1091:B 5.99995e-05
8 *1091:A *175:8 0.000245601
9 *1097:B *293:16 5.01151e-05
10 *174:8 *293:16 4.89706e-05
11 *174:17 *293:16 1.41891e-05
12 *1090:B1 *1091:A 3.90207e-05
13 *169:12 *174:8 6.90927e-05
14 *169:25 *1091:A 4.21062e-05
15 *170:10 *1091:A 0.000294148
16 *170:18 *1097:B 0
*RES
1 *1088:Y *174:8 40.2579 
2 *174:8 *1089:B 38 
3 *174:8 *174:17 0.849286 
4 *174:17 *1091:A 45.4986 
5 *174:17 *1097:B 40.2579 
*END

*D_NET *175 0.00168838
*CONN
*I *1092:A4 I *D sky130_fd_sc_hd__a41o_1
*I *1089:X O *D sky130_fd_sc_hd__xor2_1
*CAP
1 *1092:A4 0
2 *1089:X 0.000391706
3 *175:8 0.000391706
4 *175:8 *1091:B 0.000146822
5 *175:8 *1118:A 3.71887e-05
6 *175:8 *177:10 0.000378686
7 *1091:A *175:8 0.000245601
8 *1118:B *175:8 9.66668e-05
*RES
1 *1089:X *175:8 32.6943 
2 *175:8 *1092:A4 23 
*END

*D_NET *176 0.000346488
*CONN
*I *1091:B I *D sky130_fd_sc_hd__and2_1
*I *1090:X O *D sky130_fd_sc_hd__a21o_1
*CAP
1 *1091:B 6.98336e-05
2 *1090:X 6.98336e-05
3 *1091:A *1091:B 5.99995e-05
4 *175:8 *1091:B 0.000146822
*RES
1 *1090:X *1091:B 48.0714 
*END

*D_NET *177 0.00136853
*CONN
*I *1092:B1 I *D sky130_fd_sc_hd__a41o_1
*I *1091:X O *D sky130_fd_sc_hd__and2_1
*CAP
1 *1092:B1 0
2 *1091:X 0.000438901
3 *177:10 0.000438901
4 *177:10 *1118:A 4.52673e-05
5 *1092:A1 *177:10 5.82853e-05
6 *164:33 *177:10 8.48502e-06
7 *175:8 *177:10 0.000378686
*RES
1 *1091:X *177:10 30.3329 
2 *177:10 *1092:B1 23 
*END

*D_NET *178 0.00227443
*CONN
*I *1098:B I *D sky130_fd_sc_hd__xnor2_1
*I *1094:A2 I *D sky130_fd_sc_hd__a21oi_1
*I *1111:C1 I *D sky130_fd_sc_hd__o211a_1
*I *1092:X O *D sky130_fd_sc_hd__a41o_1
*CAP
1 *1098:B 0.000113613
2 *1094:A2 0
3 *1111:C1 0
4 *1092:X 0
5 *178:22 0.000226526
6 *178:12 0.000530276
7 *178:4 0.000417364
8 *178:12 *295:10 0
9 *178:22 *1094:B1 5.50049e-05
10 *178:22 *180:12 0.000141954
11 *178:22 *295:10 0
12 *1092:A1 *178:12 0.000180465
13 *1111:A2 *178:22 1.14452e-05
14 *118:27 *178:22 0
15 *119:6 *178:22 5.12254e-05
16 *119:12 *178:22 6.42902e-05
17 *119:21 *178:22 3.75269e-05
18 *119:42 *1098:B 5.58003e-05
19 *119:42 *178:22 5.67058e-05
20 *141:24 *178:12 0.000221124
21 *164:33 *178:12 0.000111106
*RES
1 *1092:X *178:4 23 
2 *178:4 *178:12 36.1729 
3 *178:12 *178:22 35.7586 
4 *178:22 *1111:C1 23 
5 *178:12 *1094:A2 23 
6 *178:4 *1098:B 25.2993 
*END

*D_NET *179 0.00241367
*CONN
*I *1094:B1 I *D sky130_fd_sc_hd__a21oi_1
*I *1110:A2 I *D sky130_fd_sc_hd__o21a_1
*I *1093:X O *D sky130_fd_sc_hd__and2b_1
*CAP
1 *1094:B1 0.000193133
2 *1110:A2 0.000239229
3 *1093:X 0.0002496
4 *179:8 0.000681962
5 *179:8 *200:69 0.000355029
6 *1111:A2 *1094:B1 2.19539e-05
7 *1111:A2 *1110:A2 3.98859e-05
8 *101:25 *1110:A2 0.000214862
9 *101:47 *1094:B1 5.94125e-05
10 *101:47 *1110:A2 0.000111852
11 *103:19 *1110:A2 7.75329e-06
12 *104:12 *1094:B1 1.37349e-05
13 *119:12 *1094:B1 6.6869e-05
14 *119:21 *1094:B1 5.50049e-05
15 *141:24 *1094:B1 4.83838e-05
16 *141:24 *1110:A2 0
17 *178:22 *1094:B1 5.50049e-05
*RES
1 *1093:X *179:8 41.9564 
2 *179:8 *1110:A2 43.075 
3 *179:8 *1094:B1 41.9357 
*END

*D_NET *180 0.000996115
*CONN
*I *1095:B I *D sky130_fd_sc_hd__xnor2_2
*I *1094:Y O *D sky130_fd_sc_hd__a21oi_1
*CAP
1 *1095:B 0
2 *1094:Y 0.00031978
3 *180:12 0.00031978
4 *119:42 *180:12 6.34074e-05
5 *141:24 *180:12 6.78567e-05
6 *164:23 *180:12 8.33365e-05
7 *178:22 *180:12 0.000141954
*RES
1 *1094:Y *180:12 45.2914 
2 *180:12 *1095:B 38 
*END

*D_NET *181 0.00227414
*CONN
*I *1125:C_N I *D sky130_fd_sc_hd__or3b_2
*I *1113:A I *D sky130_fd_sc_hd__nand3_2
*I *1123:S I *D sky130_fd_sc_hd__mux2_1
*I *1115:A1 I *D sky130_fd_sc_hd__a21oi_2
*I *1095:Y O *D sky130_fd_sc_hd__xnor2_2
*CAP
1 *1125:C_N 0
2 *1113:A 2.77125e-05
3 *1123:S 0
4 *1115:A1 0
5 *1095:Y 0.000113895
6 *181:49 0.00023528
7 *181:32 0.00051966
8 *181:21 0.000441269
9 *181:8 0.000298497
10 *1113:A *1113:B 6.91908e-05
11 *181:8 *200:69 4.69123e-05
12 *181:21 *200:69 3.22051e-05
13 *181:21 *208:20 9.5956e-06
14 *181:21 *316:10 1.25723e-05
15 *181:21 *316:22 8.02811e-05
16 *181:32 *1113:B 3.97902e-05
17 *181:32 *1209:A 3.30634e-05
18 *181:32 *193:14 0.000140927
19 *181:49 *192:18 8.86576e-05
20 *181:49 *207:10 5.41002e-05
21 *181:49 *211:10 3.05299e-05
*RES
1 *1095:Y *181:8 25.0714 
2 *181:8 *1115:A1 23 
3 *181:8 *181:21 33.5836 
4 *181:21 *1123:S 23 
5 *181:21 *181:32 4.95071 
6 *181:32 *1113:A 24.1186 
7 *181:32 *181:49 34.1843 
8 *181:49 *1125:C_N 23 
*END

*D_NET *182 0.00139689
*CONN
*I *1107:A I *D sky130_fd_sc_hd__nor4_1
*I *1122:A1 I *D sky130_fd_sc_hd__o31a_1
*I *1096:Y O *D sky130_fd_sc_hd__inv_2
*CAP
1 *1107:A 4.97493e-05
2 *1122:A1 4.32094e-05
3 *1096:Y 5.54727e-05
4 *182:14 0.000479907
5 *182:8 0.000442421
6 *1107:A *1107:C 5.68958e-05
7 *1122:A1 *1107:C 8.03263e-05
8 *1122:A1 *1122:B1 5.55743e-06
9 *182:14 *1107:C 2.59977e-05
10 *182:14 *184:8 6.94657e-05
11 *1096:A *182:8 8.78864e-05
*RES
1 *1096:Y *182:8 39.2014 
2 *182:8 *182:14 20.8829 
3 *182:14 *1122:A1 25.2164 
4 *182:14 *1107:A 24.0979 
*END

*D_NET *183 0.00382153
*CONN
*I *1121:A I *D sky130_fd_sc_hd__xnor2_2
*I *1107:B I *D sky130_fd_sc_hd__nor4_1
*I *1122:A2 I *D sky130_fd_sc_hd__o31a_1
*I *1097:Y O *D sky130_fd_sc_hd__xnor2_2
*CAP
1 *1121:A 5.38894e-05
2 *1107:B 0.000110363
3 *1122:A2 0
4 *1097:Y 0.000969803
5 *183:22 0.000294227
6 *183:12 0.00120756
7 *1107:B *1107:C 0.00022093
8 *1121:A *1120:A1 5.90675e-06
9 *183:12 *1120:A1 4.01472e-05
10 *183:12 *1120:A2 1.09834e-05
11 *183:12 *1120:B1 0.000134056
12 *183:12 *1121:B 8.26478e-05
13 *183:12 *204:14 0.000372382
14 *183:22 *1107:C 9.66585e-05
15 *183:22 *184:8 6.15689e-05
16 *183:22 *192:41 3.88629e-05
17 *139:56 *183:12 0.000119153
18 *172:34 *183:12 2.39778e-06
*RES
1 *1097:Y *183:12 38.5771 
2 *183:12 *183:22 33.2729 
3 *183:22 *1122:A2 23 
4 *183:22 *1107:B 25.5271 
5 *183:12 *1121:A 24.2014 
*END

*D_NET *184 0.00103368
*CONN
*I *1107:C I *D sky130_fd_sc_hd__nor4_1
*I *1122:B1 I *D sky130_fd_sc_hd__o31a_1
*I *1098:Y O *D sky130_fd_sc_hd__xnor2_1
*CAP
1 *1107:C 0.0001057
2 *1122:B1 1.85599e-05
3 *1098:Y 8.38813e-05
4 *184:8 0.000208141
5 *1107:A *1107:C 5.68958e-05
6 *1107:B *1107:C 0.00022093
7 *1122:A1 *1107:C 8.03263e-05
8 *1122:A1 *1122:B1 5.55743e-06
9 *182:14 *1107:C 2.59977e-05
10 *182:14 *184:8 6.94657e-05
11 *183:22 *1107:C 9.66585e-05
12 *183:22 *184:8 6.15689e-05
*RES
1 *1098:Y *184:8 25.5479 
2 *184:8 *1122:B1 23.4971 
3 *184:8 *1107:C 26.9564 
*END

*D_NET *185 0.00174737
*CONN
*I *1100:A I *D sky130_fd_sc_hd__xnor2_1
*I *1099:Y O *D sky130_fd_sc_hd__xnor2_1
*CAP
1 *1100:A 0
2 *1099:Y 0.000430735
3 *185:14 0.000430735
4 *185:14 *230:108 2.4295e-05
5 *185:14 *235:80 0.000458525
6 *1067:A *185:14 3.0918e-05
7 *1067:B *185:14 9.79925e-05
8 *153:10 *185:14 0.000233044
9 *162:10 *185:14 4.11274e-05
*RES
1 *1099:Y *185:14 48.5436 
2 *185:14 *1100:A 38 
*END

*D_NET *186 0.000799491
*CONN
*I *1127:B1 I *D sky130_fd_sc_hd__a21oi_1
*I *1104:A I *D sky130_fd_sc_hd__and3_1
*I *1100:Y O *D sky130_fd_sc_hd__xnor2_1
*CAP
1 *1127:B1 6.41972e-05
2 *1104:A 6.10532e-05
3 *1100:Y 0.000101111
4 *186:8 0.000226361
5 *1104:A *305:35 0.000107085
6 *1127:B1 *1104:B 1.21972e-05
7 *1127:B1 *1104:C 8.25698e-05
8 *1127:B1 *1127:A1 1.21972e-05
9 *1127:B1 *1127:A2 4.08664e-05
10 *1127:B1 *190:16 5.3304e-05
11 *1127:B1 *305:35 7.05643e-06
12 *186:8 *1104:B 1.24376e-05
13 *186:8 *1127:A1 0
14 *186:8 *190:16 1.9054e-05
15 *1078:A2 *1104:A 0
*RES
1 *1100:Y *186:8 25.4236 
2 *186:8 *1104:A 25.6929 
3 *186:8 *1127:B1 24.5743 
*END

*D_NET *187 0.00146078
*CONN
*I *1103:A1 I *D sky130_fd_sc_hd__o21a_1
*I *1102:A I *D sky130_fd_sc_hd__nand2_1
*I *1101:X O *D sky130_fd_sc_hd__or2_1
*CAP
1 *1103:A1 0
2 *1102:A 0
3 *1101:X 0
4 *187:29 0.000206775
5 *187:12 0.000208063
6 *187:4 0.000414838
7 *187:12 *268:127 0.000290917
8 *187:29 *1103:B1 5.55743e-06
9 *187:29 *236:14 2.64616e-05
10 *187:29 *236:141 8.36198e-05
11 *187:29 *268:127 0.000110267
12 *160:24 *187:29 5.58003e-05
13 *160:32 *187:12 3.25507e-05
14 *161:14 *187:12 2.59343e-05
*RES
1 *1101:X *187:4 23 
2 *187:4 *187:12 34.8679 
3 *187:12 *1102:A 23 
4 *187:4 *187:29 33.77 
5 *187:29 *1103:A1 23 
*END

*D_NET *188 0.00129741
*CONN
*I *1127:A1 I *D sky130_fd_sc_hd__a21oi_1
*I *1104:B I *D sky130_fd_sc_hd__and3_1
*I *1102:Y O *D sky130_fd_sc_hd__nand2_1
*CAP
1 *1127:A1 0.000196578
2 *1104:B 5.51257e-05
3 *1102:Y 0.000198777
4 *188:12 0.000251704
5 *188:10 0.000198777
6 *1127:A1 *1127:A2 2.05025e-05
7 *1127:A1 *190:16 6.58224e-05
8 *188:10 *189:8 8.36198e-05
9 *188:10 *235:68 8.36198e-05
10 *188:10 *235:80 7.64944e-05
11 *188:10 *235:159 2.95526e-05
12 *1127:B1 *1104:B 1.21972e-05
13 *1127:B1 *1127:A1 1.21972e-05
14 *186:8 *1104:B 1.24376e-05
15 *186:8 *1127:A1 0
*RES
1 *1102:Y *188:10 41.2521 
2 *188:10 *188:12 15 
3 *188:12 *1104:B 23.6214 
4 *188:12 *1127:A1 26.2521 
*END

*D_NET *189 0.00147236
*CONN
*I *1127:A2 I *D sky130_fd_sc_hd__a21oi_1
*I *1104:C I *D sky130_fd_sc_hd__and3_1
*I *1103:X O *D sky130_fd_sc_hd__o21a_1
*CAP
1 *1127:A2 9.56366e-05
2 *1104:C 2.22089e-05
3 *1103:X 0.000244714
4 *189:10 0.000117846
5 *189:8 0.000244714
6 *1104:C *305:35 8.25698e-05
7 *1127:A2 *190:16 2.02872e-05
8 *1127:A2 *305:35 0.000180224
9 *189:8 *213:8 8.23972e-05
10 *189:8 *232:150 8.52602e-05
11 *189:8 *235:68 6.89402e-05
12 *1127:A1 *1127:A2 2.05025e-05
13 *1127:B1 *1104:C 8.25698e-05
14 *1127:B1 *1127:A2 4.08664e-05
15 *188:10 *189:8 8.36198e-05
*RES
1 *1103:X *189:8 43.4271 
2 *189:8 *189:10 15 
3 *189:10 *1104:C 23.9321 
4 *189:10 *1127:A2 25.5479 
*END

*D_NET *190 0.00628158
*CONN
*I *1128:A I *D sky130_fd_sc_hd__nor2_1
*I *1131:A I *D sky130_fd_sc_hd__or2_1
*I *1106:A I *D sky130_fd_sc_hd__nand2_2
*I *1104:X O *D sky130_fd_sc_hd__and3_1
*CAP
1 *1128:A 0
2 *1131:A 0.000238935
3 *1106:A 0.000211224
4 *1104:X 0.00047452
5 *190:30 0.00120501
6 *190:24 0.000916721
7 *190:16 0.000636394
8 *1106:A *192:18 1.91648e-05
9 *1106:A *327:28 1.85903e-05
10 *1131:A *235:14 2.19403e-05
11 *1131:A *235:68 6.55954e-05
12 *1131:A *327:20 7.66384e-05
13 *1131:A *327:28 0.000122669
14 *190:16 *213:8 4.44897e-05
15 *190:16 *232:150 4.74824e-05
16 *190:24 *1157:CLK 5.56279e-05
17 *190:24 *230:108 0
18 *190:24 *268:127 0.000105638
19 *190:30 *1157:CLK 4.44329e-05
20 *190:30 *230:108 0.000462799
21 *190:30 *270:12 0.000210512
22 *190:30 *272:153 0
23 *190:30 *282:54 0.000185368
24 *190:30 *282:79 0
25 *190:30 *332:91 0.000395868
26 *1127:A1 *190:16 6.58224e-05
27 *1127:A2 *190:16 2.02872e-05
28 *1127:B1 *190:16 5.3304e-05
29 *58:8 *190:30 0
30 *59:10 *190:30 4.58444e-05
31 *88:10 *190:30 0.000137907
32 *90:20 *1106:A 3.06438e-05
33 *90:20 *1131:A 0.000271906
34 *90:20 *190:30 7.71971e-05
35 *186:8 *190:16 1.9054e-05
*RES
1 *1104:X *190:16 49.0111 
2 *190:16 *190:24 26.0554 
3 *190:24 *190:30 32.2861 
4 *190:30 *1106:A 41.5318 
5 *190:30 *1131:A 45.0014 
6 *190:24 *1128:A 23 
*END

*D_NET *191 0.00231001
*CONN
*I *1106:B I *D sky130_fd_sc_hd__nand2_2
*I *1131:B I *D sky130_fd_sc_hd__or2_1
*I *1105:X O *D sky130_fd_sc_hd__xor2_1
*CAP
1 *1106:B 0
2 *1131:B 0
3 *1105:X 0.000220023
4 *191:18 0.000603302
5 *191:8 0.000823325
6 *191:8 *327:36 0.000114499
7 *191:18 *1132:A1 0.00012857
8 *191:18 *1132:A2 1.47394e-05
9 *191:18 *1132:A3 0.000204052
10 *191:18 *1132:B2 2.45032e-06
11 *191:18 *192:6 5.73288e-05
12 *191:18 *214:16 0.000110803
13 *191:18 *327:20 3.09148e-05
*RES
1 *1105:X *191:8 27.4536 
2 *191:8 *191:18 39.2179 
3 *191:18 *1131:B 23 
4 *191:8 *1106:B 23 
*END

*D_NET *192 0.00708418
*CONN
*I *1132:A1 I *D sky130_fd_sc_hd__a32o_1
*I *1135:A I *D sky130_fd_sc_hd__xnor2_1
*I *1120:A1 I *D sky130_fd_sc_hd__o211a_1
*I *1122:A3 I *D sky130_fd_sc_hd__o31a_1
*I *1107:D I *D sky130_fd_sc_hd__nor4_1
*I *1106:Y O *D sky130_fd_sc_hd__nand2_2
*CAP
1 *1132:A1 4.96256e-05
2 *1135:A 0
3 *1120:A1 0.000260844
4 *1122:A3 0
5 *1107:D 0.000188747
6 *1106:Y 2.218e-05
7 *192:41 0.000146086
8 *192:35 0.00071029
9 *192:33 0.000536742
10 *192:18 0.0014383
11 *192:6 0.00108798
12 *1120:A1 *1120:A2 3.91386e-05
13 *1120:A1 *1121:B 8.1796e-05
14 *1132:A1 *1132:B2 2.48761e-05
15 *1132:A1 *200:40 2.60802e-05
16 *192:6 *1132:B2 2.45549e-06
17 *192:18 *1124:B1 0.000214862
18 *192:18 *201:19 0.0001127
19 *192:18 *207:10 1.14452e-05
20 *192:18 *209:10 1.22906e-05
21 *192:18 *210:16 0
22 *192:18 *219:14 0.000537531
23 *192:33 *207:10 0
24 *192:33 *219:14 0.000223915
25 *192:33 *327:20 0
26 *192:35 *1135:B 0.000139982
27 *192:35 *207:8 9.67842e-05
28 *192:41 *316:10 0.000245501
29 *1096:A *192:41 0
30 *1106:A *192:18 1.91648e-05
31 *1121:A *1120:A1 5.90675e-06
32 *90:20 *192:18 0.000482957
33 *172:34 *1120:A1 1.24376e-05
34 *181:49 *192:18 8.86576e-05
35 *183:12 *1120:A1 4.01472e-05
36 *183:22 *192:41 3.88629e-05
37 *191:18 *1132:A1 0.00012857
38 *191:18 *192:6 5.73288e-05
*RES
1 *1106:Y *192:6 23.6214 
2 *192:6 *192:18 35.4864 
3 *192:18 *1107:D 40.5271 
4 *192:18 *192:33 20.2407 
5 *192:33 *192:35 5.38571 
6 *192:35 *192:41 33.3143 
7 *192:41 *1122:A3 23 
8 *192:35 *1120:A1 28.4271 
9 *192:33 *1135:A 23 
10 *192:6 *1132:A1 24.5743 
*END

*D_NET *193 0.00207092
*CONN
*I *1125:A I *D sky130_fd_sc_hd__or3b_2
*I *1123:A1 I *D sky130_fd_sc_hd__mux2_1
*I *1209:A I *D sky130_fd_sc_hd__buf_1
*I *1107:Y O *D sky130_fd_sc_hd__nor4_1
*CAP
1 *1125:A 0.000138017
2 *1123:A1 0
3 *1209:A 0.000154544
4 *1107:Y 5.01235e-05
5 *193:14 0.000365742
6 *193:8 0.000399338
7 *1125:A *1125:B 1.59094e-05
8 *1209:A *1113:B 0.000183506
9 *193:8 *207:10 8.78864e-05
10 *193:14 *1113:B 4.19082e-05
11 *193:14 *207:10 0.000269834
12 *193:14 *208:8 0
13 *193:14 *208:20 0.000190118
14 *181:32 *1209:A 3.30634e-05
15 *181:32 *193:14 0.000140927
*RES
1 *1107:Y *193:8 39.2014 
2 *193:8 *193:14 20.2407 
3 *193:14 *1209:A 26.5007 
4 *193:14 *1123:A1 23 
5 *193:8 *1125:A 40.4236 
*END

*D_NET *194 0.000346221
*CONN
*I *1112:A1 I *D sky130_fd_sc_hd__a211o_1
*I *1108:X O *D sky130_fd_sc_hd__or2_1
*CAP
1 *1112:A1 0
2 *1108:X 7.25358e-05
3 *194:8 7.25358e-05
4 *194:8 *195:10 0.000137788
5 *194:8 *196:10 6.33614e-05
*RES
1 *1108:X *194:8 39.9057 
2 *194:8 *1112:A1 38 
*END

*D_NET *195 0.000811096
*CONN
*I *1112:A2 I *D sky130_fd_sc_hd__a211o_1
*I *1109:Y O *D sky130_fd_sc_hd__nand2_1
*CAP
1 *1112:A2 0
2 *1109:Y 0.000202533
3 *195:10 0.000202533
4 *1108:B *195:10 5.67058e-05
5 *1109:A *195:10 4.66047e-05
6 *79:25 *195:10 2.93747e-05
7 *164:23 *195:10 0.000135557
8 *194:8 *195:10 0.000137788
*RES
1 *1109:Y *195:10 41.9564 
2 *195:10 *1112:A2 38 
*END

*D_NET *196 0.000481469
*CONN
*I *1112:B1 I *D sky130_fd_sc_hd__a211o_1
*I *1110:X O *D sky130_fd_sc_hd__o21a_1
*CAP
1 *1112:B1 0
2 *1110:X 0.00013209
3 *196:10 0.00013209
4 *196:10 *315:22 1.21972e-05
5 *79:25 *196:10 6.17437e-06
6 *141:24 *196:10 0.000135557
7 *194:8 *196:10 6.33614e-05
*RES
1 *1110:X *196:10 40.5271 
2 *196:10 *1112:B1 38 
*END

*D_NET *197 0.000493257
*CONN
*I *1112:C1 I *D sky130_fd_sc_hd__a211o_1
*I *1111:X O *D sky130_fd_sc_hd__o211a_1
*CAP
1 *1112:C1 8.10232e-05
2 *1111:X 3.66812e-05
3 *197:8 0.000117704
4 *1112:C1 *269:78 1.40958e-05
5 *101:19 *1112:C1 0
6 *104:12 *1112:C1 6.67149e-05
7 *104:12 *197:8 8.85189e-05
8 *141:24 *197:8 8.85189e-05
*RES
1 *1111:X *197:8 39.2014 
2 *197:8 *1112:C1 39.9679 
*END

*D_NET *198 0.00278881
*CONN
*I *1113:C I *D sky130_fd_sc_hd__nand3_2
*I *1115:B1 I *D sky130_fd_sc_hd__a21oi_2
*I *1112:X O *D sky130_fd_sc_hd__a211o_1
*CAP
1 *1113:C 0
2 *1115:B1 0
3 *1112:X 0.000526375
4 *198:27 0.000251054
5 *198:12 0.000251054
6 *198:10 0.000526375
7 *198:10 *1124:C1 5.79559e-05
8 *198:10 *209:10 0.00013449
9 *198:10 *220:12 6.6296e-05
10 *198:10 *220:30 2.81406e-06
11 *198:10 *269:78 6.71074e-05
12 *198:27 *1126:A2 2.64073e-05
13 *198:27 *200:69 0.000389984
14 *198:27 *201:6 9.41704e-05
15 *198:27 *201:19 0.000126169
16 *198:27 *211:10 6.88552e-05
17 *198:27 *219:14 0.000199701
18 *1126:C1 *198:27 0
*RES
1 *1112:X *198:10 46.2443 
2 *198:10 *198:12 15 
3 *198:12 *1115:B1 23 
4 *198:12 *198:27 37.54 
5 *198:27 *1113:C 23 
*END

*D_NET *199 0.00104202
*CONN
*I *1114:B I *D sky130_fd_sc_hd__nand2_2
*I *1126:B1 I *D sky130_fd_sc_hd__o311ai_4
*I *1113:Y O *D sky130_fd_sc_hd__nand3_2
*CAP
1 *1114:B 0
2 *1126:B1 0
3 *1113:Y 0.000243717
4 *199:14 6.23662e-05
5 *199:8 0.000306083
6 *199:8 *200:10 4.67488e-05
7 *199:14 *200:10 0.000169674
8 *199:14 *327:20 0.000199701
9 *1114:A *199:14 1.37349e-05
*RES
1 *1113:Y *199:8 26.9771 
2 *199:8 *199:14 32.61 
3 *199:14 *1126:B1 23 
4 *199:8 *1114:B 23 
*END

*D_NET *200 0.0118657
*CONN
*I *1138:A I *D sky130_fd_sc_hd__inv_2
*I *1136:A1 I *D sky130_fd_sc_hd__a22o_1
*I *1129:A1 I *D sky130_fd_sc_hd__a22o_1
*I *1132:B1 I *D sky130_fd_sc_hd__a32o_1
*I *1114:Y O *D sky130_fd_sc_hd__nand2_2
*CAP
1 *1138:A 0.000978675
2 *1136:A1 0
3 *1129:A1 0
4 *1132:B1 0
5 *1114:Y 0.000156868
6 *200:75 0.00104228
7 *200:69 0.00155278
8 *200:40 0.000195345
9 *200:30 0.000564066
10 *200:16 0.000539247
11 *200:10 0.00181657
12 *1138:A *1137:A2 0.000392391
13 *1138:A *220:30 0.000145627
14 *1138:A *269:54 7.64495e-05
15 *200:10 *327:20 2.35393e-05
16 *200:16 *1136:B1 2.93845e-05
17 *200:16 *212:10 0
18 *200:16 *219:14 9.67842e-05
19 *200:16 *327:20 9.03979e-05
20 *200:30 *1129:B1 5.3304e-05
21 *200:30 *212:10 3.0647e-05
22 *200:30 *212:16 1.02561e-05
23 *200:30 *217:10 5.2497e-05
24 *200:30 *232:169 5.90675e-06
25 *200:30 *269:90 0.000237432
26 *200:30 *315:22 5.18413e-05
27 *200:30 *327:20 5.36427e-06
28 *200:40 *1132:B2 7.91437e-05
29 *200:40 *269:90 0.000144501
30 *200:40 *315:22 6.36802e-05
31 *200:69 *201:6 2.31591e-05
32 *200:69 *212:10 0.000183733
33 *200:69 *315:38 0.000402384
34 *1015:A1 *1138:A 0.000137467
35 *1019:C_N *1138:A 9.5877e-05
36 *1028:A2 *1138:A 0.000215406
37 *1031:A1 *1138:A 5.12254e-05
38 *1095:A *200:69 0.000123944
39 *1111:A2 *200:69 3.71369e-05
40 *1114:A *200:10 0.000169674
41 *1126:C1 *200:69 5.50049e-05
42 *1132:A1 *200:40 2.60802e-05
43 *44:10 *1138:A 0.000146822
44 *90:20 *200:40 0.000273614
45 *90:34 *200:10 4.93359e-05
46 *90:34 *200:16 0
47 *99:34 *200:75 0.000105787
48 *101:10 *200:75 1.22906e-05
49 *101:47 *200:69 5.3304e-05
50 *105:10 *200:75 8.85189e-05
51 *114:10 *1138:A 0.000139357
52 *179:8 *200:69 0.000355029
53 *181:8 *200:69 4.69123e-05
54 *181:21 *200:69 3.22051e-05
55 *198:27 *200:69 0.000389984
56 *199:8 *200:10 4.67488e-05
57 *199:14 *200:10 0.000169674
*RES
1 *1114:Y *200:10 42.06 
2 *200:10 *200:16 18.7079 
3 *200:16 *200:30 37.4571 
4 *200:30 *200:40 35.5204 
5 *200:40 *1132:B1 23 
6 *200:30 *1129:A1 23 
7 *200:16 *1136:A1 23 
8 *200:10 *200:69 44.0829 
9 *200:69 *200:75 31.5536 
10 *200:75 *1138:A 43.5279 
*END

*D_NET *201 0.00113012
*CONN
*I *1124:A2 I *D sky130_fd_sc_hd__o211ai_2
*I *1126:A1 I *D sky130_fd_sc_hd__o311ai_4
*I *1115:Y O *D sky130_fd_sc_hd__a21oi_2
*CAP
1 *1124:A2 0
2 *1126:A1 0
3 *1115:Y 8.01966e-05
4 *201:19 0.000201903
5 *201:6 0.0002821
6 *201:6 *1126:A2 1.24376e-05
7 *201:19 *1126:A2 0.000138607
8 *201:19 *210:16 5.58975e-06
9 *201:19 *219:14 5.30871e-05
10 *192:18 *201:19 0.0001127
11 *198:27 *201:6 9.41704e-05
12 *198:27 *201:19 0.000126169
13 *200:69 *201:6 2.31591e-05
*RES
1 *1115:Y *201:6 24.5743 
2 *201:6 *1126:A1 23 
3 *201:6 *201:19 34.8886 
4 *201:19 *1124:A2 23 
*END

*D_NET *202 0.00167136
*CONN
*I *1134:A1 I *D sky130_fd_sc_hd__o21a_1
*I *1117:A I *D sky130_fd_sc_hd__nor2_1
*I *1118:A I *D sky130_fd_sc_hd__nand2_1
*I *1116:X O *D sky130_fd_sc_hd__and2_1
*CAP
1 *1134:A1 0.000177699
2 *1117:A 0
3 *1118:A 0.00013575
4 *1116:X 7.06065e-05
5 *202:21 0.000381912
6 *202:8 0.000410569
7 *1134:A1 *204:20 9.53602e-05
8 *1134:A1 *295:10 0
9 *202:21 *204:20 2.96154e-05
10 *202:21 *295:10 0
11 *1092:A1 *202:8 5.71002e-06
12 *1092:A1 *202:21 1.00286e-05
13 *1096:A *202:21 0
14 *1118:B *1118:A 5.55743e-06
15 *164:33 *1118:A 5.5792e-05
16 *164:33 *202:8 8.57485e-05
17 *171:16 *1134:A1 0
18 *172:14 *202:8 1.7403e-05
19 *172:14 *202:21 0.000107152
20 *175:8 *1118:A 3.71887e-05
21 *177:10 *1118:A 4.52673e-05
*RES
1 *1116:X *202:8 39.5536 
2 *202:8 *1118:A 41.0243 
3 *202:8 *202:21 3.66643 
4 *202:21 *1117:A 38 
5 *202:21 *1134:A1 41.2314 
*END

*D_NET *203 0.000519735
*CONN
*I *1120:A2 I *D sky130_fd_sc_hd__o211a_1
*I *1117:Y O *D sky130_fd_sc_hd__nor2_1
*CAP
1 *1120:A2 7.61747e-05
2 *1117:Y 7.61747e-05
3 *1120:A2 *1120:B1 6.24959e-05
4 *1117:B *1120:A2 2.93747e-05
5 *1120:A1 *1120:A2 3.91386e-05
6 *172:6 *1120:A2 0
7 *172:34 *1120:A2 0.000225393
8 *183:12 *1120:A2 1.09834e-05
*RES
1 *1117:Y *1120:A2 49.0243 
*END

*D_NET *204 0.00222006
*CONN
*I *1120:B1 I *D sky130_fd_sc_hd__o211a_1
*I *1134:B1 I *D sky130_fd_sc_hd__o21a_1
*I *1118:Y O *D sky130_fd_sc_hd__nand2_1
*CAP
1 *1120:B1 5.9843e-05
2 *1134:B1 0
3 *1118:Y 0.000188531
4 *204:20 0.000147484
5 *204:14 0.000346162
6 *204:8 0.000327366
7 *204:8 *295:10 8.61223e-05
8 *204:20 *205:10 0.000163352
9 *1096:A *204:20 0
10 *1117:B *1120:B1 2.61608e-05
11 *1117:B *204:14 0.00012612
12 *1120:A2 *1120:B1 6.24959e-05
13 *1134:A1 *204:20 9.53602e-05
14 *1134:A2 *204:20 0
15 *172:6 *204:14 0
16 *172:14 *204:8 0
17 *172:14 *204:14 5.50106e-05
18 *183:12 *1120:B1 0.000134056
19 *183:12 *204:14 0.000372382
20 *202:21 *204:20 2.96154e-05
*RES
1 *1118:Y *204:8 40.61 
2 *204:8 *204:14 19.4536 
3 *204:14 *204:20 33.3143 
4 *204:20 *1134:B1 23 
5 *204:14 *1120:B1 25.4236 
*END

*D_NET *205 0.00131255
*CONN
*I *1120:C1 I *D sky130_fd_sc_hd__o211a_1
*I *1119:Y O *D sky130_fd_sc_hd__nand2_1
*CAP
1 *1120:C1 0
2 *1119:Y 0.00047498
3 *205:10 0.00047498
4 *1096:A *205:10 0
5 *1134:A2 *205:10 7.15126e-05
6 *36:13 *205:10 7.27182e-05
7 *171:12 *205:10 5.50049e-05
8 *204:20 *205:10 0.000163352
*RES
1 *1119:Y *205:10 46.5964 
2 *205:10 *1120:C1 38 
*END

*D_NET *206 0.000216655
*CONN
*I *1121:B I *D sky130_fd_sc_hd__xnor2_2
*I *1120:X O *D sky130_fd_sc_hd__o211a_1
*CAP
1 *1121:B 2.61058e-05
2 *1120:X 2.61058e-05
3 *1120:A1 *1121:B 8.1796e-05
4 *183:12 *1121:B 8.26478e-05
*RES
1 *1120:X *1121:B 47.5743 
*END

*D_NET *207 0.00311214
*CONN
*I *1126:A2 I *D sky130_fd_sc_hd__o311ai_4
*I *1124:B1 I *D sky130_fd_sc_hd__o211ai_2
*I *1121:Y O *D sky130_fd_sc_hd__xnor2_2
*CAP
1 *1126:A2 0.000157124
2 *1124:B1 0.000185294
3 *1121:Y 5.97262e-05
4 *207:10 0.000875996
5 *207:8 0.000593304
6 *1124:B1 *209:10 0.000218023
7 *1124:B1 *210:10 0
8 *207:10 *1135:B 2.50756e-05
9 *207:10 *208:20 1.03972e-05
10 *207:10 *209:10 7.48331e-05
11 *207:10 *316:10 0
12 *181:49 *207:10 5.41002e-05
13 *192:18 *1124:B1 0.000214862
14 *192:18 *207:10 1.14452e-05
15 *192:33 *207:10 0
16 *192:35 *207:8 9.67842e-05
17 *193:8 *207:10 8.78864e-05
18 *193:14 *207:10 0.000269834
19 *198:27 *1126:A2 2.64073e-05
20 *201:6 *1126:A2 1.24376e-05
21 *201:19 *1126:A2 0.000138607
*RES
1 *1121:Y *207:8 39.0979 
2 *207:8 *207:10 11.0614 
3 *207:10 *1124:B1 42.1636 
4 *207:10 *1126:A2 41.045 
*END

*D_NET *208 0.0012991
*CONN
*I *1125:B I *D sky130_fd_sc_hd__or3b_2
*I *1123:A0 I *D sky130_fd_sc_hd__mux2_1
*I *1122:X O *D sky130_fd_sc_hd__o31a_1
*CAP
1 *1125:B 9.58745e-05
2 *1123:A0 0
3 *1122:X 0.00013168
4 *208:20 0.000112818
5 *208:12 0.000343861
6 *208:8 0.000266848
7 *208:8 *316:10 6.4045e-05
8 *208:20 *1113:B 5.79559e-05
9 *208:20 *316:10 0
10 *1125:A *1125:B 1.59094e-05
11 *181:21 *208:20 9.5956e-06
12 *193:14 *208:8 0
13 *193:14 *208:20 0.000190118
14 *207:10 *208:20 1.03972e-05
*RES
1 *1122:X *208:8 40.9621 
2 *208:8 *208:12 16.5743 
3 *208:12 *208:20 32.8793 
4 *208:20 *1123:A0 23 
5 *208:12 *1125:B 24.0979 
*END

*D_NET *209 0.00122252
*CONN
*I *1124:C1 I *D sky130_fd_sc_hd__o211ai_2
*I *1123:X O *D sky130_fd_sc_hd__mux2_1
*CAP
1 *1124:C1 4.29956e-05
2 *1123:X 0.000254264
3 *209:10 0.000297259
4 *1124:C1 *220:12 3.42398e-05
5 *209:10 *1113:B 9.61729e-05
6 *1124:B1 *209:10 0.000218023
7 *192:18 *209:10 1.22906e-05
8 *198:10 *1124:C1 5.79559e-05
9 *198:10 *209:10 0.00013449
10 *207:10 *209:10 7.48331e-05
*RES
1 *1123:X *209:10 43.4686 
2 *209:10 *1124:C1 39.0979 
*END

*D_NET *210 0.0020214
*CONN
*I *1136:A2 I *D sky130_fd_sc_hd__a22o_1
*I *1129:A2 I *D sky130_fd_sc_hd__a22o_1
*I *1132:B2 I *D sky130_fd_sc_hd__a32o_1
*I *1124:Y O *D sky130_fd_sc_hd__o211ai_2
*CAP
1 *1136:A2 6.94319e-05
2 *1129:A2 0
3 *1132:B2 0.00032258
4 *1124:Y 0.000101104
5 *210:16 0.000536405
6 *210:10 0.000384361
7 *1132:B2 *1132:A2 4.36701e-05
8 *1136:A2 *1136:B1 2.93845e-05
9 *1136:A2 *219:14 0.000138444
10 *1136:A2 *220:12 2.32101e-05
11 *210:16 *1132:A2 1.01436e-05
12 *210:16 *212:10 3.95159e-06
13 *210:16 *212:16 0.000114214
14 *1124:B1 *210:10 0
15 *1132:A1 *1132:B2 2.48761e-05
16 *90:20 *210:16 0
17 *90:24 *1136:A2 4.2573e-05
18 *90:24 *210:10 7.1535e-05
19 *90:34 *210:16 1.58805e-05
20 *191:18 *1132:B2 2.45032e-06
21 *192:6 *1132:B2 2.45549e-06
22 *192:18 *210:16 0
23 *200:40 *1132:B2 7.91437e-05
24 *201:19 *210:16 5.58975e-06
*RES
1 *1124:Y *210:10 25.0921 
2 *210:10 *210:16 18.7079 
3 *210:16 *1132:B2 43.1579 
4 *210:16 *1129:A2 38 
5 *210:10 *1136:A2 25.0507 
*END

*D_NET *211 0.00133249
*CONN
*I *1126:A3 I *D sky130_fd_sc_hd__o311ai_4
*I *1125:X O *D sky130_fd_sc_hd__or3b_2
*CAP
1 *1126:A3 0
2 *1125:X 0.000518277
3 *211:10 0.000518277
4 *211:10 *219:14 0
5 *211:10 *327:20 0
6 *1114:A *211:10 0.000185104
7 *90:34 *211:10 1.14452e-05
8 *181:49 *211:10 3.05299e-05
9 *198:27 *211:10 6.88552e-05
*RES
1 *1125:X *211:10 47.4871 
2 *211:10 *1126:A3 38 
*END

*D_NET *212 0.00334629
*CONN
*I *1136:B1 I *D sky130_fd_sc_hd__a22o_1
*I *1129:B1 I *D sky130_fd_sc_hd__a22o_1
*I *1132:A2 I *D sky130_fd_sc_hd__a32o_1
*I *1126:Y O *D sky130_fd_sc_hd__o311ai_4
*CAP
1 *1136:B1 0.000136485
2 *1129:B1 2.21816e-05
3 *1132:A2 0.000197374
4 *1126:Y 0.000516903
5 *212:16 0.000402427
6 *212:10 0.000836258
7 *1129:B1 *315:22 2.93747e-05
8 *1132:A2 *1132:A3 9.48202e-05
9 *1132:A2 *214:16 0.000210037
10 *1132:A2 *217:10 6.17437e-06
11 *1136:B1 *219:14 1.03836e-05
12 *212:16 *214:16 1.01436e-05
13 *1126:C1 *212:10 0.000117769
14 *1132:B2 *1132:A2 4.36701e-05
15 *1136:A2 *1136:B1 2.93845e-05
16 *90:34 *212:10 0.000193388
17 *90:34 *212:16 3.91422e-05
18 *191:18 *1132:A2 1.47394e-05
19 *200:16 *1136:B1 2.93845e-05
20 *200:16 *212:10 0
21 *200:30 *1129:B1 5.3304e-05
22 *200:30 *212:10 3.0647e-05
23 *200:30 *212:16 1.02561e-05
24 *200:69 *212:10 0.000183733
25 *210:16 *1132:A2 1.01436e-05
26 *210:16 *212:10 3.95159e-06
27 *210:16 *212:16 0.000114214
*RES
1 *1126:Y *212:10 46.8243 
2 *212:10 *212:16 3.14857 
3 *212:16 *1132:A2 43.0336 
4 *212:16 *1129:B1 38.6214 
5 *212:10 *1136:B1 40.0714 
*END

*D_NET *213 0.00107598
*CONN
*I *1128:B I *D sky130_fd_sc_hd__nor2_1
*I *1127:Y O *D sky130_fd_sc_hd__a21oi_1
*CAP
1 *1128:B 0.000273878
2 *1127:Y 0.000125512
3 *213:8 0.000399389
4 *1128:B *1157:CLK 1.94693e-05
5 *1128:B *1157:D 4.26799e-05
6 *213:8 *232:150 6.12857e-05
7 *213:8 *235:68 2.68749e-05
8 *189:8 *213:8 8.23972e-05
9 *190:16 *213:8 4.44897e-05
*RES
1 *1127:Y *213:8 40.61 
2 *213:8 *1128:B 41.8529 
*END

*D_NET *214 0.00384765
*CONN
*I *1129:B2 I *D sky130_fd_sc_hd__a22o_1
*I *1128:Y O *D sky130_fd_sc_hd__nor2_1
*CAP
1 *1129:B2 0
2 *1128:Y 7.66392e-05
3 *214:16 0.000709817
4 *214:8 0.000786456
5 *214:8 *1157:D 9.75779e-05
6 *214:16 *217:10 0.000166522
7 *214:16 *235:68 0.000926647
8 *214:16 *268:127 0.000354778
9 *214:16 *282:79 0.000301294
10 *214:16 *327:20 0
11 *1132:A2 *214:16 0.000210037
12 *87:8 *214:16 4.95928e-05
13 *90:10 *214:16 4.73379e-05
14 *191:18 *214:16 0.000110803
15 *212:16 *214:16 1.01436e-05
*RES
1 *1128:Y *214:8 39.0979 
2 *214:8 *214:16 34.9271 
3 *214:16 *1129:B2 23 
*END

*D_NET *215 0.00852957
*CONN
*I *1130:B2 I *D sky130_fd_sc_hd__a22o_1
*I *1129:X O *D sky130_fd_sc_hd__a22o_1
*CAP
1 *1130:B2 0.000145265
2 *1129:X 0.000755225
3 *215:18 0.00171629
4 *215:8 0.00232625
5 *1130:B2 *921:A 0.000229774
6 *1130:B2 *1007:A 1.35999e-05
7 *1130:B2 *1007:D 5.55743e-06
8 *1130:B2 *234:6 4.94931e-05
9 *1130:B2 *269:36 7.3418e-05
10 *215:8 *315:22 0.000499011
11 *215:18 *921:A 0.000141975
12 *215:18 *1013:A 3.22051e-05
13 *215:18 *270:28 0.00014375
14 *215:18 *270:30 0.000140869
15 *215:18 *315:22 0.000221621
16 *215:18 *330:10 0.000166281
17 *1013:B *215:18 0.000143156
18 *1013:C_N *215:18 4.17736e-05
19 *1022:C *215:18 0.000290343
20 *1023:A2 *215:18 9.38775e-05
21 *1023:B1 *215:18 5.70419e-05
22 *1110:B1 *215:18 0.000128401
23 *92:14 *215:18 1.32308e-06
24 *93:10 *215:18 0.000299169
25 *94:8 *215:18 9.32888e-05
26 *97:29 *215:18 0.000398071
27 *98:6 *215:18 0.000305431
28 *99:10 *215:18 1.71077e-05
*RES
1 *1129:X *215:8 33.8854 
2 *215:8 *215:18 48.6296 
3 *215:18 *1130:B2 42.3293 
*END

*D_NET *216 0.00114287
*CONN
*I *1132:A3 I *D sky130_fd_sc_hd__a32o_1
*I *1131:X O *D sky130_fd_sc_hd__or2_1
*CAP
1 *1132:A3 0.000216668
2 *1131:X 4.61778e-05
3 *216:8 0.000262845
4 *1132:A3 *217:10 1.79538e-05
5 *216:8 *1157:RESET_B 0.000114083
6 *216:8 *327:20 0.000111852
7 *1132:A2 *1132:A3 9.48202e-05
8 *1159:D *1132:A3 7.4416e-05
9 *191:18 *1132:A3 0.000204052
*RES
1 *1131:X *216:8 39.5536 
2 *216:8 *1132:A3 43.2407 
*END

*D_NET *217 0.000613919
*CONN
*I *1133:B2 I *D sky130_fd_sc_hd__a22o_1
*I *1132:X O *D sky130_fd_sc_hd__a32o_1
*CAP
1 *1133:B2 0
2 *1132:X 0.000185386
3 *217:10 0.000185386
4 *217:10 *327:20 0
5 *1132:A2 *217:10 6.17437e-06
6 *1132:A3 *217:10 1.79538e-05
7 *200:30 *217:10 5.2497e-05
8 *214:16 *217:10 0.000166522
*RES
1 *1132:X *217:10 41.3557 
2 *217:10 *1133:B2 38 
*END

*D_NET *218 0.00187924
*CONN
*I *1135:B I *D sky130_fd_sc_hd__xnor2_1
*I *1134:X O *D sky130_fd_sc_hd__o21a_1
*CAP
1 *1135:B 0.000223479
2 *1134:X 0.00054208
3 *218:10 0.000765559
4 *1135:B *316:10 0
5 *1134:A2 *218:10 8.28854e-05
6 *1203:A *218:10 0.00010018
7 *192:35 *1135:B 0.000139982
8 *207:10 *1135:B 2.50756e-05
*RES
1 *1134:X *218:10 47.6943 
2 *218:10 *1135:B 42.1843 
*END

*D_NET *219 0.00284822
*CONN
*I *1136:B2 I *D sky130_fd_sc_hd__a22o_1
*I *1135:Y O *D sky130_fd_sc_hd__xnor2_1
*CAP
1 *1136:B2 0
2 *1135:Y 0
3 *219:14 0.000704301
4 *219:6 0.000704301
5 *219:14 *327:20 0
6 *1136:A2 *219:14 0.000138444
7 *1136:B1 *219:14 1.03836e-05
8 *90:34 *219:14 0.000179769
9 *192:18 *219:14 0.000537531
10 *192:33 *219:14 0.000223915
11 *198:27 *219:14 0.000199701
12 *200:16 *219:14 9.67842e-05
13 *201:19 *219:14 5.30871e-05
14 *211:10 *219:14 0
*RES
1 *1135:Y *219:6 38 
2 *219:6 *219:14 32.5036 
3 *219:14 *1136:B2 23 
*END

*D_NET *220 0.00796683
*CONN
*I *1137:B2 I *D sky130_fd_sc_hd__a22o_1
*I *1136:X O *D sky130_fd_sc_hd__a22o_1
*CAP
1 *1137:B2 0
2 *1136:X 0.000556669
3 *220:30 0.00204613
4 *220:12 0.0026028
5 *220:30 *1137:A2 0.000138008
6 *220:30 *269:42 5.74886e-05
7 *220:30 *269:78 0.00107495
8 *1015:A1 *220:30 0.000246252
9 *1015:B1_N *220:30 9.93575e-05
10 *1019:A *220:30 4.08664e-05
11 *1019:C_N *220:30 0.000107546
12 *1028:A2 *220:30 0.000443667
13 *1031:A1 *220:30 9.67842e-05
14 *1124:C1 *220:12 3.42398e-05
15 *1136:A2 *220:12 2.32101e-05
16 *1138:A *220:30 0.000145627
17 *90:24 *220:12 0.00018413
18 *198:10 *220:12 6.6296e-05
19 *198:10 *220:30 2.81406e-06
*RES
1 *1136:X *220:12 31.9071 
2 *220:12 *220:30 35.1107 
3 *220:30 *1137:B2 23 
*END

*D_NET *221 0.00178264
*CONN
*I *1139:B2 I *D sky130_fd_sc_hd__a22o_1
*I *1138:Y O *D sky130_fd_sc_hd__inv_2
*CAP
1 *1139:B2 0.000337774
2 *1138:Y 0.000307719
3 *221:10 0.000645493
4 *1139:B2 *232:79 0.000148278
5 *1139:B2 *269:54 1.32939e-05
6 *221:10 *1160:CLK 0.000108681
7 *221:10 *1161:CLK 2.93747e-05
8 *221:10 *319:8 0
9 *221:10 *330:10 0
10 *44:10 *221:10 0.000192022
11 *45:12 *221:10 0
*RES
1 *1138:Y *221:10 44.4007 
2 *221:10 *1139:B2 44.7114 
*END

*D_NET *222 0.00197998
*CONN
*I *1141:B1 I *D sky130_fd_sc_hd__a31o_1
*I *1140:X O *D sky130_fd_sc_hd__and2_1
*CAP
1 *1141:B1 0.000349279
2 *1140:X 0.000202522
3 *222:8 0.000551801
4 *1141:B1 *927:C 6.17437e-06
5 *1141:B1 *1153:A1 8.48502e-06
6 *1141:B1 *268:74 0.000147656
7 *1141:B1 *281:33 0.000129464
8 *1141:B1 *311:27 0.000224411
9 *222:8 *927:B 1.00203e-05
10 *222:8 *331:18 0.000350168
*RES
1 *1140:X *222:8 43.075 
2 *222:8 *1141:B1 44.8357 
*END

*D_NET *223 0.000118198
*CONN
*I *1143:B1 I *D sky130_fd_sc_hd__a31o_1
*I *1142:X O *D sky130_fd_sc_hd__and2_1
*CAP
1 *1143:B1 5.90989e-05
2 *1142:X 5.90989e-05
*RES
1 *1142:X *1143:B1 47.0979 
*END

*D_NET *224 0.000877245
*CONN
*I *1145:B1 I *D sky130_fd_sc_hd__a31o_1
*I *1144:X O *D sky130_fd_sc_hd__and2_1
*CAP
1 *1145:B1 6.67276e-05
2 *1144:X 0.000211759
3 *224:8 0.000278487
4 *1145:B1 *1149:A3 0.00014894
5 *224:8 *232:118 0.000171332
6 *224:8 *236:141 0
*RES
1 *1144:X *224:8 42.7229 
2 *224:8 *1145:B1 40.0714 
*END

*D_NET *225 0.000118198
*CONN
*I *1147:B1 I *D sky130_fd_sc_hd__a31o_1
*I *1146:X O *D sky130_fd_sc_hd__and2_1
*CAP
1 *1147:B1 5.90989e-05
2 *1146:X 5.90989e-05
*RES
1 *1146:X *1147:B1 47.0979 
*END

*D_NET *226 0.00071374
*CONN
*I *1149:B1 I *D sky130_fd_sc_hd__a31o_1
*I *1148:X O *D sky130_fd_sc_hd__and2_1
*CAP
1 *1149:B1 0
2 *1148:X 0.000210197
3 *226:10 0.000210197
4 *226:10 *1166:RESET_B 6.40115e-05
5 *226:10 *232:118 0.00017105
6 *226:10 *331:12 5.82853e-05
*RES
1 *1148:X *226:10 43.3443 
2 *226:10 *1149:B1 38 
*END

*D_NET *227 0.000402865
*CONN
*I *1151:B1 I *D sky130_fd_sc_hd__a31o_1
*I *1150:X O *D sky130_fd_sc_hd__and2_1
*CAP
1 *1151:B1 0
2 *1150:X 5.69922e-05
3 *227:8 5.69922e-05
4 *227:8 *1150:A 0.000110922
5 *227:8 *231:31 3.70094e-05
6 *227:8 *288:10 0.000140949
*RES
1 *1150:X *227:8 39.9057 
2 *227:8 *1151:B1 38 
*END

*D_NET *228 0.000512998
*CONN
*I *1153:B1 I *D sky130_fd_sc_hd__a31o_1
*I *1152:X O *D sky130_fd_sc_hd__and2_1
*CAP
1 *1153:B1 0
2 *1152:X 0.00010291
3 *228:10 0.00010291
4 *228:10 *1154:A 2.95423e-05
5 *228:10 *231:31 0.000137754
6 *228:10 *241:78 0.000139882
*RES
1 *1152:X *228:10 40.5271 
2 *228:10 *1153:B1 38 
*END

*D_NET *229 0.000326448
*CONN
*I *1155:B1 I *D sky130_fd_sc_hd__a31o_1
*I *1154:X O *D sky130_fd_sc_hd__and2_1
*CAP
1 *1155:B1 4.24921e-05
2 *1154:X 4.24921e-05
3 *1155:B1 *1155:A1 0.000140935
4 *1155:B1 *1162:RESET_B 4.72245e-05
5 *1155:B1 *230:30 5.3304e-05
*RES
1 *1154:X *1155:B1 47.5743 
*END

*D_NET *230 0.0252122
*CONN
*I *957:A2 I *D sky130_fd_sc_hd__o21ba_1
*I *918:A I *D sky130_fd_sc_hd__inv_2
*I *1151:A2 I *D sky130_fd_sc_hd__a31o_1
*I *1149:A2 I *D sky130_fd_sc_hd__a31o_1
*I *1143:A2 I *D sky130_fd_sc_hd__a31o_1
*I *1147:A2 I *D sky130_fd_sc_hd__a31o_1
*I *1145:A2 I *D sky130_fd_sc_hd__a31o_1
*I *1141:A2 I *D sky130_fd_sc_hd__a31o_1
*I *1153:A2 I *D sky130_fd_sc_hd__a31o_1
*I *1155:A2 I *D sky130_fd_sc_hd__a31o_1
*I *917:X O *D sky130_fd_sc_hd__clkbuf_4
*CAP
1 *957:A2 0.000237224
2 *918:A 0
3 *1151:A2 0
4 *1149:A2 0.000224749
5 *1143:A2 8.73464e-05
6 *1147:A2 0.000165012
7 *1145:A2 0
8 *1141:A2 0
9 *1153:A2 3.47113e-05
10 *1155:A2 0
11 *917:X 0.000323748
12 *230:155 0.000295521
13 *230:108 0.00174517
14 *230:94 0.00185811
15 *230:83 0.000283368
16 *230:79 0.00244807
17 *230:69 0.0028334
18 *230:52 5.87921e-05
19 *230:46 0.00102798
20 *230:37 0.000448059
21 *230:30 0.000267036
22 *230:20 0.000566608
23 *230:14 0.000484043
24 *230:12 0.000485239
25 *230:10 0.00101024
26 *957:A2 *957:B1_N 4.78497e-05
27 *957:A2 *269:8 5.3304e-05
28 *1143:A2 *1142:A 0
29 *1143:A2 *1142:B 0
30 *1143:A2 *1143:A1 1.21972e-05
31 *1143:A2 *1143:A3 6.17437e-06
32 *1147:A2 *1147:A1 0.00035886
33 *1149:A2 *1149:A3 0.000189935
34 *1153:A2 *1153:A1 3.85196e-05
35 *1153:A2 *1153:A3 6.58043e-05
36 *230:10 *232:14 2.60529e-05
37 *230:10 *268:56 6.14399e-05
38 *230:10 *269:21 0.000343045
39 *230:10 *282:21 0.000108681
40 *230:10 *316:133 1.69668e-05
41 *230:12 *232:14 0.00138734
42 *230:12 *268:24 1.14452e-05
43 *230:12 *268:56 0.00145192
44 *230:12 *286:10 0
45 *230:14 *268:24 6.16531e-05
46 *230:14 *286:10 0
47 *230:20 *268:24 0.000137147
48 *230:20 *281:33 2.18286e-05
49 *230:20 *286:10 0
50 *230:30 *1155:A1 2.02872e-05
51 *230:30 *1162:RESET_B 0.000139591
52 *230:30 *268:24 3.43144e-05
53 *230:30 *268:36 0.000203087
54 *230:30 *281:45 3.96108e-05
55 *230:30 *322:12 0
56 *230:37 *1153:A3 0.000100069
57 *230:37 *268:24 4.08664e-05
58 *230:37 *281:33 9.03364e-06
59 *230:46 *1153:A1 0.000261458
60 *230:46 *281:33 5.61255e-06
61 *230:52 *1141:A1 8.57485e-05
62 *230:69 *1153:A1 0.000349851
63 *230:69 *1162:CLK 0.000189667
64 *230:69 *281:10 4.90185e-05
65 *230:69 *311:27 3.56295e-05
66 *230:79 *931:A 0.000352653
67 *230:79 *1166:CLK 2.93431e-05
68 *230:79 *1183:A 4.83798e-05
69 *230:79 *244:10 0.000236355
70 *230:79 *296:14 0.000231709
71 *230:83 *236:141 1.13812e-05
72 *230:94 *1166:CLK 0
73 *230:94 *236:141 0.000590623
74 *230:94 *268:101 0.00056358
75 *230:108 *1143:A3 2.02872e-05
76 *230:108 *1163:CLK 0.000126214
77 *230:108 *241:123 0
78 *230:108 *268:95 0.000190962
79 *230:108 *282:58 6.28591e-05
80 *230:108 *282:79 2.04774e-05
81 *230:108 *316:47 0
82 *230:155 *231:23 9.77405e-05
83 *230:155 *241:78 3.05954e-05
84 *230:155 *268:14 5.56279e-05
85 *230:155 *268:18 5.56356e-05
86 *230:155 *322:12 0.000235304
87 *1155:B1 *230:30 5.3304e-05
88 *1166:D *230:79 0.00010745
89 *41:10 *957:A2 1.08287e-05
90 *49:10 *1147:A2 1.59094e-05
91 *50:8 *230:79 2.14486e-05
92 *51:8 *230:155 1.12863e-05
93 *52:10 *230:30 0.000183102
94 *111:34 *230:10 2.9927e-05
95 *112:8 *230:10 0
96 *160:8 *230:108 0.000187484
97 *162:10 *230:108 0.000296177
98 *185:14 *230:108 2.4295e-05
99 *190:24 *230:108 0
100 *190:30 *230:108 0.000462799
*RES
1 *917:X *230:10 44.525 
2 *230:10 *230:12 19.5129 
3 *230:12 *230:14 0.849286 
4 *230:14 *230:20 17.2993 
5 *230:20 *230:30 36.4421 
6 *230:30 *1155:A2 23 
7 *230:20 *230:37 2.05071 
8 *230:37 *1153:A2 24.2014 
9 *230:37 *230:46 3.48 
10 *230:46 *230:52 31.2014 
11 *230:52 *1141:A2 23 
12 *230:46 *230:69 40.8957 
13 *230:69 *230:79 49.3857 
14 *230:79 *230:83 1.47071 
15 *230:83 *1145:A2 38 
16 *230:83 *230:94 22.8921 
17 *230:94 *230:108 44.7043 
18 *230:108 *1147:A2 41.9564 
19 *230:94 *1143:A2 24.4707 
20 *230:79 *1149:A2 42.2879 
21 *230:14 *230:155 49.8264 
22 *230:155 *1151:A2 23 
23 *230:12 *918:A 38 
24 *230:10 *957:A2 41.8529 
*END

*D_NET *231 0.00439081
*CONN
*I *1150:A I *D sky130_fd_sc_hd__and2_1
*I *1152:A I *D sky130_fd_sc_hd__and2_1
*I *1154:A I *D sky130_fd_sc_hd__and2_1
*I *919:A I *D sky130_fd_sc_hd__clkbuf_4
*I *918:Y O *D sky130_fd_sc_hd__inv_2
*CAP
1 *1150:A 0.000182822
2 *1152:A 8.98463e-05
3 *1154:A 1.64076e-05
4 *919:A 0.000449078
5 *918:Y 0
6 *231:31 0.000349544
7 *231:23 0.0005202
8 *231:4 0.000543166
9 *919:A *1182:A 5.41288e-05
10 *919:A *232:6 5.44646e-05
11 *919:A *232:98 3.59538e-05
12 *919:A *268:18 1.24376e-05
13 *919:A *322:12 4.34876e-05
14 *1150:A *1167:CLK 0.000182826
15 *1150:A *241:78 0.00014985
16 *1150:A *288:10 3.57337e-05
17 *1150:A *316:158 6.343e-05
18 *1152:A *1152:B 4.46598e-05
19 *1152:A *1162:RESET_B 0.00014384
20 *1154:A *1162:RESET_B 1.61385e-05
21 *231:23 *1151:A1 6.17437e-06
22 *231:23 *232:98 0.000312776
23 *231:23 *268:14 5.61255e-06
24 *231:23 *268:18 8.81945e-05
25 *231:31 *241:78 0.000263732
26 *231:31 *288:10 0.000313339
27 *227:8 *1150:A 0.000110922
28 *227:8 *231:31 3.70094e-05
29 *228:10 *1154:A 2.95423e-05
30 *228:10 *231:31 0.000137754
31 *230:155 *231:23 9.77405e-05
*RES
1 *918:Y *231:4 23 
2 *231:4 *919:A 30.7264 
3 *231:4 *231:23 18.48 
4 *231:23 *231:31 21.8979 
5 *231:31 *1154:A 23.6214 
6 *231:31 *1152:A 25.9207 
7 *231:23 *1150:A 43.075 
*END

*D_NET *232 0.0300425
*CONN
*I *1133:A1 I *D sky130_fd_sc_hd__a22o_1
*I *1146:A I *D sky130_fd_sc_hd__and2_1
*I *1142:A I *D sky130_fd_sc_hd__and2_1
*I *1144:A I *D sky130_fd_sc_hd__and2_1
*I *1148:A I *D sky130_fd_sc_hd__and2_1
*I *1140:A I *D sky130_fd_sc_hd__and2_1
*I *1139:A1 I *D sky130_fd_sc_hd__a22o_1
*I *1137:A1 I *D sky130_fd_sc_hd__a22o_1
*I *1130:A1 I *D sky130_fd_sc_hd__a22o_1
*I *956:A I *D sky130_fd_sc_hd__nor2_2
*I *919:X O *D sky130_fd_sc_hd__clkbuf_4
*CAP
1 *1133:A1 0
2 *1146:A 0
3 *1142:A 8.39699e-05
4 *1144:A 9.87593e-05
5 *1148:A 0
6 *1140:A 0
7 *1139:A1 0
8 *1137:A1 0
9 *1130:A1 0
10 *956:A 7.90751e-05
11 *919:X 0.000359586
12 *232:169 0.000660777
13 *232:150 0.00172366
14 *232:131 0.00131088
15 *232:118 0.000738296
16 *232:107 0.00184589
17 *232:100 0.00137039
18 *232:98 0.00126817
19 *232:79 0.000700031
20 *232:66 0.000735424
21 *232:62 0.000671331
22 *232:47 0.00132035
23 *232:39 0.000979328
24 *232:14 0.00116627
25 *232:6 0.00242004
26 *956:A *957:B1_N 5.3304e-05
27 *956:A *269:8 3.17027e-05
28 *1142:A *1142:B 3.7877e-05
29 *1144:A *1144:B 9.5877e-05
30 *232:6 *1182:A 5.47808e-05
31 *232:14 *269:21 3.43144e-05
32 *232:14 *286:10 0
33 *232:14 *294:14 0
34 *232:39 *1156:RESET_B 2.8521e-05
35 *232:39 *269:21 0.000102308
36 *232:39 *294:14 2.25091e-05
37 *232:39 *298:22 9.75213e-05
38 *232:39 *315:68 2.68674e-06
39 *232:47 *1130:A2 0.000143423
40 *232:47 *286:63 0.000151827
41 *232:47 *286:84 9.3422e-05
42 *232:47 *294:14 0.000113634
43 *232:47 *298:18 0.00019747
44 *232:47 *315:68 0.000166742
45 *232:62 *1130:B1 1.18039e-05
46 *232:62 *269:36 2.45549e-06
47 *232:62 *269:54 0.000397778
48 *232:62 *282:21 2.95125e-05
49 *232:62 *282:30 0.000190092
50 *232:62 *286:94 0.000114004
51 *232:62 *294:14 0
52 *232:62 *315:58 0
53 *232:66 *330:10 2.72882e-05
54 *232:79 *269:54 9.58714e-05
55 *232:79 *330:10 0.000182064
56 *232:98 *926:C 3.27248e-05
57 *232:98 *927:B 0.000297962
58 *232:98 *1151:A1 0.000201035
59 *232:98 *234:70 0.000605448
60 *232:98 *239:8 9.71264e-05
61 *232:98 *281:8 0.000135037
62 *232:98 *281:74 0.000125213
63 *232:107 *1140:B 0.000275411
64 *232:107 *331:12 0.00155014
65 *232:107 *331:18 5.00237e-05
66 *232:118 *1148:B 5.5792e-05
67 *232:118 *1166:RESET_B 0
68 *232:118 *235:159 0.000352921
69 *232:118 *236:141 0
70 *232:118 *331:12 5.00237e-05
71 *232:131 *235:159 0.000218023
72 *232:131 *236:141 0
73 *232:150 *1157:RESET_B 0.000465319
74 *232:150 *235:68 0
75 *232:150 *235:159 0.000890333
76 *232:150 *236:141 0
77 *232:150 *284:24 0
78 *232:150 *308:8 0
79 *232:169 *1133:A2 0.000181131
80 *232:169 *1157:RESET_B 0.000810159
81 *232:169 *308:8 0
82 *232:169 *308:29 0
83 *232:169 *315:8 5.3304e-05
84 *232:169 *315:22 0.000182826
85 *232:169 *315:134 0.000225265
86 *232:169 *327:20 1.02561e-05
87 *919:A *232:6 5.44646e-05
88 *919:A *232:98 3.59538e-05
89 *1139:B2 *232:79 0.000148278
90 *1143:A2 *1142:A 0
91 *41:10 *956:A 5.3304e-05
92 *41:10 *232:39 0.000112455
93 *42:10 *232:47 0.000144501
94 *42:10 *232:62 0.000170411
95 *50:8 *232:118 3.84486e-05
96 *108:10 *232:66 2.96154e-05
97 *108:10 *232:79 0.000110116
98 *114:10 *232:79 0
99 *121:27 *956:A 0
100 *189:8 *232:150 8.52602e-05
101 *190:16 *232:150 4.74824e-05
102 *200:30 *232:169 5.90675e-06
103 *213:8 *232:150 6.12857e-05
104 *224:8 *232:118 0.000171332
105 *226:10 *232:118 0.00017105
106 *230:10 *232:14 2.60529e-05
107 *230:12 *232:14 0.00138734
108 *231:23 *232:98 0.000312776
*RES
1 *919:X *232:6 27.9093 
2 *232:6 *232:14 35.2793 
3 *232:14 *956:A 39.595 
4 *232:14 *232:39 36.525 
5 *232:39 *232:47 32.7314 
6 *232:47 *1130:A1 23 
7 *232:47 *232:62 42.7186 
8 *232:62 *232:66 15.8493 
9 *232:66 *1137:A1 38 
10 *232:66 *232:79 28.6714 
11 *232:79 *1139:A1 23 
12 *232:6 *232:98 39.1943 
13 *232:98 *232:100 15 
14 *232:100 *1140:A 23 
15 *232:100 *232:107 33.9714 
16 *232:107 *1148:A 23 
17 *232:107 *232:118 27.2836 
18 *232:118 *1144:A 39.9471 
19 *232:118 *232:131 2.96214 
20 *232:131 *1142:A 39.6157 
21 *232:131 *232:150 24.1529 
22 *232:150 *1146:A 38 
23 *232:150 *232:169 33.0214 
24 *232:169 *1133:A1 23 
*END

*D_NET *233 0.0204147
*CONN
*I *929:A I *D sky130_fd_sc_hd__or3b_2
*I *961:D I *D sky130_fd_sc_hd__and4_1
*I *963:B1 I *D sky130_fd_sc_hd__a22o_1
*I *964:D I *D sky130_fd_sc_hd__nand4_1
*I *977:B I *D sky130_fd_sc_hd__nand4_2
*I *1021:B I *D sky130_fd_sc_hd__nand2_1
*I *1009:A2 I *D sky130_fd_sc_hd__a22o_1
*I *979:C I *D sky130_fd_sc_hd__nand4_2
*I *1153:A1 I *D sky130_fd_sc_hd__a31o_1
*I *931:A I *D sky130_fd_sc_hd__xor2_1
*I *920:X O *D sky130_fd_sc_hd__clkbuf_4
*CAP
1 *929:A 7.71824e-05
2 *961:D 0
3 *963:B1 9.28522e-05
4 *964:D 0.000202519
5 *977:B 0
6 *1021:B 0
7 *1009:A2 1.51572e-05
8 *979:C 2.41087e-05
9 *1153:A1 0.000325546
10 *931:A 0.000131557
11 *920:X 0.000116939
12 *233:144 0.000491374
13 *233:125 0.000783953
14 *233:106 0.00160322
15 *233:88 0.000575752
16 *233:73 0.000721175
17 *233:69 0.000850303
18 *233:44 0.00290691
19 *233:27 0.00156345
20 *233:25 0.000568589
21 *233:8 0.000463784
22 *929:A *930:B 3.62502e-05
23 *931:A *1183:A 0.000233617
24 *963:B1 *271:96 5.56356e-05
25 *963:B1 *282:54 2.46906e-05
26 *964:D *272:60 4.2812e-06
27 *964:D *272:69 0.000105727
28 *964:D *280:14 0
29 *979:C *979:D 3.75273e-05
30 *1153:A1 *927:C 5.58003e-05
31 *1153:A1 *281:33 0.000569452
32 *1153:A1 *311:27 2.02872e-05
33 *233:8 *323:8 8.78864e-05
34 *233:25 *241:20 3.07712e-05
35 *233:27 *927:C 4.46854e-05
36 *233:27 *930:B 3.7122e-06
37 *233:27 *234:70 5.3304e-05
38 *233:27 *240:6 5.39078e-05
39 *233:44 *927:B 0.000189211
40 *233:44 *927:C 0.000237672
41 *233:44 *933:A2 0.000212621
42 *233:44 *979:A 2.02059e-05
43 *233:44 *1039:D 4.90185e-05
44 *233:44 *235:109 0
45 *233:44 *235:126 8.22585e-05
46 *233:44 *237:59 3.42043e-05
47 *233:44 *238:36 0.00029321
48 *233:44 *239:21 0.000166513
49 *233:44 *271:12 3.63756e-05
50 *233:44 *288:44 0
51 *233:44 *293:24 0
52 *233:44 *331:18 0.00031719
53 *233:69 *234:19 0.000136905
54 *233:69 *234:21 0.000218522
55 *233:69 *234:25 1.88972e-05
56 *233:69 *234:35 2.60152e-05
57 *233:69 *272:18 0
58 *233:69 *316:62 7.7752e-05
59 *233:88 *293:16 0
60 *233:88 *315:38 0.000139352
61 *233:125 *272:69 5.11184e-05
62 *233:144 *970:B 0.000136743
63 *233:144 *990:A1 4.96717e-05
64 *233:144 *271:96 0.000389079
65 *233:144 *271:109 0.000349813
66 *233:144 *271:126 9.72801e-05
67 *233:144 *272:69 0
68 *233:144 *277:27 0.000136687
69 *978:A *1009:A2 5.5792e-05
70 *979:B *979:C 5.55857e-06
71 *990:A2 *233:144 1.14762e-05
72 *990:B1 *233:144 3.09426e-05
73 *1012:A1 *233:88 0.000311447
74 *1029:C *233:88 0
75 *1043:C1 *233:44 1.94151e-05
76 *1045:A1 *964:D 2.93335e-05
77 *1051:A *233:69 0
78 *1141:B1 *1153:A1 8.48502e-06
79 *1153:A2 *1153:A1 3.85196e-05
80 *57:31 *233:44 0
81 *57:54 *1009:A2 5.5792e-05
82 *57:54 *233:69 5.55743e-06
83 *57:54 *233:73 0.000101282
84 *60:8 *233:73 5.75756e-06
85 *60:23 *233:73 0.000108472
86 *60:23 *233:88 6.5117e-06
87 *63:25 *233:73 5.29732e-06
88 *63:25 *233:88 7.56193e-05
89 *65:10 *979:C 5.4343e-05
90 *65:10 *233:44 1.34487e-05
91 *65:10 *233:69 0.000217669
92 *65:29 *233:144 1.22822e-05
93 *65:48 *233:144 7.22496e-07
94 *67:17 *233:144 0.000143874
95 *71:10 *233:69 5.58003e-05
96 *95:14 *233:88 0.000370859
97 *98:12 *233:88 3.53348e-05
98 *107:10 *233:88 0.000151331
99 *109:10 *233:88 0
100 *117:8 *233:88 0.000166513
101 *121:27 *979:C 0
102 *123:28 *233:44 2.37602e-05
103 *123:28 *233:106 3.08294e-05
104 *125:10 *233:44 1.91971e-05
105 *128:8 *233:44 0.000305058
106 *131:10 *964:D 0
107 *131:10 *233:125 0
108 *131:10 *233:144 0
109 *135:25 *233:69 0.000167452
110 *150:10 *964:D 6.07306e-05
111 *152:8 *964:D 5.3304e-05
112 *167:14 *233:69 0.000294777
113 *167:14 *233:88 0
114 *230:46 *1153:A1 0.000261458
115 *230:69 *1153:A1 0.000349851
116 *230:79 *931:A 0.000352653
*RES
1 *920:X *233:8 40.2579 
2 *233:8 *931:A 43.075 
3 *233:8 *233:25 18.3143 
4 *233:25 *233:27 4.90929 
5 *233:27 *1153:A1 32.2179 
6 *233:27 *233:44 38.0964 
7 *233:44 *979:C 39.1186 
8 *233:44 *233:69 31.6957 
9 *233:69 *233:73 18.3143 
10 *233:73 *1009:A2 38.6214 
11 *233:73 *233:88 27.9879 
12 *233:88 *1021:B 23 
13 *233:69 *977:B 23 
14 *233:44 *233:106 18.2885 
15 *233:106 *964:D 42.1118 
16 *233:106 *233:125 3.1175 
17 *233:125 *963:B1 39.595 
18 *233:125 *233:144 27.8843 
19 *233:144 *961:D 23 
20 *233:25 *929:A 24.595 
*END

*D_NET *234 0.0134962
*CONN
*I *974:C I *D sky130_fd_sc_hd__nand4_2
*I *1052:A2 I *D sky130_fd_sc_hd__a22o_1
*I *1081:A2 I *D sky130_fd_sc_hd__a31o_1
*I *1051:B I *D sky130_fd_sc_hd__nand4_1
*I *979:D I *D sky130_fd_sc_hd__nand4_2
*I *980:B1 I *D sky130_fd_sc_hd__a22o_1
*I *934:A I *D sky130_fd_sc_hd__xnor2_1
*I *927:A I *D sky130_fd_sc_hd__or3_1
*I *1151:A1 I *D sky130_fd_sc_hd__a31o_1
*I *976:A2 I *D sky130_fd_sc_hd__a22o_1
*I *921:X O *D sky130_fd_sc_hd__clkbuf_4
*CAP
1 *974:C 0
2 *1052:A2 0.000111037
3 *1081:A2 3.73234e-05
4 *1051:B 0
5 *979:D 0.000389248
6 *980:B1 0.000139081
7 *934:A 0
8 *927:A 0
9 *1151:A1 0.000164512
10 *976:A2 3.89214e-05
11 *921:X 0.000291658
12 *234:117 0.000148361
13 *234:70 0.00041734
14 *234:45 0.000782414
15 *234:39 0.000749142
16 *234:37 0.000737759
17 *234:35 0.000777375
18 *234:25 0.000500119
19 *234:21 0.000297344
20 *234:19 0.000434072
21 *234:6 0.000629398
22 *976:A2 *1007:C 5.55743e-06
23 *979:D *979:A 5.12254e-05
24 *1151:A1 *926:C 5.50049e-05
25 *1151:A1 *926:D 5.50106e-05
26 *1151:A1 *268:8 1.03955e-05
27 *1151:A1 *268:14 0.000129173
28 *1151:A1 *316:168 9.11801e-05
29 *234:6 *976:B2 0.000263954
30 *234:6 *1007:A 5.5792e-05
31 *234:6 *1007:C 2.97099e-05
32 *234:6 *1007:D 2.02872e-05
33 *234:6 *269:36 0.000352898
34 *234:19 *235:20 0
35 *234:21 *272:18 0
36 *234:25 *272:18 2.96909e-05
37 *234:35 *272:18 0.000188636
38 *234:37 *272:18 2.3529e-05
39 *234:37 *331:26 5.13479e-05
40 *234:39 *236:56 0.000420407
41 *234:39 *237:10 1.4731e-05
42 *234:39 *241:61 1.69668e-05
43 *234:39 *246:8 8.85189e-05
44 *234:39 *272:24 6.55922e-05
45 *234:39 *331:18 0
46 *234:39 *331:26 0.000313135
47 *234:45 *1167:CLK 0
48 *234:45 *236:56 0.000168754
49 *234:45 *316:168 2.24973e-05
50 *234:45 *331:18 0
51 *234:70 *241:20 0
52 *234:70 *241:46 0
53 *234:70 *268:8 0.000250124
54 *234:70 *281:74 2.02872e-05
55 *234:70 *316:168 1.14154e-05
56 *976:A1 *234:6 9.98069e-06
57 *979:B *979:D 2.32645e-05
58 *979:B *980:B1 0.000133077
59 *979:C *979:D 3.75273e-05
60 *1009:B2 *976:A2 0
61 *1035:B *234:39 6.35124e-05
62 *1052:B2 *1052:A2 8.43466e-05
63 *1052:B2 *1081:A2 5.50106e-05
64 *1081:A1 *1052:A2 0.0002246
65 *1081:A1 *1081:A2 5.59252e-05
66 *1130:B2 *234:6 4.94931e-05
67 *61:8 *234:6 5.3304e-05
68 *61:10 *234:35 0.000117858
69 *61:12 *234:35 3.72639e-05
70 *61:12 *234:37 2.60152e-05
71 *61:16 *234:39 0.000136402
72 *62:6 *234:19 5.5792e-05
73 *62:12 *234:19 0.000165384
74 *65:10 *979:D 3.08045e-05
75 *66:10 *979:D 2.37791e-05
76 *121:8 *234:39 0.000497223
77 *121:27 *979:D 5.50106e-05
78 *121:27 *980:B1 1.21972e-05
79 *121:27 *234:37 6.14399e-05
80 *121:27 *234:39 0.000229515
81 *135:10 *234:35 0.000182832
82 *135:25 *1052:A2 4.95081e-05
83 *135:25 *234:25 0.000113153
84 *135:25 *234:35 8.66551e-05
85 *136:14 *234:25 3.47776e-05
86 *136:14 *234:35 6.07611e-06
87 *136:23 *1052:A2 0
88 *136:23 *1081:A2 1.57571e-05
89 *138:8 *1052:A2 2.02517e-05
90 *167:14 *234:19 3.12382e-05
91 *231:23 *1151:A1 6.17437e-06
92 *232:98 *1151:A1 0.000201035
93 *232:98 *234:70 0.000605448
94 *233:27 *234:70 5.3304e-05
95 *233:69 *234:19 0.000136905
96 *233:69 *234:21 0.000218522
97 *233:69 *234:25 1.88972e-05
98 *233:69 *234:35 2.60152e-05
*RES
1 *921:X *234:6 30.2914 
2 *234:6 *976:A2 23.8493 
3 *234:6 *234:19 21.6493 
4 *234:19 *234:21 2.96214 
5 *234:21 *234:25 2.87929 
6 *234:25 *234:35 38.4514 
7 *234:35 *234:37 1.55357 
8 *234:37 *234:39 16.3436 
9 *234:39 *234:45 18.5836 
10 *234:45 *1151:A1 28.5514 
11 *234:45 *234:70 39.9636 
12 *234:70 *927:A 23 
13 *234:39 *934:A 38 
14 *234:37 *980:B1 40.4236 
15 *234:35 *979:D 44.0486 
16 *234:25 *1051:B 38 
17 *234:21 *234:117 15 
18 *234:117 *1081:A2 24.0979 
19 *234:117 *1052:A2 26.5007 
20 *234:19 *974:C 38 
*END

*D_NET *235 0.0289975
*CONN
*I *1149:A1 I *D sky130_fd_sc_hd__a31o_1
*I *1045:A2 I *D sky130_fd_sc_hd__a31o_1
*I *936:A I *D sky130_fd_sc_hd__xor2_1
*I *927:B I *D sky130_fd_sc_hd__or3_1
*I *933:A1 I *D sky130_fd_sc_hd__o21a_1
*I *1064:B I *D sky130_fd_sc_hd__nand2_1
*I *1007:C I *D sky130_fd_sc_hd__nand4_1
*I *976:B1 I *D sky130_fd_sc_hd__a22o_1
*I *974:D I *D sky130_fd_sc_hd__nand4_2
*I *1024:B I *D sky130_fd_sc_hd__and2_1
*I *922:X O *D sky130_fd_sc_hd__clkbuf_4
*CAP
1 *1149:A1 0
2 *1045:A2 0
3 *936:A 3.25443e-05
4 *927:B 0.000285382
5 *933:A1 8.25223e-05
6 *1064:B 4.68388e-05
7 *1007:C 0.000133367
8 *976:B1 0
9 *974:D 6.32048e-05
10 *1024:B 0
11 *922:X 0
12 *235:159 0.000977505
13 *235:126 0.000462611
14 *235:115 0.000328588
15 *235:109 0.00073601
16 *235:99 0.000750059
17 *235:95 0.000638835
18 *235:80 0.00160779
19 *235:70 0.00201505
20 *235:68 0.00104023
21 *235:48 0.000162817
22 *235:32 0.000656978
23 *235:20 0.000986244
24 *235:16 0.000295511
25 *235:14 0.00302903
26 *235:4 0.00406925
27 *927:B *927:C 5.71002e-06
28 *927:B *241:46 0
29 *933:A1 *933:A2 5.3304e-05
30 *933:A1 *238:36 2.79662e-05
31 *933:A1 *297:12 0.000178517
32 *936:A *935:B 9.67842e-05
33 *936:A *936:B 5.50049e-05
34 *936:A *247:6 1.41077e-05
35 *974:D *974:B 8.80481e-05
36 *974:D *272:14 5.3304e-05
37 *1007:C *976:B2 6.33357e-05
38 *1007:C *1007:D 5.3304e-05
39 *1007:C *287:35 9.66585e-05
40 *235:14 *327:28 1.79604e-05
41 *235:20 *272:8 7.65699e-05
42 *235:20 *272:18 3.46013e-05
43 *235:32 *272:14 3.78344e-05
44 *235:32 *286:119 0.000124864
45 *235:68 *1157:RESET_B 0
46 *235:68 *268:127 0.000161771
47 *235:68 *285:28 7.98226e-05
48 *235:95 *271:69 0.000395854
49 *235:95 *305:41 0.000373704
50 *235:95 *332:54 0.000306147
51 *235:99 *293:24 8.38067e-05
52 *235:109 *236:48 7.64122e-05
53 *235:109 *238:36 0
54 *235:109 *286:14 0.000117078
55 *235:109 *293:24 0.000217246
56 *235:115 *293:24 1.37232e-05
57 *235:115 *297:12 0.000216471
58 *235:126 *249:18 0
59 *235:159 *1166:RESET_B 0
60 *235:159 *284:24 0
61 *235:159 *284:30 0
62 *976:A1 *1007:C 0.000144013
63 *976:A2 *1007:C 5.55743e-06
64 *993:A1 *235:14 0.000100486
65 *993:A2 *235:14 3.2277e-05
66 *993:B1 *235:14 2.96073e-05
67 *1000:A1 *235:14 3.2277e-05
68 *1000:A2 *235:14 0.00027408
69 *1007:B *1007:C 0.000224414
70 *1027:A1 *235:32 0.000100176
71 *1027:A2 *235:32 2.64616e-05
72 *1046:A *235:32 1.24376e-05
73 *1048:B1 *235:32 8.58779e-05
74 *1065:B *235:109 0.000218838
75 *1067:A *235:80 0.00034471
76 *1067:B *235:80 1.1258e-05
77 *1077:A *235:80 0.000265572
78 *1131:A *235:14 2.19403e-05
79 *1131:A *235:68 6.55954e-05
80 *57:31 *235:109 0.000160125
81 *61:10 *235:20 4.91627e-05
82 *61:95 *235:20 1.09162e-05
83 *61:95 *235:48 1.05324e-05
84 *71:68 *235:95 0.000218382
85 *78:10 *235:14 4.66905e-05
86 *79:6 *235:14 6.94657e-05
87 *86:14 *235:14 4.22172e-05
88 *90:20 *235:14 0.000191417
89 *90:20 *235:68 9.64943e-05
90 *126:10 *235:109 4.92509e-05
91 *127:25 *235:109 0.000134767
92 *129:10 *235:99 6.38342e-05
93 *129:10 *235:109 2.74096e-05
94 *132:12 *235:32 0.000227473
95 *152:8 *1064:B 9.66585e-05
96 *152:8 *235:80 0.000245769
97 *167:14 *235:48 0
98 *185:14 *235:80 0.000458525
99 *188:10 *235:68 8.36198e-05
100 *188:10 *235:80 7.64944e-05
101 *188:10 *235:159 2.95526e-05
102 *189:8 *235:68 6.89402e-05
103 *213:8 *235:68 2.68749e-05
104 *214:16 *235:68 0.000926647
105 *222:8 *927:B 1.00203e-05
106 *232:98 *927:B 0.000297962
107 *232:118 *235:159 0.000352921
108 *232:131 *235:159 0.000218023
109 *232:150 *235:68 0
110 *232:150 *235:159 0.000890333
111 *233:44 *927:B 0.000189211
112 *233:44 *235:109 0
113 *233:44 *235:126 8.22585e-05
114 *234:6 *1007:C 2.97099e-05
115 *234:19 *235:20 0
*RES
1 *922:X *235:4 23 
2 *235:4 *235:14 43.898 
3 *235:14 *235:16 8 
4 *235:16 *235:20 20.2511 
5 *235:20 *235:32 42.325 
6 *235:32 *1024:B 23 
7 *235:20 *974:D 24.5743 
8 *235:16 *235:48 15.6732 
9 *235:48 *976:B1 23 
10 *235:48 *1007:C 27.4536 
11 *235:4 *235:68 36.3357 
12 *235:68 *235:70 15 
13 *235:70 *235:80 20.1136 
14 *235:80 *1064:B 24.0979 
15 *235:80 *235:95 44.065 
16 *235:95 *235:99 17.61 
17 *235:99 *235:109 44.0857 
18 *235:109 *235:115 18.0243 
19 *235:115 *933:A1 25.0507 
20 *235:115 *235:126 17.61 
21 *235:126 *927:B 44.8357 
22 *235:126 *936:A 39.0979 
23 *235:99 *1045:A2 38 
24 *235:70 *235:159 38.0136 
25 *235:159 *1149:A1 38 
*END

*D_NET *236 0.0167233
*CONN
*I *1145:A1 I *D sky130_fd_sc_hd__a31o_1
*I *1072:B I *D sky130_fd_sc_hd__xnor2_1
*I *938:A1 I *D sky130_fd_sc_hd__o31a_1
*I *942:A I *D sky130_fd_sc_hd__xnor2_1
*I *1070:D I *D sky130_fd_sc_hd__and4b_1
*I *1058:A2 I *D sky130_fd_sc_hd__a22o_1
*I *1042:B I *D sky130_fd_sc_hd__and4_1
*I *1056:B I *D sky130_fd_sc_hd__nand4_1
*I *1035:C I *D sky130_fd_sc_hd__nand4_1
*I *926:B I *D sky130_fd_sc_hd__or4_1
*I *923:X O *D sky130_fd_sc_hd__clkbuf_4
*CAP
1 *1145:A1 0
2 *1072:B 3.33179e-05
3 *938:A1 0
4 *942:A 0.000439217
5 *1070:D 2.47735e-05
6 *1058:A2 0
7 *1042:B 0
8 *1056:B 0.000160631
9 *1035:C 0
10 *926:B 0
11 *923:X 0.000160047
12 *236:141 0.000715833
13 *236:104 0.00071069
14 *236:56 0.00023406
15 *236:50 0.000537675
16 *236:48 0.000585383
17 *236:42 0.000284781
18 *236:36 0.000163644
19 *236:34 0.00128662
20 *236:18 0.00146945
21 *236:16 0.000529521
22 *236:14 0.000771942
23 *236:6 0.00151451
24 *942:A *237:104 0.000106609
25 *942:A *238:100 1.83667e-05
26 *942:A *238:108 1.69668e-05
27 *942:A *238:112 4.23817e-05
28 *942:A *241:91 3.16665e-05
29 *942:A *252:10 0
30 *942:A *255:14 9.84851e-05
31 *942:A *268:93 0
32 *942:A *281:74 0.000266265
33 *942:A *332:27 5.90675e-06
34 *1056:B *272:24 0.000111979
35 *1072:B *272:115 1.3523e-05
36 *236:6 *1103:B1 0.00010766
37 *236:14 *316:47 4.96024e-05
38 *236:16 *238:92 9.86777e-06
39 *236:16 *272:115 0.000137456
40 *236:34 *238:80 0.000366154
41 *236:34 *272:32 3.87221e-06
42 *236:34 *286:18 2.21614e-05
43 *236:42 *1057:B 5.56356e-05
44 *236:42 *238:59 0.000150793
45 *236:48 *238:36 0
46 *236:48 *238:59 1.16551e-05
47 *236:50 *1035:A 9.67842e-05
48 *236:50 *237:40 0.00026457
49 *236:50 *272:24 0.000137176
50 *236:56 *926:C 0.00017505
51 *236:56 *237:10 4.6318e-06
52 *236:56 *316:168 0.000219882
53 *236:104 *237:104 2.3529e-05
54 *236:104 *237:124 0.000329466
55 *236:104 *238:100 2.49733e-05
56 *236:104 *241:123 1.06805e-05
57 *236:104 *272:115 6.12392e-05
58 *236:141 *268:101 2.60152e-05
59 *236:141 *268:127 0.000179514
60 *1058:B1 *236:42 8.48709e-05
61 *1058:B2 *236:42 4.33627e-05
62 *1062:B *236:34 5.03962e-05
63 *1070:A_N *236:34 1.9054e-05
64 *1070:B *236:34 1.43261e-05
65 *1070:C *236:34 5.75756e-06
66 *1071:A1 *1070:D 7.02666e-06
67 *1071:A1 *236:18 1.44199e-05
68 *1071:A1 *236:34 8.06804e-06
69 *1073:B *236:18 0.000304813
70 *1075:A *236:34 1.05916e-05
71 *1076:B1_N *236:14 0.000129736
72 *3:9 *236:104 0
73 *47:10 *236:141 0.000141879
74 *57:87 *236:104 6.39204e-05
75 *57:100 *236:104 1.29848e-05
76 *71:110 *236:18 5.3304e-05
77 *71:110 *236:34 5.3304e-05
78 *126:10 *236:48 1.13812e-05
79 *126:16 *236:42 0.000179725
80 *127:17 *236:42 0.000138859
81 *127:25 *1056:B 5.68873e-05
82 *142:8 *1056:B 4.01053e-05
83 *156:10 *236:18 0.000140021
84 *156:29 *236:104 5.91105e-05
85 *157:6 *1072:B 2.46906e-05
86 *157:6 *236:16 0.000309969
87 *157:6 *236:18 0.000135037
88 *159:8 *1072:B 2.46906e-05
89 *160:24 *236:14 8.48502e-06
90 *161:6 *236:14 0.000396252
91 *187:29 *236:14 2.64616e-05
92 *187:29 *236:141 8.36198e-05
93 *224:8 *236:141 0
94 *230:83 *236:141 1.13812e-05
95 *230:94 *236:141 0.000590623
96 *232:118 *236:141 0
97 *232:131 *236:141 0
98 *232:150 *236:141 0
99 *234:39 *236:56 0.000420407
100 *234:45 *236:56 0.000168754
101 *235:109 *236:48 7.64122e-05
*RES
1 *923:X *236:6 25.5271 
2 *236:6 *236:14 38.845 
3 *236:14 *236:16 3.48 
4 *236:16 *236:18 4.43286 
5 *236:18 *236:34 36.1825 
6 *236:34 *236:36 15 
7 *236:36 *236:42 4.59857 
8 *236:42 *236:48 32.2579 
9 *236:48 *236:50 6.815 
10 *236:50 *236:56 37.8921 
11 *236:56 *926:B 23 
12 *236:50 *1035:C 23 
13 *236:48 *1056:B 27.5157 
14 *236:42 *1042:B 23 
15 *236:36 *1058:A2 23 
16 *236:18 *1070:D 23.7716 
17 *236:16 *236:104 21.4836 
18 *236:104 *942:A 47.5493 
19 *236:104 *938:A1 38 
20 *236:14 *1072:B 24.1186 
21 *236:6 *236:141 46.3436 
22 *236:141 *1145:A1 23 
*END

*D_NET *237 0.0141781
*CONN
*I *1143:A1 I *D sky130_fd_sc_hd__a31o_1
*I *1073:C I *D sky130_fd_sc_hd__and4_1
*I *938:A2 I *D sky130_fd_sc_hd__o31a_1
*I *941:A1 I *D sky130_fd_sc_hd__o21a_1
*I *945:A I *D sky130_fd_sc_hd__xor2_1
*I *1069:A2 I *D sky130_fd_sc_hd__a22o_1
*I *1057:C I *D sky130_fd_sc_hd__and4_1
*I *1039:C I *D sky130_fd_sc_hd__and4_1
*I *1035:D I *D sky130_fd_sc_hd__nand4_1
*I *926:C I *D sky130_fd_sc_hd__or4_1
*I *924:X O *D sky130_fd_sc_hd__buf_2
*CAP
1 *1143:A1 0.000521012
2 *1073:C 0
3 *938:A2 0
4 *941:A1 0
5 *945:A 0.000528063
6 *1069:A2 0
7 *1057:C 3.23418e-05
8 *1039:C 0
9 *1035:D 0
10 *926:C 0.000279975
11 *924:X 0.000307817
12 *237:124 9.33201e-05
13 *237:118 0.000673535
14 *237:111 8.91986e-05
15 *237:104 0.00018525
16 *237:98 0.000567874
17 *237:85 0.00122356
18 *237:72 0.000538186
19 *237:59 0.00111568
20 *237:40 0.00113517
21 *237:25 0.000286235
22 *237:10 0.000626876
23 *926:C *238:10 0.000474799
24 *926:C *283:18 8.15327e-05
25 *926:C *316:168 0.000272321
26 *945:A *932:A 0
27 *945:A *244:31 5.07971e-05
28 *945:A *254:10 0
29 *945:A *267:8 0
30 *945:A *295:16 0
31 *945:A *332:35 0
32 *1057:C *238:59 5.79559e-05
33 *1057:C *238:66 1.3523e-05
34 *1143:A1 *939:B 9.5877e-05
35 *1143:A1 *1143:A3 5.50106e-05
36 *1143:A1 *241:123 1.56665e-05
37 *1143:A1 *268:95 0.000577462
38 *237:10 *1041:A2 6.8899e-05
39 *237:10 *283:18 6.20718e-05
40 *237:40 *1035:A 0.000135785
41 *237:40 *331:18 0.000135785
42 *237:59 *1039:D 0.000148951
43 *237:59 *238:59 0.000263591
44 *237:59 *272:32 9.41704e-05
45 *237:72 *1069:B2 5.58003e-05
46 *237:72 *238:66 0.00012753
47 *237:85 *295:16 4.31263e-05
48 *237:98 *241:104 4.66047e-05
49 *237:98 *241:123 5.50049e-05
50 *237:104 *238:108 0.000165583
51 *237:104 *241:104 1.7992e-05
52 *237:111 *241:123 4.2573e-05
53 *237:118 *241:123 8.43466e-05
54 *237:124 *238:100 0.000329466
55 *942:A *237:104 0.000106609
56 *1035:B *237:10 8.57485e-05
57 *1035:B *237:40 9.84794e-05
58 *1041:A1 *237:10 5.5792e-05
59 *1042:A *237:59 5.3304e-05
60 *1062:B *237:85 0.000117626
61 *1070:A_N *237:72 0.00016679
62 *1070:A_N *237:85 3.65917e-05
63 *1070:B *237:85 2.64616e-05
64 *1143:A2 *1143:A1 1.21972e-05
65 *1151:A1 *926:C 5.50049e-05
66 *3:9 *945:A 0
67 *3:9 *237:85 0
68 *3:9 *237:104 0
69 *47:10 *1143:A1 5.25848e-05
70 *57:20 *237:59 0.000138859
71 *125:10 *237:59 8.06804e-06
72 *126:10 *237:59 2.56281e-05
73 *127:8 *237:59 0.000236765
74 *127:17 *237:59 2.73934e-05
75 *128:8 *237:59 1.13812e-05
76 *145:12 *237:85 2.70469e-05
77 *147:14 *237:85 0.000180564
78 *232:98 *926:C 3.27248e-05
79 *233:44 *237:59 3.42043e-05
80 *234:39 *237:10 1.4731e-05
81 *236:50 *237:40 0.00026457
82 *236:56 *926:C 0.00017505
83 *236:56 *237:10 4.6318e-06
84 *236:104 *237:104 2.3529e-05
85 *236:104 *237:124 0.000329466
*RES
1 *924:X *237:10 42.9093 
2 *237:10 *926:C 47.2179 
3 *237:10 *237:25 15.6214 
4 *237:25 *1035:D 23 
5 *237:25 *237:40 35.8829 
6 *237:40 *1039:C 23 
7 *237:40 *237:59 44.7486 
8 *237:59 *1057:C 24.1186 
9 *237:59 *237:72 4.93 
10 *237:72 *1069:A2 23 
11 *237:72 *237:85 22.2707 
12 *237:85 *945:A 46.9486 
13 *237:85 *237:98 20.8621 
14 *237:98 *237:104 33.6664 
15 *237:104 *941:A1 23 
16 *237:98 *237:111 0.621429 
17 *237:111 *938:A2 23 
18 *237:111 *237:118 1.09786 
19 *237:118 *237:124 34.3707 
20 *237:124 *1073:C 23 
21 *237:118 *1143:A1 34.2686 
*END

*D_NET *238 0.0142468
*CONN
*I *1069:B1 I *D sky130_fd_sc_hd__a22o_1
*I *1073:D I *D sky130_fd_sc_hd__and4_1
*I *938:A3 I *D sky130_fd_sc_hd__o31a_1
*I *941:A2 I *D sky130_fd_sc_hd__o21a_1
*I *946:A I *D sky130_fd_sc_hd__inv_2
*I *944:B I *D sky130_fd_sc_hd__nand2_1
*I *1057:D I *D sky130_fd_sc_hd__and4_1
*I *1039:D I *D sky130_fd_sc_hd__and4_1
*I *926:D I *D sky130_fd_sc_hd__or4_1
*I *1141:A1 I *D sky130_fd_sc_hd__a31o_1
*I *925:X O *D sky130_fd_sc_hd__buf_2
*CAP
1 *1069:B1 0
2 *1073:D 0
3 *938:A3 1.58152e-05
4 *941:A2 0
5 *946:A 0
6 *944:B 0.000125963
7 *1057:D 0
8 *1039:D 9.12392e-05
9 *926:D 1.08631e-05
10 *1141:A1 0.000160179
11 *925:X 0
12 *238:137 0.000311314
13 *238:112 0.000681102
14 *238:108 0.000418862
15 *238:100 0.000451387
16 *238:92 0.000544915
17 *238:80 0.000825284
18 *238:66 0.000745971
19 *238:59 0.000737994
20 *238:36 0.00115949
21 *238:10 0.000533701
22 *238:4 0.000897985
23 *926:D *268:14 5.67058e-05
24 *938:A3 *241:123 1.5418e-05
25 *944:B *258:10 0.000119357
26 *1141:A1 *268:74 0
27 *1141:A1 *281:10 0
28 *1141:A1 *288:10 8.56844e-05
29 *238:10 *241:78 7.15126e-05
30 *238:10 *283:18 8.94487e-05
31 *238:10 *288:10 8.8781e-05
32 *238:10 *316:168 2.35393e-05
33 *238:10 *329:8 6.93449e-05
34 *238:36 *933:A2 4.9662e-05
35 *238:36 *241:78 9.30054e-05
36 *238:36 *297:12 2.07355e-05
37 *238:59 *1057:B 0.0002278
38 *238:59 *272:32 6.55012e-05
39 *238:66 *1069:B2 5.58003e-05
40 *238:80 *332:35 4.85244e-05
41 *238:92 *272:115 5.82853e-05
42 *238:100 *241:123 0.000500641
43 *238:108 *241:91 4.07715e-05
44 *238:108 *241:104 7.90687e-05
45 *238:108 *241:123 2.18409e-05
46 *238:112 *241:91 0.000107651
47 *238:112 *260:10 0
48 *238:137 *948:A 0.000278377
49 *238:137 *258:10 7.50355e-05
50 *238:137 *258:22 0.000164024
51 *238:137 *259:14 3.76968e-05
52 *238:137 *260:10 0.000192342
53 *238:137 *289:20 1.13812e-05
54 *238:137 *290:12 6.33771e-05
55 *926:C *238:10 0.000474799
56 *933:A1 *238:36 2.79662e-05
57 *942:A *238:100 1.83667e-05
58 *942:A *238:108 1.69668e-05
59 *942:A *238:112 4.23817e-05
60 *1042:A *238:59 5.58003e-05
61 *1057:C *238:59 5.79559e-05
62 *1057:C *238:66 1.3523e-05
63 *1058:B2 *238:59 5.58003e-05
64 *1071:A1 *238:92 9.66668e-05
65 *1073:B *238:92 8.29847e-05
66 *1075:A *238:80 1.57519e-05
67 *1151:A1 *926:D 5.50106e-05
68 *3:9 *238:80 4.44955e-05
69 *3:9 *238:112 2.69265e-05
70 *57:20 *238:59 0.000127744
71 *57:74 *238:80 4.60157e-05
72 *125:10 *1039:D 3.20631e-05
73 *126:10 *238:59 6.12392e-05
74 *127:17 *238:59 0.000224411
75 *148:19 *238:80 2.12347e-06
76 *154:23 *238:92 5.58003e-05
77 *156:29 *238:92 6.20906e-05
78 *230:52 *1141:A1 8.57485e-05
79 *233:44 *1039:D 4.90185e-05
80 *233:44 *238:36 0.00029321
81 *235:109 *238:36 0
82 *236:16 *238:92 9.86777e-06
83 *236:34 *238:80 0.000366154
84 *236:42 *238:59 0.000150793
85 *236:48 *238:36 0
86 *236:48 *238:59 1.16551e-05
87 *236:104 *238:100 2.49733e-05
88 *237:59 *1039:D 0.000148951
89 *237:59 *238:59 0.000263591
90 *237:72 *238:66 0.00012753
91 *237:104 *238:108 0.000165583
92 *237:124 *238:100 0.000329466
*RES
1 *925:X *238:4 23 
2 *238:4 *238:10 23.7621 
3 *238:10 *1141:A1 41.2314 
4 *238:10 *926:D 38.6214 
5 *238:4 *238:36 23.9279 
6 *238:36 *1039:D 40.4236 
7 *238:36 *238:59 27.4907 
8 *238:59 *1057:D 23 
9 *238:59 *238:66 3.48 
10 *238:66 *238:80 48.5187 
11 *238:80 *238:92 6.21429 
12 *238:92 *238:100 37.4779 
13 *238:100 *238:108 19.0807 
14 *238:108 *238:112 19.3707 
15 *238:112 *944:B 25.6929 
16 *238:112 *238:137 38.6793 
17 *238:137 *946:A 23 
18 *238:108 *941:A2 38 
19 *238:100 *938:A3 23.4971 
20 *238:92 *1073:D 23 
21 *238:66 *1069:B1 23 
*END

*D_NET *239 0.00361498
*CONN
*I *933:A2 I *D sky130_fd_sc_hd__o21a_1
*I *935:B I *D sky130_fd_sc_hd__nand2_1
*I *927:C I *D sky130_fd_sc_hd__or3_1
*I *926:X O *D sky130_fd_sc_hd__or4_1
*CAP
1 *933:A2 0.000143079
2 *935:B 0.000129661
3 *927:C 0.000160702
4 *926:X 0.000175751
5 *239:21 0.000334486
6 *239:8 0.000398198
7 *927:C *331:18 0.00026431
8 *933:A2 *297:12 2.32004e-05
9 *933:A2 *331:18 0.000204337
10 *935:B *934:B 0
11 *935:B *936:B 0.000122226
12 *935:B *241:46 5.90675e-06
13 *935:B *241:61 0.000368466
14 *935:B *247:6 8.06804e-06
15 *239:8 *281:8 9.41704e-05
16 *239:21 *331:18 0.00015637
17 *927:B *927:C 5.71002e-06
18 *933:A1 *933:A2 5.3304e-05
19 *936:A *935:B 9.67842e-05
20 *1141:B1 *927:C 6.17437e-06
21 *1153:A1 *927:C 5.58003e-05
22 *232:98 *239:8 9.71264e-05
23 *233:27 *927:C 4.46854e-05
24 *233:44 *927:C 0.000237672
25 *233:44 *933:A2 0.000212621
26 *233:44 *239:21 0.000166513
27 *238:36 *933:A2 4.9662e-05
*RES
1 *926:X *239:8 40.5271 
2 *239:8 *927:C 42.7643 
3 *239:8 *239:21 2.25786 
4 *239:21 *935:B 42.9507 
5 *239:21 *933:A2 42.06 
*END

*D_NET *240 0.00104317
*CONN
*I *930:B I *D sky130_fd_sc_hd__nand2_1
*I *929:B I *D sky130_fd_sc_hd__or3b_2
*I *927:X O *D sky130_fd_sc_hd__or3_1
*CAP
1 *930:B 0.00018537
2 *929:B 0
3 *927:X 0.000169965
4 *240:6 0.000355335
5 *930:B *930:A 5.79559e-05
6 *930:B *241:20 9.90873e-05
7 *930:B *242:10 8.15864e-05
8 *929:A *930:B 3.62502e-05
9 *233:27 *930:B 3.7122e-06
10 *233:27 *240:6 5.39078e-05
*RES
1 *927:X *240:6 25.5271 
2 *240:6 *929:B 23 
3 *240:6 *930:B 27.9714 
*END

*D_NET *241 0.0210998
*CONN
*I *994:A1 I *D sky130_fd_sc_hd__a31o_1
*I *987:A I *D sky130_fd_sc_hd__and3_1
*I *972:A I *D sky130_fd_sc_hd__nand2_1
*I *938:B1 I *D sky130_fd_sc_hd__o31a_1
*I *941:B1 I *D sky130_fd_sc_hd__o21a_1
*I *1155:A1 I *D sky130_fd_sc_hd__a31o_1
*I *933:B1 I *D sky130_fd_sc_hd__o21a_1
*I *935:A I *D sky130_fd_sc_hd__nand2_1
*I *930:A I *D sky130_fd_sc_hd__nand2_1
*I *929:C_N I *D sky130_fd_sc_hd__or3b_2
*I *928:X O *D sky130_fd_sc_hd__buf_2
*CAP
1 *994:A1 2.18824e-05
2 *987:A 0
3 *972:A 4.81289e-05
4 *938:B1 0
5 *941:B1 0
6 *1155:A1 0.000141291
7 *933:B1 0
8 *935:A 0
9 *930:A 7.61455e-05
10 *929:C_N 0
11 *928:X 0
12 *241:148 0.000509635
13 *241:138 0.00125131
14 *241:123 0.00173735
15 *241:104 0.00110042
16 *241:91 0.000645898
17 *241:78 0.000937621
18 *241:61 0.00137962
19 *241:46 0.000902058
20 *241:20 0.000463107
21 *241:12 0.00105291
22 *241:4 0.000862087
23 *930:A *242:10 1.11501e-05
24 *930:A *247:20 7.12972e-05
25 *972:A *272:107 6.17437e-06
26 *972:A *272:122 1.08052e-05
27 *972:A *272:153 0.000114798
28 *972:A *282:54 0.000139357
29 *1155:A1 *1162:RESET_B 4.62577e-05
30 *1155:A1 *268:36 0.000137368
31 *241:12 *955:A1 5.56356e-05
32 *241:12 *955:B1 1.98161e-05
33 *241:12 *242:14 2.93431e-05
34 *241:12 *242:27 0.000110055
35 *241:12 *268:6 0.000222579
36 *241:12 *268:8 0.000444647
37 *241:12 *280:14 0.000146822
38 *241:12 *281:74 7.21645e-05
39 *241:12 *332:27 0.000109895
40 *241:46 *249:8 0.000141954
41 *241:46 *249:18 5.50049e-05
42 *241:61 *936:B 1.76557e-05
43 *241:61 *951:B1 0
44 *241:61 *1167:CLK 2.72257e-05
45 *241:61 *246:8 4.334e-05
46 *241:61 *247:6 4.96675e-06
47 *241:61 *249:8 9.24795e-06
48 *241:61 *331:18 4.23817e-05
49 *241:78 *925:A 9.41704e-05
50 *241:78 *283:14 0.000317244
51 *241:78 *288:10 2.54646e-05
52 *241:78 *297:12 0.00015543
53 *241:78 *322:12 0.000346271
54 *241:91 *281:74 2.07355e-05
55 *241:91 *332:27 0.000352421
56 *241:123 *939:B 5.3304e-05
57 *241:123 *966:A 7.76364e-06
58 *241:123 *272:115 0.000281222
59 *241:123 *272:153 2.76611e-06
60 *241:123 *316:47 0.000318471
61 *241:138 *966:A 0.000187986
62 *241:138 *968:A2 1.01003e-05
63 *241:138 *271:151 0.000124635
64 *241:138 *278:12 3.33934e-05
65 *241:138 *332:81 0.000114083
66 *241:138 *332:120 0.000339983
67 *241:148 *285:34 0.000138859
68 *241:148 *286:119 5.62266e-05
69 *241:148 *332:120 0.000356938
70 *927:B *241:46 0
71 *930:B *930:A 5.79559e-05
72 *930:B *241:20 9.90873e-05
73 *935:B *241:46 5.90675e-06
74 *935:B *241:61 0.000368466
75 *938:A3 *241:123 1.5418e-05
76 *942:A *241:91 3.16665e-05
77 *994:A2 *241:138 9.79925e-05
78 *1002:A *241:138 4.21921e-05
79 *1055:B *241:148 5.52998e-05
80 *1143:A1 *241:123 1.56665e-05
81 *1150:A *241:78 0.00014985
82 *1155:B1 *1155:A1 0.000140935
83 *3:9 *241:91 0.000299196
84 *3:9 *241:104 0.000181934
85 *51:8 *241:78 4.43152e-05
86 *55:8 *241:138 3.06079e-05
87 *56:8 *241:138 0.000316872
88 *57:110 *241:123 8.62876e-05
89 *57:142 *241:138 0.000141352
90 *71:64 *241:148 0.000138859
91 *81:10 *241:138 2.90421e-05
92 *139:14 *241:148 2.48764e-05
93 *139:33 *241:148 0.000157955
94 *141:8 *241:148 9.70797e-05
95 *153:10 *241:123 0.000168788
96 *164:8 *241:123 0
97 *164:8 *241:138 7.13673e-05
98 *228:10 *241:78 0.000139882
99 *230:30 *1155:A1 2.02872e-05
100 *230:108 *241:123 0
101 *230:155 *241:78 3.05954e-05
102 *231:31 *241:78 0.000263732
103 *233:25 *241:20 3.07712e-05
104 *234:39 *241:61 1.69668e-05
105 *234:70 *241:20 0
106 *234:70 *241:46 0
107 *236:104 *241:123 1.06805e-05
108 *237:98 *241:104 4.66047e-05
109 *237:98 *241:123 5.50049e-05
110 *237:104 *241:104 1.7992e-05
111 *237:111 *241:123 4.2573e-05
112 *237:118 *241:123 8.43466e-05
113 *238:10 *241:78 7.15126e-05
114 *238:36 *241:78 9.30054e-05
115 *238:100 *241:123 0.000500641
116 *238:108 *241:91 4.07715e-05
117 *238:108 *241:104 7.90687e-05
118 *238:108 *241:123 2.18409e-05
119 *238:112 *241:91 0.000107651
*RES
1 *928:X *241:4 23 
2 *241:4 *241:12 24.8393 
3 *241:12 *241:20 20.7379 
4 *241:20 *929:C_N 23 
5 *241:20 *930:A 25.0714 
6 *241:12 *241:46 21.1521 
7 *241:46 *935:A 23 
8 *241:46 *241:61 39.57 
9 *241:61 *933:B1 23 
10 *241:61 *241:78 48.3943 
11 *241:78 *1155:A1 26.48 
12 *241:4 *241:91 24.8807 
13 *241:91 *941:B1 38 
14 *241:91 *241:104 18.7079 
15 *241:104 *938:B1 23 
16 *241:104 *241:123 37.2886 
17 *241:123 *972:A 39.5743 
18 *241:123 *241:138 32.4414 
19 *241:138 *241:148 41.8279 
20 *241:148 *987:A 23 
21 *241:138 *994:A1 23.4971 
*END

*D_NET *242 0.00198551
*CONN
*I *954:A2 I *D sky130_fd_sc_hd__o22a_1
*I *955:A2 I *D sky130_fd_sc_hd__a21oi_4
*I *929:X O *D sky130_fd_sc_hd__or3b_2
*CAP
1 *954:A2 0
2 *955:A2 0
3 *929:X 0.000278243
4 *242:27 0.000145581
5 *242:14 0.000164344
6 *242:10 0.000297006
7 *242:10 *247:20 0.000218948
8 *242:10 *265:10 0
9 *242:10 *268:85 0
10 *242:14 *281:74 5.56356e-05
11 *242:27 *955:A1 5.3304e-05
12 *242:27 *265:10 0.00013449
13 *242:27 *281:74 0.000267093
14 *242:27 *295:35 0.000138727
15 *930:A *242:10 1.11501e-05
16 *930:B *242:10 8.15864e-05
17 *241:12 *242:14 2.93431e-05
18 *241:12 *242:27 0.000110055
*RES
1 *929:X *242:10 42.785 
2 *242:10 *242:14 15.6214 
3 *242:14 *955:A2 23 
4 *242:14 *242:27 34.9093 
5 *242:27 *954:A2 23 
*END

*D_NET *243 0.000252766
*CONN
*I *931:B I *D sky130_fd_sc_hd__xor2_1
*I *930:Y O *D sky130_fd_sc_hd__nand2_1
*CAP
1 *931:B 0
2 *930:Y 0.000126383
3 *243:8 0.000126383
*RES
1 *930:Y *243:8 39.9057 
2 *243:8 *931:B 38 
*END

*D_NET *244 0.00214144
*CONN
*I *932:B I *D sky130_fd_sc_hd__and2_1
*I *953:A2 I *D sky130_fd_sc_hd__o221a_1
*I *931:X O *D sky130_fd_sc_hd__xor2_1
*CAP
1 *932:B 0
2 *953:A2 6.63607e-05
3 *931:X 0.000267432
4 *244:31 0.000313449
5 *244:12 0.00037981
6 *244:10 0.000267432
7 *953:A2 *953:A1 2.95423e-05
8 *953:A2 *295:35 6.93453e-05
9 *244:31 *953:A1 0.000104588
10 *244:31 *266:10 0
11 *244:31 *281:74 0.000123944
12 *244:31 *332:27 0.000226306
13 *244:31 *332:35 6.07611e-06
14 *945:A *244:31 5.07971e-05
15 *230:79 *244:10 0.000236355
*RES
1 *931:X *244:10 42.4329 
2 *244:10 *244:12 15 
3 *244:12 *953:A2 24.5743 
4 *244:12 *244:31 37.685 
5 *244:31 *932:B 23 
*END

*D_NET *245 0.00113462
*CONN
*I *954:B1 I *D sky130_fd_sc_hd__o22a_1
*I *932:X O *D sky130_fd_sc_hd__and2_1
*CAP
1 *954:B1 0
2 *932:X 0.000269248
3 *245:10 0.000269248
4 *245:10 *266:10 0.000165593
5 *245:10 *281:74 0.000267167
6 *245:10 *332:35 0.000163361
*RES
1 *932:X *245:10 43.2614 
2 *245:10 *954:B1 38 
*END

*D_NET *246 0.00033804
*CONN
*I *934:B I *D sky130_fd_sc_hd__xnor2_1
*I *933:X O *D sky130_fd_sc_hd__o21a_1
*CAP
1 *934:B 5.67488e-05
2 *933:X 4.63418e-05
3 *246:8 0.000103091
4 *934:B *1150:B 0
5 *934:B *1167:CLK 0
6 *935:B *934:B 0
7 *234:39 *246:8 8.85189e-05
8 *241:61 *246:8 4.334e-05
*RES
1 *933:X *246:8 39.2014 
2 *246:8 *934:B 39.2014 
*END

*D_NET *247 0.00417306
*CONN
*I *952:A2 I *D sky130_fd_sc_hd__a22o_1
*I *953:B1 I *D sky130_fd_sc_hd__o221a_1
*I *934:Y O *D sky130_fd_sc_hd__xnor2_1
*CAP
1 *952:A2 0
2 *953:B1 0
3 *934:Y 0.000784924
4 *247:33 0.00017971
5 *247:20 0.00035695
6 *247:6 0.00132158
7 *247:6 *936:B 6.9805e-05
8 *247:6 *951:B1 9.80703e-06
9 *247:6 *1167:CLK 9.84794e-05
10 *247:6 *249:8 0.000402195
11 *247:6 *263:18 9.61662e-05
12 *247:6 *264:10 5.97265e-06
13 *247:20 *953:C1 0.000100895
14 *247:20 *268:85 0
15 *247:20 *280:14 0.000155251
16 *247:20 *295:35 3.23857e-06
17 *247:33 *263:18 0.000185648
18 *247:33 *268:85 8.50457e-05
19 *247:33 *280:14 0
20 *930:A *247:20 7.12972e-05
21 *935:B *247:6 8.06804e-06
22 *936:A *247:6 1.41077e-05
23 *241:61 *247:6 4.96675e-06
24 *242:10 *247:20 0.000218948
*RES
1 *934:Y *247:6 34.1029 
2 *247:6 *247:20 38.3893 
3 *247:20 *953:B1 23 
4 *247:6 *247:33 33.2521 
5 *247:33 *952:A2 23 
*END

*D_NET *248 0.00058277
*CONN
*I *936:B I *D sky130_fd_sc_hd__xor2_1
*I *935:Y O *D sky130_fd_sc_hd__nand2_1
*CAP
1 *936:B 6.54743e-05
2 *935:Y 6.54743e-05
3 *936:B *249:8 0.000187129
4 *935:B *936:B 0.000122226
5 *936:A *936:B 5.50049e-05
6 *241:61 *936:B 1.76557e-05
7 *247:6 *936:B 6.9805e-05
*RES
1 *935:Y *936:B 49.48 
*END

*D_NET *249 0.00185768
*CONN
*I *951:A2 I *D sky130_fd_sc_hd__a22o_1
*I *937:B I *D sky130_fd_sc_hd__or2_1
*I *936:X O *D sky130_fd_sc_hd__xor2_1
*CAP
1 *951:A2 0
2 *937:B 0
3 *936:X 9.72933e-05
4 *249:18 0.000204035
5 *249:8 0.000301328
6 *249:8 *951:B1 5.30996e-06
7 *249:8 *263:18 1.57302e-05
8 *249:18 *937:A 4.3198e-05
9 *249:18 *264:10 5.40337e-05
10 *249:18 *293:24 6.47492e-05
11 *249:18 *293:34 0.000179967
12 *249:18 *297:12 9.65021e-05
13 *936:B *249:8 0.000187129
14 *235:126 *249:18 0
15 *241:46 *249:8 0.000141954
16 *241:46 *249:18 5.50049e-05
17 *241:61 *249:8 9.24795e-06
18 *247:6 *249:8 0.000402195
*RES
1 *936:X *249:8 28.2821 
2 *249:8 *249:18 34.8057 
3 *249:18 *937:B 23 
4 *249:8 *951:A2 23 
*END

*D_NET *250 0.000619895
*CONN
*I *952:B1 I *D sky130_fd_sc_hd__a22o_1
*I *937:X O *D sky130_fd_sc_hd__or2_1
*CAP
1 *952:B1 6.36176e-05
2 *937:X 0.000156689
3 *250:10 0.000220307
4 *952:B1 *951:B1 1.32314e-05
5 *952:B1 *253:16 2.79307e-05
6 *250:10 *264:10 1.01436e-05
7 *250:10 *280:14 3.11916e-05
8 *250:10 *297:12 9.67842e-05
*RES
1 *937:X *250:10 40.2993 
2 *250:10 *952:B1 39.1186 
*END

*D_NET *251 0.000229466
*CONN
*I *939:B I *D sky130_fd_sc_hd__xnor2_1
*I *938:X O *D sky130_fd_sc_hd__o31a_1
*CAP
1 *939:B 4.01422e-05
2 *938:X 4.01422e-05
3 *1143:A1 *939:B 9.5877e-05
4 *241:123 *939:B 5.3304e-05
*RES
1 *938:X *939:B 47.0979 
*END

*D_NET *252 0.00110873
*CONN
*I *950:A2 I *D sky130_fd_sc_hd__a22o_1
*I *940:B I *D sky130_fd_sc_hd__or2_1
*I *939:Y O *D sky130_fd_sc_hd__xnor2_1
*CAP
1 *950:A2 0
2 *940:B 0.000205877
3 *939:Y 0.000194376
4 *252:12 0.000205877
5 *252:10 0.000194376
6 *940:B *950:A1 6.0632e-05
7 *940:B *950:B1 5.56279e-05
8 *940:B *950:B2 5.56279e-05
9 *940:B *253:16 1.85803e-05
10 *252:10 *256:12 3.36312e-06
11 *252:10 *268:93 8.50457e-05
12 *252:10 *268:95 2.93431e-05
13 *942:A *252:10 0
*RES
1 *939:Y *252:10 40.5271 
2 *252:10 *252:12 15 
3 *252:12 *940:B 26.9979 
4 *252:12 *950:A2 23 
*END

*D_NET *253 0.00490637
*CONN
*I *951:B1 I *D sky130_fd_sc_hd__a22o_1
*I *940:X O *D sky130_fd_sc_hd__or2_1
*CAP
1 *951:B1 7.98771e-05
2 *940:X 0.000907722
3 *253:16 0.000987599
4 *951:B1 *952:B2 2.13216e-05
5 *951:B1 *263:18 7.6168e-05
6 *951:B1 *264:10 0.000140927
7 *253:16 *950:A1 0.000320032
8 *253:16 *952:A1 0.000135246
9 *253:16 *263:18 0.0011962
10 *253:16 *268:93 0.000779959
11 *253:16 *292:14 0.000102389
12 *253:16 *295:16 8.40718e-05
13 *940:B *253:16 1.85803e-05
14 *952:B1 *951:B1 1.32314e-05
15 *952:B1 *253:16 2.79307e-05
16 *241:61 *951:B1 0
17 *247:6 *951:B1 9.80703e-06
18 *249:8 *951:B1 5.30996e-06
*RES
1 *940:X *253:16 48.4993 
2 *253:16 *951:B1 25.5479 
*END

*D_NET *254 0.000404688
*CONN
*I *942:B I *D sky130_fd_sc_hd__xnor2_1
*I *941:X O *D sky130_fd_sc_hd__o21a_1
*CAP
1 *942:B 0
2 *941:X 0.000141404
3 *254:10 0.000141404
4 *254:10 *263:18 5.50106e-05
5 *945:A *254:10 0
6 *3:9 *254:10 6.6869e-05
*RES
1 *941:X *254:10 40.5271 
2 *254:10 *942:B 38 
*END

*D_NET *255 0.00108292
*CONN
*I *943:B I *D sky130_fd_sc_hd__or2_1
*I *949:A2 I *D sky130_fd_sc_hd__a22o_1
*I *942:Y O *D sky130_fd_sc_hd__xnor2_1
*CAP
1 *943:B 2.27322e-05
2 *949:A2 0
3 *942:Y 0.000188524
4 *255:14 0.000211256
5 *943:B *949:A1 0.000145238
6 *943:B *281:74 7.41573e-05
7 *255:14 *949:A1 2.4754e-05
8 *255:14 *949:B2 7.16405e-05
9 *255:14 *281:74 0.000246129
10 *255:14 *332:27 0
11 *942:A *255:14 9.84851e-05
*RES
1 *942:Y *255:14 28.945 
2 *255:14 *949:A2 23 
3 *255:14 *943:B 24.5743 
*END

*D_NET *256 0.00068242
*CONN
*I *950:B1 I *D sky130_fd_sc_hd__a22o_1
*I *943:X O *D sky130_fd_sc_hd__or2_1
*CAP
1 *950:B1 1.56031e-05
2 *943:X 0.000196931
3 *256:12 0.000212534
4 *950:B1 *950:A1 5.56279e-05
5 *256:12 *1163:CLK 1.74079e-05
6 *256:12 *1166:CLK 5.58975e-06
7 *256:12 *262:10 0.000119735
8 *940:B *950:B1 5.56279e-05
9 *252:10 *256:12 3.36312e-06
*RES
1 *943:X *256:12 41.7286 
2 *256:12 *950:B1 38.6214 
*END

*D_NET *257 0.000397455
*CONN
*I *945:B I *D sky130_fd_sc_hd__xor2_1
*I *944:Y O *D sky130_fd_sc_hd__nand2_1
*CAP
1 *945:B 0.000110611
2 *944:Y 0.000110611
3 *945:B *953:A1 7.9566e-05
4 *945:B *258:10 9.66668e-05
*RES
1 *944:Y *945:B 48.5271 
*END

*D_NET *258 0.00171996
*CONN
*I *947:A2 I *D sky130_fd_sc_hd__a211o_1
*I *948:B I *D sky130_fd_sc_hd__or2_1
*I *945:X O *D sky130_fd_sc_hd__xor2_1
*CAP
1 *947:A2 1.11135e-05
2 *948:B 0
3 *945:X 0.000239429
4 *258:22 0.000330118
5 *258:10 0.00058066
6 *947:A2 *948:A 3.86731e-05
7 *258:22 *948:A 3.32199e-05
8 *258:22 *1166:CLK 0
9 *258:22 *259:14 1.89165e-05
10 *258:22 *289:20 1.27489e-05
11 *944:B *258:10 0.000119357
12 *945:B *258:10 9.66668e-05
13 *238:137 *258:10 7.50355e-05
14 *238:137 *258:22 0.000164024
*RES
1 *945:X *258:10 28.5514 
2 *258:10 *258:22 35.1682 
3 *258:22 *948:B 23 
4 *258:10 *947:A2 23.4971 
*END

*D_NET *259 0.000721844
*CONN
*I *947:C1 I *D sky130_fd_sc_hd__a211o_1
*I *946:Y O *D sky130_fd_sc_hd__inv_2
*CAP
1 *947:C1 0
2 *946:Y 0.000261934
3 *259:14 0.000261934
4 *259:14 *948:A 0.000141362
5 *238:137 *259:14 3.76968e-05
6 *258:22 *259:14 1.89165e-05
*RES
1 *946:Y *259:14 27.8679 
2 *259:14 *947:C1 23 
*END

*D_NET *260 0.000709791
*CONN
*I *949:B1 I *D sky130_fd_sc_hd__a22o_1
*I *947:X O *D sky130_fd_sc_hd__a211o_1
*CAP
1 *949:B1 0
2 *947:X 0.000251335
3 *260:10 0.000251335
4 *260:10 *948:A 1.47795e-05
5 *260:10 *261:8 0
6 *238:112 *260:10 0
7 *238:137 *260:10 0.000192342
*RES
1 *947:X *260:10 42.0807 
2 *260:10 *949:B1 38 
*END

*D_NET *261 0.00119184
*CONN
*I *949:B2 I *D sky130_fd_sc_hd__a22o_1
*I *948:X O *D sky130_fd_sc_hd__or2_1
*CAP
1 *949:B2 0.000293261
2 *948:X 0.00015143
3 *261:8 0.000444691
4 *949:B2 *949:A1 0.000230818
5 *261:8 *1166:CLK 0
6 *255:14 *949:B2 7.16405e-05
7 *260:10 *261:8 0
*RES
1 *948:X *261:8 39.9057 
2 *261:8 *949:B2 43.0957 
*END

*D_NET *262 0.00123864
*CONN
*I *950:B2 I *D sky130_fd_sc_hd__a22o_1
*I *949:X O *D sky130_fd_sc_hd__a22o_1
*CAP
1 *950:B2 1.56031e-05
2 *949:X 0.000268112
3 *262:10 0.000283716
4 *950:B2 *950:A1 5.56279e-05
5 *262:10 *1163:CLK 0.000164282
6 *262:10 *281:74 0.000275932
7 *940:B *950:B2 5.56279e-05
8 *256:12 *262:10 0.000119735
*RES
1 *949:X *262:10 43.2614 
2 *262:10 *950:B2 38.6214 
*END

*D_NET *263 0.00372586
*CONN
*I *951:B2 I *D sky130_fd_sc_hd__a22o_1
*I *950:X O *D sky130_fd_sc_hd__a22o_1
*CAP
1 *951:B2 0
2 *950:X 0.00101736
3 *263:18 0.00101736
4 *263:18 *952:B2 1.29152e-05
5 *263:18 *265:10 5.3304e-05
6 *951:B1 *263:18 7.6168e-05
7 *247:6 *263:18 9.61662e-05
8 *247:33 *263:18 0.000185648
9 *249:8 *263:18 1.57302e-05
10 *253:16 *263:18 0.0011962
11 *254:10 *263:18 5.50106e-05
*RES
1 *950:X *263:18 44.4807 
2 *263:18 *951:B2 23 
*END

*D_NET *264 0.000928406
*CONN
*I *952:B2 I *D sky130_fd_sc_hd__a22o_1
*I *951:X O *D sky130_fd_sc_hd__a22o_1
*CAP
1 *952:B2 6.65651e-06
2 *951:X 0.000305579
3 *264:10 0.000312236
4 *264:10 *280:14 5.86204e-05
5 *951:B1 *952:B2 2.13216e-05
6 *951:B1 *264:10 0.000140927
7 *247:6 *264:10 5.97265e-06
8 *249:18 *264:10 5.40337e-05
9 *250:10 *264:10 1.01436e-05
10 *263:18 *952:B2 1.29152e-05
*RES
1 *951:X *264:10 42.3293 
2 *264:10 *952:B2 38.2486 
*END

*D_NET *265 0.00134978
*CONN
*I *953:C1 I *D sky130_fd_sc_hd__o221a_1
*I *952:X O *D sky130_fd_sc_hd__a22o_1
*CAP
1 *953:C1 0.000120303
2 *952:X 0.000239093
3 *265:10 0.000359396
4 *953:C1 *295:35 9.64755e-05
5 *265:10 *955:A1 0.000158796
6 *265:10 *268:85 1.9337e-05
7 *265:10 *295:35 6.76939e-05
8 *242:10 *265:10 0
9 *242:27 *265:10 0.00013449
10 *247:20 *953:C1 0.000100895
11 *263:18 *265:10 5.3304e-05
*RES
1 *952:X *265:10 42.64 
2 *265:10 *953:C1 41.045 
*END

*D_NET *266 0.00111139
*CONN
*I *954:B2 I *D sky130_fd_sc_hd__o22a_1
*I *953:X O *D sky130_fd_sc_hd__o221a_1
*CAP
1 *954:B2 0
2 *953:X 0.000238505
3 *266:10 0.000238505
4 *266:10 *953:A1 5.82853e-05
5 *266:10 *295:35 0.000369735
6 *266:10 *332:35 4.07715e-05
7 *244:31 *266:10 0
8 *245:10 *266:10 0.000165593
*RES
1 *953:X *266:10 43.6964 
2 *266:10 *954:B2 38 
*END

*D_NET *267 0.000585538
*CONN
*I *955:B1 I *D sky130_fd_sc_hd__a21oi_4
*I *954:X O *D sky130_fd_sc_hd__o22a_1
*CAP
1 *955:B1 4.68784e-05
2 *954:X 9.84168e-05
3 *267:8 0.000145295
4 *955:B1 *281:74 9.58714e-05
5 *955:B1 *332:27 4.37033e-05
6 *267:8 *332:35 0.000135557
7 *945:A *267:8 0
8 *241:12 *955:B1 1.98161e-05
*RES
1 *954:X *267:8 39.9057 
2 *267:8 *955:B1 39.595 
*END

*D_NET *268 0.0227813
*CONN
*I *1143:A3 I *D sky130_fd_sc_hd__a31o_1
*I *1147:A3 I *D sky130_fd_sc_hd__a31o_1
*I *1145:A3 I *D sky130_fd_sc_hd__a31o_1
*I *1149:A3 I *D sky130_fd_sc_hd__a31o_1
*I *1141:A3 I *D sky130_fd_sc_hd__a31o_1
*I *1151:A3 I *D sky130_fd_sc_hd__a31o_1
*I *956:B I *D sky130_fd_sc_hd__nor2_2
*I *1153:A3 I *D sky130_fd_sc_hd__a31o_1
*I *1155:A3 I *D sky130_fd_sc_hd__a31o_1
*I *955:Y O *D sky130_fd_sc_hd__a21oi_4
*CAP
1 *1143:A3 2.3577e-05
2 *1147:A3 0
3 *1145:A3 0
4 *1149:A3 0.000171565
5 *1141:A3 0
6 *1151:A3 0
7 *956:B 0
8 *1153:A3 3.99109e-05
9 *1155:A3 0
10 *955:Y 0.000177962
11 *268:127 0.0010653
12 *268:101 0.000516319
13 *268:97 0.00141005
14 *268:95 0.000208367
15 *268:93 0.00132965
16 *268:85 0.00137883
17 *268:74 0.000177192
18 *268:56 0.000809605
19 *268:36 0.000303447
20 *268:24 0.000503916
21 *268:18 0.00102862
22 *268:14 0.000461158
23 *268:8 0.00163439
24 *268:6 0.00146643
25 *1153:A3 *281:33 9.76248e-05
26 *268:8 *281:74 0.000109516
27 *268:8 *316:168 1.24376e-05
28 *268:14 *316:168 9.84794e-05
29 *268:14 *322:12 3.85196e-05
30 *268:18 *322:12 0.000229804
31 *268:24 *281:33 9.64943e-05
32 *268:36 *1162:RESET_B 1.08879e-05
33 *268:36 *322:12 4.76783e-05
34 *268:56 *269:8 5.56356e-05
35 *268:56 *316:133 0.000113604
36 *268:74 *281:10 0
37 *268:74 *281:33 0.000145163
38 *268:74 *311:27 1.0092e-05
39 *268:85 *955:A1 0.000216015
40 *268:85 *297:16 2.02256e-05
41 *268:93 *952:A1 0.000182087
42 *268:93 *295:16 0.000181125
43 *268:93 *316:47 6.07611e-06
44 *268:101 *1163:CLK 0
45 *268:101 *1166:CLK 0
46 *268:127 *1163:CLK 0
47 *268:127 *282:79 2.84912e-05
48 *919:A *268:18 1.24376e-05
49 *926:D *268:14 5.67058e-05
50 *942:A *268:93 0
51 *1141:A1 *268:74 0
52 *1141:B1 *268:74 0.000147656
53 *1143:A1 *1143:A3 5.50106e-05
54 *1143:A1 *268:95 0.000577462
55 *1143:A2 *1143:A3 6.17437e-06
56 *1145:B1 *1149:A3 0.00014894
57 *1149:A2 *1149:A3 0.000189935
58 *1151:A1 *268:8 1.03955e-05
59 *1151:A1 *268:14 0.000129173
60 *1153:A2 *1153:A3 6.58043e-05
61 *1155:A1 *268:36 0.000137368
62 *47:10 *268:127 0.000141879
63 *48:10 *268:101 0.000110718
64 *49:10 *268:127 0.000111852
65 *51:8 *268:56 4.77263e-05
66 *53:10 *268:36 5.81185e-05
67 *160:32 *268:127 0.000140884
68 *187:12 *268:127 0.000290917
69 *187:29 *268:127 0.000110267
70 *190:24 *268:127 0.000105638
71 *214:16 *268:127 0.000354778
72 *230:10 *268:56 6.14399e-05
73 *230:12 *268:24 1.14452e-05
74 *230:12 *268:56 0.00145192
75 *230:14 *268:24 6.16531e-05
76 *230:20 *268:24 0.000137147
77 *230:30 *268:24 3.43144e-05
78 *230:30 *268:36 0.000203087
79 *230:37 *1153:A3 0.000100069
80 *230:37 *268:24 4.08664e-05
81 *230:94 *268:101 0.00056358
82 *230:108 *1143:A3 2.02872e-05
83 *230:108 *268:95 0.000190962
84 *230:155 *268:14 5.56279e-05
85 *230:155 *268:18 5.56356e-05
86 *231:23 *268:14 5.61255e-06
87 *231:23 *268:18 8.81945e-05
88 *234:70 *268:8 0.000250124
89 *235:68 *268:127 0.000161771
90 *236:141 *268:101 2.60152e-05
91 *236:141 *268:127 0.000179514
92 *241:12 *268:6 0.000222579
93 *241:12 *268:8 0.000444647
94 *242:10 *268:85 0
95 *247:20 *268:85 0
96 *247:33 *268:85 8.50457e-05
97 *252:10 *268:93 8.50457e-05
98 *252:10 *268:95 2.93431e-05
99 *253:16 *268:93 0.000779959
100 *265:10 *268:85 1.9337e-05
*RES
1 *955:Y *268:6 25.5271 
2 *268:6 *268:8 14.9143 
3 *268:8 *268:14 6.38 
4 *268:14 *268:18 17.5271 
5 *268:18 *268:24 18.3557 
6 *268:24 *268:36 36.1314 
7 *268:36 *1155:A3 23 
8 *268:24 *1153:A3 24.9471 
9 *268:18 *268:56 35.8386 
10 *268:56 *956:B 23 
11 *268:14 *1151:A3 23 
12 *268:8 *268:74 33.8321 
13 *268:74 *1141:A3 23 
14 *268:6 *268:85 34.7229 
15 *268:85 *268:93 47.7729 
16 *268:93 *268:95 6.33857 
17 *268:95 *268:97 15 
18 *268:97 *268:101 23.2443 
19 *268:101 *1149:A3 27.9714 
20 *268:101 *1145:A3 23 
21 *268:97 *268:127 38.4486 
22 *268:127 *1147:A3 23 
23 *268:95 *1143:A3 23.6214 
*END

*D_NET *269 0.01795
*CONN
*I *1133:B1 I *D sky130_fd_sc_hd__a22o_1
*I *1137:B1 I *D sky130_fd_sc_hd__a22o_1
*I *1139:B1 I *D sky130_fd_sc_hd__a22o_1
*I *1130:B1 I *D sky130_fd_sc_hd__a22o_1
*I *957:B1_N I *D sky130_fd_sc_hd__o21ba_1
*I *956:Y O *D sky130_fd_sc_hd__nor2_2
*CAP
1 *1133:B1 0
2 *1137:B1 0
3 *1139:B1 0
4 *1130:B1 0.000109824
5 *957:B1_N 3.19893e-05
6 *956:Y 0.000137607
7 *269:90 0.000874571
8 *269:78 0.00320747
9 *269:54 0.000584419
10 *269:42 0.00076626
11 *269:36 0.00346925
12 *269:21 0.00169803
13 *269:8 0.000803295
14 *269:8 *316:133 3.7122e-06
15 *269:21 *282:21 6.96403e-05
16 *269:21 *286:73 8.37996e-05
17 *269:21 *286:94 0.000322528
18 *269:21 *294:14 0
19 *269:36 *287:35 8.36198e-05
20 *269:42 *1137:A2 2.25809e-05
21 *269:54 *1137:A2 5.25848e-05
22 *269:54 *1160:CLK 0
23 *269:54 *1161:CLK 9.84794e-05
24 *269:54 *282:30 0
25 *269:54 *298:8 0
26 *269:54 *315:56 0.000107325
27 *269:54 *315:58 4.21594e-06
28 *269:54 *319:8 8.62783e-05
29 *269:78 *295:10 8.22421e-06
30 *269:78 *315:22 2.33476e-05
31 *269:90 *315:22 0.000180505
32 *269:90 *316:22 3.884e-05
33 *956:A *957:B1_N 5.3304e-05
34 *956:A *269:8 3.17027e-05
35 *957:A2 *957:B1_N 4.78497e-05
36 *957:A2 *269:8 5.3304e-05
37 *1006:A1 *269:36 3.62323e-05
38 *1018:B *269:78 2.93845e-05
39 *1019:C_N *269:78 5.12254e-05
40 *1027:B1_N *269:21 0.000261913
41 *1029:B *269:78 2.46922e-05
42 *1108:B *269:90 1.14154e-05
43 *1112:C1 *269:78 1.40958e-05
44 *1130:B2 *269:36 7.3418e-05
45 *1138:A *269:54 7.64495e-05
46 *1139:B2 *269:54 1.32939e-05
47 *1161:D *269:54 3.22051e-05
48 *41:10 *957:B1_N 2.31591e-05
49 *44:10 *269:54 6.58415e-06
50 *45:12 *269:54 0.000348249
51 *61:95 *269:36 2.18379e-05
52 *91:29 *269:36 2.35393e-05
53 *92:10 *269:36 0.000135547
54 *101:17 *269:78 9.32157e-05
55 *101:47 *269:78 2.79662e-05
56 *104:12 *269:78 3.22879e-05
57 *111:34 *269:21 0.000137594
58 *112:23 *269:21 0.000116314
59 *113:12 *269:36 4.68559e-05
60 *113:16 *269:36 0.000272755
61 *113:16 *269:78 7.65883e-06
62 *164:23 *269:90 0
63 *198:10 *269:78 6.71074e-05
64 *200:30 *269:90 0.000237432
65 *200:40 *269:90 0.000144501
66 *220:30 *269:42 5.74886e-05
67 *220:30 *269:78 0.00107495
68 *230:10 *269:21 0.000343045
69 *232:14 *269:21 3.43144e-05
70 *232:39 *269:21 0.000102308
71 *232:62 *1130:B1 1.18039e-05
72 *232:62 *269:36 2.45549e-06
73 *232:62 *269:54 0.000397778
74 *232:79 *269:54 9.58714e-05
75 *234:6 *269:36 0.000352898
76 *268:56 *269:8 5.56356e-05
*RES
1 *956:Y *269:8 25.5479 
2 *269:8 *957:B1_N 24.0979 
3 *269:8 *269:21 45.9914 
4 *269:21 *1130:B1 24.8229 
5 *269:21 *269:36 30.4114 
6 *269:36 *269:42 17.5479 
7 *269:42 *269:54 45.2664 
8 *269:54 *1139:B1 23 
9 *269:42 *1137:B1 23 
10 *269:36 *269:78 47.5407 
11 *269:78 *269:90 42.5736 
12 *269:90 *1133:B1 23 
*END

*D_NET *270 0.00753887
*CONN
*I *1002:C I *D sky130_fd_sc_hd__nand3_1
*I *1003:A1 I *D sky130_fd_sc_hd__o211a_1
*I *996:A I *D sky130_fd_sc_hd__xor2_1
*I *992:A I *D sky130_fd_sc_hd__xnor2_1
*I *1014:A I *D sky130_fd_sc_hd__xnor2_1
*I *1031:B1_N I *D sky130_fd_sc_hd__a21bo_1
*I *1013:A I *D sky130_fd_sc_hd__or3b_2
*I *958:Y O *D sky130_fd_sc_hd__nand2_2
*CAP
1 *1002:C 0
2 *1003:A1 0.000173963
3 *996:A 0
4 *992:A 0
5 *1014:A 0
6 *1031:B1_N 0
7 *1013:A 1.68892e-05
8 *958:Y 0.000211654
9 *270:47 0.000142681
10 *270:30 0.000264663
11 *270:28 0.000760186
12 *270:18 0.000804962
13 *270:16 0.000630167
14 *270:12 0.00079737
15 *270:6 0.000354763
16 *270:6 *332:91 8.84365e-05
17 *270:16 *285:28 2.4526e-05
18 *270:16 *285:34 5.17749e-05
19 *270:16 *316:62 0.000100477
20 *270:18 *285:34 0.000703516
21 *270:18 *316:62 0.000180126
22 *270:28 *285:34 5.81185e-05
23 *270:28 *316:62 2.95526e-05
24 *270:47 *285:49 8.1304e-05
25 *992:B *270:18 0.000226899
26 *997:B *270:16 0.000321419
27 *1001:B *270:6 7.75135e-05
28 *1003:B1 *1003:A1 1.59071e-05
29 *1004:A *1003:A1 3.23857e-06
30 *1014:B *270:28 0
31 *56:29 *1003:A1 0.000256133
32 *56:29 *270:16 0.000186606
33 *69:10 *270:28 0
34 *72:18 *270:28 0
35 *73:10 *270:28 3.1863e-05
36 *82:6 *270:16 5.5792e-05
37 *88:10 *270:6 9.66668e-05
38 *97:29 *270:28 8.58779e-05
39 *99:10 *1013:A 2.93335e-05
40 *99:10 *270:30 7.87243e-05
41 *99:10 *270:47 1.64096e-05
42 *100:10 *270:28 5.40241e-05
43 *139:33 *270:28 0
44 *141:16 *270:28 0
45 *190:30 *270:12 0.000210512
46 *215:18 *1013:A 3.22051e-05
47 *215:18 *270:28 0.00014375
48 *215:18 *270:30 0.000140869
*RES
1 *958:Y *270:6 27.4329 
2 *270:6 *270:12 32.9621 
3 *270:12 *270:16 10.0464 
4 *270:16 *270:18 7.76786 
5 *270:18 *270:28 42.5736 
6 *270:28 *270:30 3.00357 
7 *270:30 *1013:A 23.6214 
8 *270:30 *270:47 32.6721 
9 *270:47 *1031:B1_N 23 
10 *270:28 *1014:A 23 
11 *270:18 *992:A 23 
12 *270:16 *996:A 23 
13 *270:12 *1003:A1 26.8529 
14 *270:6 *1002:C 23 
*END

*D_NET *271 0.0154497
*CONN
*I *967:A1 I *D sky130_fd_sc_hd__o21ai_1
*I *966:A I *D sky130_fd_sc_hd__and3_1
*I *961:A I *D sky130_fd_sc_hd__and4_1
*I *963:B2 I *D sky130_fd_sc_hd__a22o_1
*I *964:A I *D sky130_fd_sc_hd__nand4_1
*I *974:A I *D sky130_fd_sc_hd__nand4_2
*I *979:A I *D sky130_fd_sc_hd__nand4_2
*I *1040:A I *D sky130_fd_sc_hd__nand4_1
*I *1039:A I *D sky130_fd_sc_hd__and4_1
*I *1035:A I *D sky130_fd_sc_hd__nand4_1
*I *959:X O *D sky130_fd_sc_hd__buf_2
*CAP
1 *967:A1 0
2 *966:A 0.000120454
3 *961:A 0
4 *963:B2 0
5 *964:A 0.000145841
6 *974:A 0
7 *979:A 0.000102329
8 *1040:A 0.00010347
9 *1039:A 6.93698e-05
10 *1035:A 0.000171512
11 *959:X 0
12 *271:151 0.000485131
13 *271:126 0.000957412
14 *271:109 0.000670817
15 *271:96 0.000272511
16 *271:86 0.000795723
17 *271:69 0.00106311
18 *271:60 0.000431175
19 *271:14 0.000334246
20 *271:12 0.000430582
21 *271:10 0.000630348
22 *271:6 0.000868646
23 *271:4 0.000856242
24 *964:A *295:16 7.10527e-05
25 *964:A *332:46 0.000162254
26 *966:A *272:107 5.67058e-05
27 *966:A *282:54 2.93747e-05
28 *979:A *272:18 3.34833e-05
29 *1035:A *272:18 4.30407e-05
30 *1035:A *272:24 0.000138292
31 *1035:A *331:18 6.11198e-05
32 *1039:A *1039:B 3.20631e-05
33 *1040:A *331:26 0.000115425
34 *271:6 *959:A 3.46302e-05
35 *271:6 *305:41 1.90678e-05
36 *271:10 *959:A 1.35714e-05
37 *271:12 *272:18 0.000151294
38 *271:14 *272:18 8.14696e-05
39 *271:14 *331:18 1.16551e-05
40 *271:60 *288:44 1.07299e-05
41 *271:60 *305:41 0.000168136
42 *271:69 *305:41 2.90421e-05
43 *271:86 *963:A1 0.000164291
44 *271:86 *272:69 1.37349e-05
45 *271:86 *272:86 4.6188e-05
46 *271:86 *274:54 0.000113153
47 *271:86 *295:16 0.000104086
48 *271:86 *332:46 7.66032e-05
49 *271:96 *272:69 2.24366e-06
50 *271:96 *272:86 2.17498e-05
51 *271:96 *282:54 5.3304e-05
52 *271:109 *277:12 1.01436e-05
53 *271:109 *277:27 7.70737e-05
54 *271:109 *332:103 1.12487e-05
55 *271:126 *970:A 0.000103
56 *271:126 *970:B 0.000136626
57 *271:126 *272:103 0.000108061
58 *271:126 *277:27 5.3304e-05
59 *271:151 *968:A1 2.11157e-05
60 *271:151 *278:12 0.000240151
61 *271:151 *278:31 5.72853e-05
62 *271:151 *279:8 6.39489e-06
63 *271:151 *332:81 1.32924e-05
64 *271:151 *332:91 1.71252e-05
65 *963:B1 *271:96 5.56356e-05
66 *970:C *271:126 5.50049e-05
67 *979:B *979:A 9.79925e-05
68 *979:D *979:A 5.12254e-05
69 *981:C *271:60 0.000192077
70 *1045:A1 *964:A 8.15603e-06
71 *1051:A *271:60 8.82421e-05
72 *55:8 *271:151 5.02657e-05
73 *57:31 *271:60 0.000158719
74 *66:10 *271:10 0.000360966
75 *66:10 *271:60 0.000292278
76 *71:10 *271:60 9.78061e-05
77 *71:12 *271:60 2.96051e-05
78 *71:68 *271:109 3.5664e-05
79 *74:8 *271:86 8.25782e-05
80 *123:28 *271:12 4.89846e-05
81 *125:10 *271:12 0.000137754
82 *125:10 *271:14 0.000162254
83 *126:10 *1040:A 0.000115425
84 *137:10 *271:60 0.000114645
85 *152:8 *964:A 1.45713e-05
86 *164:8 *966:A 0.000104123
87 *164:8 *271:151 3.26321e-05
88 *233:44 *979:A 2.02059e-05
89 *233:44 *271:12 3.63756e-05
90 *233:144 *271:96 0.000389079
91 *233:144 *271:109 0.000349813
92 *233:144 *271:126 9.72801e-05
93 *235:95 *271:69 0.000395854
94 *236:50 *1035:A 9.67842e-05
95 *237:40 *1035:A 0.000135785
96 *241:123 *966:A 7.76364e-06
97 *241:138 *966:A 0.000187986
98 *241:138 *271:151 0.000124635
*RES
1 *959:X *271:4 23 
2 *271:4 *271:6 2.05071 
3 *271:6 *271:10 19.4329 
4 *271:10 *271:12 4.72286 
5 *271:12 *271:14 2.61 
6 *271:14 *1035:A 42.7643 
7 *271:14 *1039:A 39.0979 
8 *271:12 *1040:A 40.5271 
9 *271:10 *979:A 40.2993 
10 *271:6 *271:60 42.47 
11 *271:60 *974:A 23 
12 *271:4 *271:69 24.6736 
13 *271:69 *964:A 41.0346 
14 *271:69 *271:86 20.7793 
15 *271:86 *271:96 35.4064 
16 *271:96 *963:B2 23 
17 *271:86 *271:109 35.51 
18 *271:109 *961:A 23 
19 *271:109 *271:126 22.4986 
20 *271:126 *966:A 41.5836 
21 *271:126 *271:151 34.734 
22 *271:151 *967:A1 23 
*END

*D_NET *272 0.0202781
*CONN
*I *974:B I *D sky130_fd_sc_hd__nand4_2
*I *1039:B I *D sky130_fd_sc_hd__and4_1
*I *967:A2 I *D sky130_fd_sc_hd__o21ai_1
*I *966:C I *D sky130_fd_sc_hd__and3_1
*I *1072:A I *D sky130_fd_sc_hd__xnor2_1
*I *961:C I *D sky130_fd_sc_hd__and4_1
*I *963:A2 I *D sky130_fd_sc_hd__a22o_1
*I *964:C I *D sky130_fd_sc_hd__nand4_1
*I *1069:B2 I *D sky130_fd_sc_hd__a22o_1
*I *1057:A I *D sky130_fd_sc_hd__and4_1
*I *960:X O *D sky130_fd_sc_hd__clkbuf_4
*CAP
1 *974:B 0.000151348
2 *1039:B 3.78201e-05
3 *967:A2 0
4 *966:C 0
5 *1072:A 0
6 *961:C 0
7 *963:A2 0
8 *964:C 0
9 *1069:B2 1.51302e-05
10 *1057:A 0
11 *960:X 0.000101507
12 *272:153 0.000679485
13 *272:122 0.000692754
14 *272:115 0.000546642
15 *272:107 0.000755022
16 *272:103 0.000557681
17 *272:86 0.00113089
18 *272:69 0.00098971
19 *272:60 0.000499844
20 *272:45 0.000658899
21 *272:32 0.000300965
22 *272:24 0.00152631
23 *272:18 0.00188928
24 *272:14 0.00120579
25 *272:8 0.000164523
26 *974:B *286:119 0.000312459
27 *272:14 *286:119 0.000150139
28 *272:24 *331:18 0
29 *272:32 *971:A 6.86315e-06
30 *272:32 *280:14 0.000302885
31 *272:32 *293:24 0
32 *272:45 *332:35 0.000112235
33 *272:60 *332:35 0.000185238
34 *272:60 *332:46 2.6435e-05
35 *272:69 *963:A1 0.000155077
36 *272:69 *332:46 0.000241088
37 *272:86 *274:44 4.27684e-05
38 *272:86 *332:103 0.000148523
39 *272:103 *970:A 2.02872e-05
40 *272:103 *274:44 1.86869e-05
41 *272:103 *316:32 0.000342115
42 *272:103 *332:103 5.24393e-05
43 *272:103 *332:120 1.14452e-05
44 *272:107 *282:54 4.88858e-05
45 *272:153 *282:54 2.4754e-05
46 *272:153 *332:81 3.38662e-05
47 *964:D *272:60 4.2812e-06
48 *964:D *272:69 0.000105727
49 *966:A *272:107 5.67058e-05
50 *970:D_N *272:103 5.3304e-05
51 *972:A *272:107 6.17437e-06
52 *972:A *272:122 1.08052e-05
53 *972:A *272:153 0.000114798
54 *972:B *272:153 9.16471e-05
55 *974:D *974:B 8.80481e-05
56 *974:D *272:14 5.3304e-05
57 *979:A *272:18 3.34833e-05
58 *1035:A *272:18 4.30407e-05
59 *1035:A *272:24 0.000138292
60 *1039:A *1039:B 3.20631e-05
61 *1056:B *272:24 0.000111979
62 *1059:B *272:45 0.000229927
63 *1059:B *272:60 3.46586e-05
64 *1061:B1 *272:60 7.51623e-05
65 *1072:B *272:115 1.3523e-05
66 *57:8 *272:24 0.000145481
67 *57:20 *272:32 0
68 *57:68 *272:24 1.52719e-05
69 *57:68 *272:45 0.000455389
70 *57:100 *272:115 5.45771e-05
71 *57:121 *272:103 0.000339893
72 *58:8 *272:153 9.2996e-05
73 *61:10 *272:8 0.000164545
74 *61:10 *272:18 0
75 *121:8 *272:18 0.000386956
76 *121:8 *272:24 0.000112396
77 *121:27 *272:18 0.000287978
78 *127:8 *1039:B 9.79925e-05
79 *136:14 *272:18 8.62783e-05
80 *142:8 *272:24 1.24365e-05
81 *144:8 *272:32 8.50457e-05
82 *150:10 *272:60 1.08242e-05
83 *153:10 *272:115 0.000170917
84 *156:29 *272:115 9.21995e-05
85 *159:8 *272:115 0.000143673
86 *163:10 *272:115 0.000168788
87 *164:8 *272:115 3.21223e-05
88 *190:30 *272:153 0
89 *233:69 *272:18 0
90 *233:125 *272:69 5.11184e-05
91 *233:144 *272:69 0
92 *234:21 *272:18 0
93 *234:25 *272:18 2.96909e-05
94 *234:35 *272:18 0.000188636
95 *234:37 *272:18 2.3529e-05
96 *234:39 *272:24 6.55922e-05
97 *235:20 *272:8 7.65699e-05
98 *235:20 *272:18 3.46013e-05
99 *235:32 *272:14 3.78344e-05
100 *236:16 *272:115 0.000137456
101 *236:34 *272:32 3.87221e-06
102 *236:50 *272:24 0.000137176
103 *236:104 *272:115 6.12392e-05
104 *237:59 *272:32 9.41704e-05
105 *237:72 *1069:B2 5.58003e-05
106 *238:59 *272:32 6.55012e-05
107 *238:66 *1069:B2 5.58003e-05
108 *238:92 *272:115 5.82853e-05
109 *241:123 *272:115 0.000281222
110 *241:123 *272:153 2.76611e-06
111 *271:12 *272:18 0.000151294
112 *271:14 *272:18 8.14696e-05
113 *271:86 *272:69 1.37349e-05
114 *271:86 *272:86 4.6188e-05
115 *271:96 *272:69 2.24366e-06
116 *271:96 *272:86 2.17498e-05
117 *271:126 *272:103 0.000108061
*RES
1 *960:X *272:8 40.2579 
2 *272:8 *272:14 17.0714 
3 *272:14 *272:18 35.9214 
4 *272:18 *272:24 28.9407 
5 *272:24 *272:32 35.4686 
6 *272:32 *1057:A 23 
7 *272:24 *272:45 23.7207 
8 *272:45 *1069:B2 38.6214 
9 *272:45 *272:60 6.54571 
10 *272:60 *964:C 38 
11 *272:60 *272:69 5.77929 
12 *272:69 *963:A2 38 
13 *272:69 *272:86 20.6316 
14 *272:86 *961:C 38 
15 *272:86 *272:103 38.0993 
16 *272:103 *272:107 17.5271 
17 *272:107 *272:115 43.7129 
18 *272:115 *1072:A 23 
19 *272:107 *272:122 0.25375 
20 *272:122 *966:C 23 
21 *272:122 *272:153 40.2484 
22 *272:153 *967:A2 23 
23 *272:18 *1039:B 39.0979 
24 *272:14 *974:B 26.9771 
*END

*D_NET *273 0.000617266
*CONN
*I *970:A I *D sky130_fd_sc_hd__or4b_1
*I *961:X O *D sky130_fd_sc_hd__and4_1
*CAP
1 *970:A 0.000130682
2 *961:X 0.000130682
3 *970:C *970:A 5.50049e-05
4 *970:D_N *970:A 0.00017761
5 *271:126 *970:A 0.000103
6 *272:103 *970:A 2.02872e-05
*RES
1 *961:X *970:A 49.0036 
*END

*D_NET *274 0.00908062
*CONN
*I *968:B1 I *D sky130_fd_sc_hd__o21a_1
*I *969:B I *D sky130_fd_sc_hd__or3_1
*I *965:A I *D sky130_fd_sc_hd__and3_1
*I *988:B1 I *D sky130_fd_sc_hd__a21oi_1
*I *982:B1 I *D sky130_fd_sc_hd__a21o_1
*I *981:A I *D sky130_fd_sc_hd__nand3_1
*I *962:X O *D sky130_fd_sc_hd__and2_1
*CAP
1 *968:B1 0
2 *969:B 0
3 *965:A 0.000105532
4 *988:B1 0
5 *982:B1 2.9445e-05
6 *981:A 0.000206529
7 *962:X 0
8 *274:91 0.000341831
9 *274:76 0.000720252
10 *274:54 0.000534995
11 *274:44 0.000926002
12 *274:42 0.00154189
13 *274:10 0.000459292
14 *274:4 0.00110131
15 *965:A *282:54 0.000100733
16 *981:A *293:24 6.16439e-05
17 *274:42 *962:B 5.56356e-05
18 *274:42 *277:46 0.000176843
19 *274:44 *316:32 0.000389172
20 *274:44 *332:54 0
21 *274:44 *332:120 0
22 *274:54 *295:16 0.000110922
23 *274:54 *305:41 0.000567984
24 *274:54 *316:32 0.000111852
25 *274:54 *332:54 0
26 *274:76 *316:26 0.000348911
27 *274:76 *316:32 0.000120405
28 *274:76 *316:62 2.55642e-05
29 *274:76 *332:120 0
30 *274:91 *968:A1 8.22421e-06
31 *274:91 *1147:A1 5.3304e-05
32 *274:91 *278:31 4.49875e-05
33 *274:91 *278:53 5.94125e-05
34 *274:91 *279:8 2.64616e-05
35 *274:91 *279:23 1.12487e-05
36 *274:91 *316:22 3.47781e-05
37 *274:91 *316:26 8.52481e-05
38 *274:91 *332:81 2.93845e-05
39 *274:91 *332:91 0
40 *991:A *274:42 7.54868e-05
41 *1053:A *274:10 2.93431e-05
42 *56:8 *274:91 0
43 *58:8 *274:91 0.000153127
44 *66:18 *981:A 1.14452e-05
45 *66:18 *982:B1 3.36312e-06
46 *131:10 *982:B1 1.69395e-05
47 *131:10 *274:10 2.86129e-05
48 *131:14 *274:10 5.40241e-05
49 *139:14 *274:10 0.000143874
50 *271:86 *274:54 0.000113153
51 *272:86 *274:44 4.27684e-05
52 *272:103 *274:44 1.86869e-05
*RES
1 *962:X *274:4 23 
2 *274:4 *274:10 19.3086 
3 *274:10 *981:A 40.9 
4 *274:10 *982:B1 38.8493 
5 *274:4 *274:42 28.2157 
6 *274:42 *274:44 5.42714 
7 *274:44 *274:54 39.4457 
8 *274:54 *988:B1 38 
9 *274:44 *965:A 40.0507 
10 *274:42 *274:76 21.3386 
11 *274:76 *969:B 23 
12 *274:76 *274:91 35.8621 
13 *274:91 *968:B1 23 
*END

*D_NET *275 0.00121522
*CONN
*I *988:A1 I *D sky130_fd_sc_hd__a21oi_1
*I *965:B I *D sky130_fd_sc_hd__and3_1
*I *963:X O *D sky130_fd_sc_hd__a22o_1
*CAP
1 *988:A1 0
2 *965:B 0
3 *963:X 0.000159768
4 *275:16 0.000216441
5 *275:8 0.000376209
6 *275:8 *988:A2 2.77232e-05
7 *275:8 *276:14 3.91386e-05
8 *275:8 *282:54 4.38756e-05
9 *275:16 *1157:D 0.000226306
10 *275:16 *295:16 8.69741e-05
11 *71:68 *275:16 3.87866e-05
*RES
1 *963:X *275:8 25.4236 
2 *275:8 *275:16 33.7286 
3 *275:16 *965:B 23 
4 *275:8 *988:A1 23 
*END

*D_NET *276 0.00164104
*CONN
*I *965:C I *D sky130_fd_sc_hd__and3_1
*I *988:A2 I *D sky130_fd_sc_hd__a21oi_1
*I *964:Y O *D sky130_fd_sc_hd__nand4_1
*CAP
1 *965:C 7.14835e-05
2 *988:A2 1.40173e-05
3 *964:Y 0.000303868
4 *276:14 0.000100455
5 *276:10 0.000318823
6 *965:C *277:12 8.50588e-05
7 *965:C *282:54 9.34828e-05
8 *988:A2 *277:12 0
9 *276:10 *295:16 0.000131852
10 *276:14 *277:12 0
11 *71:68 *276:10 0.000288767
12 *150:10 *276:10 0.000141355
13 *152:8 *276:10 2.50118e-05
14 *275:8 *988:A2 2.77232e-05
15 *275:8 *276:14 3.91386e-05
*RES
1 *964:Y *276:10 44.0693 
2 *276:10 *276:14 15.4971 
3 *276:14 *988:A2 23.4971 
4 *276:14 *965:C 24.885 
*END

*D_NET *277 0.00340826
*CONN
*I *989:B1 I *D sky130_fd_sc_hd__a211oi_1
*I *990:A1 I *D sky130_fd_sc_hd__o211a_1
*I *970:B I *D sky130_fd_sc_hd__or4b_1
*I *965:X O *D sky130_fd_sc_hd__and3_1
*CAP
1 *989:B1 0
2 *990:A1 6.70597e-05
3 *970:B 0.000259428
4 *965:X 0.00026087
5 *277:46 0.000199134
6 *277:27 0.000417261
7 *277:12 0.000671365
8 *277:12 *282:54 2.37969e-05
9 *277:12 *332:54 8.69741e-05
10 *277:12 *332:103 7.20342e-05
11 *277:27 *332:103 8.72173e-05
12 *277:46 *295:16 0.000191157
13 *965:C *277:12 8.50588e-05
14 *988:A2 *277:12 0
15 *990:A2 *990:A1 6.17437e-06
16 *991:A *277:46 5.81643e-05
17 *71:68 *277:12 0
18 *71:68 *277:46 9.28842e-05
19 *76:10 *277:27 5.25848e-05
20 *233:144 *970:B 0.000136743
21 *233:144 *990:A1 4.96717e-05
22 *233:144 *277:27 0.000136687
23 *271:109 *277:12 1.01436e-05
24 *271:109 *277:27 7.70737e-05
25 *271:126 *970:B 0.000136626
26 *271:126 *277:27 5.3304e-05
27 *274:42 *277:46 0.000176843
28 *276:14 *277:12 0
*RES
1 *965:X *277:12 42.6814 
2 *277:12 *970:B 41.48 
3 *277:12 *277:27 19.205 
4 *277:27 *990:A1 24.0979 
5 *277:27 *277:46 35.5307 
6 *277:46 *989:B1 23 
*END

*D_NET *278 0.00382386
*CONN
*I *1002:B I *D sky130_fd_sc_hd__nand3_1
*I *995:A2 I *D sky130_fd_sc_hd__a21bo_1
*I *969:A I *D sky130_fd_sc_hd__or3_1
*I *973:A2 I *D sky130_fd_sc_hd__a22o_1
*I *968:A1 I *D sky130_fd_sc_hd__o21a_1
*I *966:X O *D sky130_fd_sc_hd__and3_1
*CAP
1 *1002:B 7.89968e-05
2 *995:A2 0.000134334
3 *969:A 7.96352e-05
4 *973:A2 0
5 *968:A1 2.75344e-05
6 *966:X 0.000282183
7 *278:53 0.000385352
8 *278:40 0.000299187
9 *278:31 0.000179064
10 *278:14 0.000159067
11 *278:12 0.000282183
12 *968:A1 *279:8 1.05846e-05
13 *968:A1 *332:81 1.72443e-05
14 *969:A *969:C 5.50049e-05
15 *969:A *1147:A1 8.264e-05
16 *969:A *316:26 0.00014196
17 *278:12 *968:A2 9.97777e-05
18 *278:12 *332:81 0.000111852
19 *278:31 *332:91 0
20 *278:40 *1147:A1 5.56356e-05
21 *278:53 *316:22 0.000122574
22 *973:A1 *969:A 4.49642e-05
23 *973:A1 *278:31 3.85196e-05
24 *973:B1 *969:A 2.64616e-05
25 *1001:B *1002:B 1.43368e-05
26 *1002:A *995:A2 0.000312454
27 *1002:A *1002:B 5.33391e-05
28 *56:12 *995:A2 5.14826e-05
29 *56:29 *995:A2 5.94211e-05
30 *56:29 *1002:B 5.79559e-05
31 *57:142 *995:A2 5.82853e-05
32 *58:8 *278:12 3.72639e-05
33 *241:138 *278:12 3.33934e-05
34 *271:151 *968:A1 2.11157e-05
35 *271:151 *278:12 0.000240151
36 *271:151 *278:31 5.72853e-05
37 *274:91 *968:A1 8.22421e-06
38 *274:91 *278:31 4.49875e-05
39 *274:91 *278:53 5.94125e-05
*RES
1 *966:X *278:12 48.9193 
2 *278:12 *278:14 8 
3 *278:14 *968:A1 38.5696 
4 *278:14 *278:31 17.5789 
5 *278:31 *973:A2 23 
6 *278:31 *278:40 1.11857 
7 *278:40 *969:A 25.5271 
8 *278:40 *278:53 32.9621 
9 *278:53 *995:A2 26.9564 
10 *278:53 *1002:B 25.0714 
*END

*D_NET *279 0.00201459
*CONN
*I *973:B2 I *D sky130_fd_sc_hd__a22o_1
*I *969:C I *D sky130_fd_sc_hd__or3_1
*I *968:A2 I *D sky130_fd_sc_hd__o21a_1
*I *967:Y O *D sky130_fd_sc_hd__o21ai_1
*CAP
1 *973:B2 0
2 *969:C 1.50079e-05
3 *968:A2 0.000173787
4 *967:Y 0.000309863
5 *279:23 0.000124681
6 *279:8 0.000593323
7 *968:A2 *332:81 0.000137368
8 *279:8 *332:81 7.98246e-05
9 *968:A1 *279:8 1.05846e-05
10 *969:A *969:C 5.50049e-05
11 *973:A1 *969:C 5.50049e-05
12 *56:8 *968:A2 4.77164e-06
13 *56:8 *279:23 5.93893e-05
14 *58:8 *968:A2 0.000136877
15 *58:8 *279:23 0.000105122
16 *241:138 *968:A2 1.01003e-05
17 *271:151 *279:8 6.39489e-06
18 *274:91 *279:8 2.64616e-05
19 *274:91 *279:23 1.12487e-05
20 *278:12 *968:A2 9.97777e-05
*RES
1 *967:Y *279:8 41.9564 
2 *279:8 *968:A2 41.48 
3 *279:8 *279:23 16.9057 
4 *279:23 *969:C 23.6214 
5 *279:23 *973:B2 23 
*END

*D_NET *280 0.00513203
*CONN
*I *1172:A I *D sky130_fd_sc_hd__clkbuf_16
*I *1171:A I *D sky130_fd_sc_hd__clkbuf_16
*I *1170:X O *D sky130_fd_sc_hd__clkbuf_16
*CAP
1 *1172:A 0.000147151
2 *1171:A 0
3 *1170:X 0.000223344
4 *280:14 0.00118023
5 *280:8 0.00155073
6 *1172:A *282:54 7.87147e-05
7 *1172:A *293:24 0
8 *280:8 *305:41 0.000317708
9 *280:14 *281:74 7.87147e-05
10 *280:14 *293:24 0
11 *280:14 *293:34 7.4469e-06
12 *964:D *280:14 0
13 *1059:B *280:14 0
14 *129:10 *280:14 0
15 *131:10 *1172:A 0.000110184
16 *131:10 *280:14 0.000200431
17 *142:18 *280:14 0.000378432
18 *151:10 *280:14 0.000164171
19 *241:12 *280:14 0.000146822
20 *247:20 *280:14 0.000155251
21 *247:33 *280:14 0
22 *250:10 *280:14 3.11916e-05
23 *264:10 *280:14 5.86204e-05
24 *272:32 *280:14 0.000302885
*RES
1 *1170:X *280:8 41.48 
2 *280:8 *280:14 37.4957 
3 *280:14 *1171:A 23 
4 *280:8 *1172:A 41.1279 
*END

*D_NET *281 0.014724
*CONN
*I *1164:CLK I *D sky130_fd_sc_hd__dfrtp_1
*I *1163:CLK I *D sky130_fd_sc_hd__dfrtp_1
*I *1166:CLK I *D sky130_fd_sc_hd__dfrtp_1
*I *1167:CLK I *D sky130_fd_sc_hd__dfrtp_1
*I *1169:CLK I *D sky130_fd_sc_hd__dfrtp_1
*I *1168:CLK I *D sky130_fd_sc_hd__dfrtp_1
*I *1162:CLK I *D sky130_fd_sc_hd__dfrtp_1
*I *1171:X O *D sky130_fd_sc_hd__clkbuf_16
*CAP
1 *1164:CLK 5.13884e-05
2 *1163:CLK 0.000578629
3 *1166:CLK 0.000386734
4 *1167:CLK 0.000594609
5 *1169:CLK 0
6 *1168:CLK 0
7 *1162:CLK 0.000249408
8 *1171:X 0
9 *281:76 0.000965363
10 *281:74 0.00149045
11 *281:45 0.000362294
12 *281:33 0.000850358
13 *281:10 0.000898681
14 *281:8 0.000828326
15 *281:4 0.00151157
16 *1162:CLK *1152:B 7.79323e-05
17 *1162:CLK *1162:RESET_B 0.000140555
18 *1162:CLK *331:18 0.000212121
19 *1164:CLK *291:20 3.23186e-05
20 *1167:CLK *283:6 2.45549e-06
21 *1167:CLK *316:158 1.61361e-05
22 *1167:CLK *331:18 0.000160191
23 *281:10 *331:18 0.000237547
24 *281:33 *311:27 0.000183544
25 *281:74 *949:A1 3.18142e-05
26 *281:74 *291:20 4.15295e-05
27 *281:74 *332:27 5.43324e-05
28 *934:B *1167:CLK 0
29 *942:A *281:74 0.000266265
30 *943:B *281:74 7.41573e-05
31 *955:B1 *281:74 9.58714e-05
32 *1141:A1 *281:10 0
33 *1141:B1 *281:33 0.000129464
34 *1150:A *1167:CLK 0.000182826
35 *1153:A1 *281:33 0.000569452
36 *1153:A3 *281:33 9.76248e-05
37 *1162:D *1162:CLK 2.95526e-05
38 *48:10 *1166:CLK 0
39 *52:10 *281:33 2.81066e-05
40 *52:10 *281:45 0.000289915
41 *53:10 *281:45 8.57577e-05
42 *230:20 *281:33 2.18286e-05
43 *230:30 *281:45 3.96108e-05
44 *230:37 *281:33 9.03364e-06
45 *230:46 *281:33 5.61255e-06
46 *230:69 *1162:CLK 0.000189667
47 *230:69 *281:10 4.90185e-05
48 *230:79 *1166:CLK 2.93431e-05
49 *230:94 *1166:CLK 0
50 *230:108 *1163:CLK 0.000126214
51 *232:98 *281:8 0.000135037
52 *232:98 *281:74 0.000125213
53 *234:45 *1167:CLK 0
54 *234:70 *281:74 2.02872e-05
55 *239:8 *281:8 9.41704e-05
56 *241:12 *281:74 7.21645e-05
57 *241:61 *1167:CLK 2.72257e-05
58 *241:91 *281:74 2.07355e-05
59 *242:14 *281:74 5.56356e-05
60 *242:27 *281:74 0.000267093
61 *244:31 *281:74 0.000123944
62 *245:10 *281:74 0.000267167
63 *247:6 *1167:CLK 9.84794e-05
64 *255:14 *281:74 0.000246129
65 *256:12 *1163:CLK 1.74079e-05
66 *256:12 *1166:CLK 5.58975e-06
67 *258:22 *1166:CLK 0
68 *261:8 *1166:CLK 0
69 *262:10 *1163:CLK 0.000164282
70 *262:10 *281:74 0.000275932
71 *268:8 *281:74 0.000109516
72 *268:24 *281:33 9.64943e-05
73 *268:74 *281:10 0
74 *268:74 *281:33 0.000145163
75 *268:101 *1163:CLK 0
76 *268:101 *1166:CLK 0
77 *268:127 *1163:CLK 0
78 *280:14 *281:74 7.87147e-05
*RES
1 *1171:X *281:4 23 
2 *281:4 *281:8 16.5743 
3 *281:8 *281:10 3.31429 
4 *281:10 *1162:CLK 44.9186 
5 *281:10 *281:33 27.615 
6 *281:33 *281:45 37.1671 
7 *281:45 *1168:CLK 23 
8 *281:33 *1169:CLK 23 
9 *281:8 *1167:CLK 48.0671 
10 *281:4 *281:74 30.6571 
11 *281:74 *281:76 15 
12 *281:76 *1166:CLK 44.4007 
13 *281:76 *1163:CLK 48.295 
14 *281:74 *1164:CLK 24.0979 
*END

*D_NET *282 0.0160416
*CONN
*I *1157:CLK I *D sky130_fd_sc_hd__dfrtp_1
*I *1159:CLK I *D sky130_fd_sc_hd__dfrtp_1
*I *1165:CLK I *D sky130_fd_sc_hd__dfrtp_1
*I *1160:CLK I *D sky130_fd_sc_hd__dfrtp_1
*I *1161:CLK I *D sky130_fd_sc_hd__dfrtp_1
*I *1158:CLK I *D sky130_fd_sc_hd__dfrtp_1
*I *1156:CLK I *D sky130_fd_sc_hd__dfrtp_1
*I *1172:X O *D sky130_fd_sc_hd__clkbuf_16
*CAP
1 *1157:CLK 5.385e-05
2 *1159:CLK 0
3 *1165:CLK 4.23312e-05
4 *1160:CLK 0.000389774
5 *1161:CLK 2.53584e-05
6 *1158:CLK 0
7 *1156:CLK 8.25038e-05
8 *1172:X 0
9 *282:79 0.000852306
10 *282:58 0.00102348
11 *282:54 0.00125037
12 *282:30 0.000648716
13 *282:21 0.000936335
14 *282:8 0.0010985
15 *282:4 0.00138092
16 *1156:CLK *298:22 9.41704e-05
17 *1157:CLK *1157:D 0.000184689
18 *1160:CLK *315:56 4.7554e-05
19 *282:8 *1026:A 0.000207329
20 *282:8 *1026:D 6.9805e-05
21 *282:8 *298:22 0.000907505
22 *282:8 *305:45 0.000206512
23 *282:21 *286:94 0.000528417
24 *282:54 *963:A1 4.9662e-05
25 *282:54 *1157:D 0.00197302
26 *282:54 *298:22 0.000340957
27 *282:54 *305:45 0.00039238
28 *963:B1 *282:54 2.46906e-05
29 *965:A *282:54 0.000100733
30 *965:C *282:54 9.34828e-05
31 *966:A *282:54 2.93747e-05
32 *972:A *282:54 0.000139357
33 *972:B *282:54 1.76557e-05
34 *1027:B1_N *282:21 0.000267896
35 *1128:B *1157:CLK 1.94693e-05
36 *1172:A *282:54 7.87147e-05
37 *44:10 *1161:CLK 1.76557e-05
38 *45:12 *1160:CLK 0
39 *49:10 *282:79 0.000114074
40 *59:10 *282:79 4.22374e-05
41 *66:18 *282:54 0.000352144
42 *87:8 *282:79 0.000110258
43 *90:10 *282:79 0.000110258
44 *90:20 *282:79 0
45 *91:16 *282:30 4.68911e-05
46 *112:8 *282:21 4.85019e-05
47 *112:23 *282:21 0.000114092
48 *190:24 *1157:CLK 5.56279e-05
49 *190:30 *1157:CLK 4.44329e-05
50 *190:30 *282:54 0.000185368
51 *190:30 *282:79 0
52 *214:16 *282:79 0.000301294
53 *221:10 *1160:CLK 0.000108681
54 *221:10 *1161:CLK 2.93747e-05
55 *230:10 *282:21 0.000108681
56 *230:108 *282:58 6.28591e-05
57 *230:108 *282:79 2.04774e-05
58 *232:62 *282:21 2.95125e-05
59 *232:62 *282:30 0.000190092
60 *268:127 *282:79 2.84912e-05
61 *269:21 *282:21 6.96403e-05
62 *269:54 *1160:CLK 0
63 *269:54 *1161:CLK 9.84794e-05
64 *269:54 *282:30 0
65 *271:96 *282:54 5.3304e-05
66 *272:107 *282:54 4.88858e-05
67 *272:153 *282:54 2.4754e-05
68 *275:8 *282:54 4.38756e-05
69 *277:12 *282:54 2.37969e-05
*RES
1 *1172:X *282:4 23 
2 *282:4 *282:8 10.6471 
3 *282:8 *1156:CLK 24.595 
4 *282:8 *282:21 31.3436 
5 *282:21 *1158:CLK 38 
6 *282:21 *282:30 5.77929 
7 *282:30 *1161:CLK 39.0979 
8 *282:30 *1160:CLK 43.6343 
9 *282:4 *282:54 33.0186 
10 *282:54 *282:58 17.61 
11 *282:58 *1165:CLK 38.6214 
12 *282:58 *282:79 31.7164 
13 *282:79 *1159:CLK 23 
14 *282:54 *1157:CLK 25.0507 
*END

*D_NET *283 0.00494604
*CONN
*I *925:A I *D sky130_fd_sc_hd__buf_2
*I *1040:D I *D sky130_fd_sc_hd__nand4_1
*I *1041:B1 I *D sky130_fd_sc_hd__a22o_1
*I *1186:X O *D sky130_fd_sc_hd__buf_1
*CAP
1 *925:A 3.61924e-05
2 *1040:D 0.000224808
3 *1041:B1 0
4 *1186:X 0.00113667
5 *283:18 0.000386217
6 *283:14 0.000317147
7 *283:6 0.00125622
8 *925:A *297:12 8.264e-05
9 *1040:D *1040:C 5.51558e-05
10 *1040:D *288:10 8.52094e-06
11 *1040:D *288:19 4.70495e-05
12 *1040:D *288:32 1.57006e-05
13 *1040:D *305:70 6.53476e-05
14 *283:6 *310:8 1.04196e-05
15 *283:14 *297:12 0.000180218
16 *283:14 *316:158 0.000136486
17 *283:18 *288:10 0.000200971
18 *926:C *283:18 8.15327e-05
19 *1035:B *1040:D 1.74126e-05
20 *1035:B *283:18 4.16878e-06
21 *1167:CLK *283:6 2.45549e-06
22 *1167:D *283:6 1.83408e-05
23 *61:16 *1040:D 9.94268e-05
24 *237:10 *283:18 6.20718e-05
25 *238:10 *283:18 8.94487e-05
26 *241:78 *925:A 9.41704e-05
27 *241:78 *283:14 0.000317244
*RES
1 *1186:X *283:6 36.485 
2 *283:6 *283:14 33.9564 
3 *283:14 *283:18 20.4271 
4 *283:18 *1041:B1 38 
5 *283:18 *1040:D 43.1993 
6 *283:14 *925:A 24.0979 
*END

*D_NET *284 0.00836306
*CONN
*I *1173:A I *D sky130_fd_sc_hd__buf_4
*I *1163:RESET_B I *D sky130_fd_sc_hd__dfrtp_1
*I *1164:RESET_B I *D sky130_fd_sc_hd__dfrtp_1
*I *1166:RESET_B I *D sky130_fd_sc_hd__dfrtp_1
*I *1165:RESET_B I *D sky130_fd_sc_hd__dfrtp_1
*I *1187:X O *D sky130_fd_sc_hd__clkbuf_2
*CAP
1 *1173:A 0.000447888
2 *1163:RESET_B 4.08008e-05
3 *1164:RESET_B 4.34435e-05
4 *1166:RESET_B 0.00041698
5 *1165:RESET_B 4.08008e-05
6 *1187:X 0.000614612
7 *284:30 0.00102354
8 *284:24 0.00149877
9 *284:14 0.0015584
10 *284:8 0.00168525
11 *1164:RESET_B *291:20 5.66251e-05
12 *1166:RESET_B *307:25 0
13 *1173:A *292:10 0
14 *1173:A *305:8 0.000249182
15 *284:8 *285:12 0.000444065
16 *284:14 *292:10 0
17 *284:14 *305:8 0.000150799
18 *284:24 *305:8 0
19 *284:24 *305:14 0
20 *284:30 *307:12 0
21 *284:30 *325:8 2.79004e-05
22 *226:10 *1166:RESET_B 6.40115e-05
23 *232:118 *1166:RESET_B 0
24 *232:150 *284:24 0
25 *235:159 *1166:RESET_B 0
26 *235:159 *284:24 0
27 *235:159 *284:30 0
*RES
1 *1187:X *284:8 47.1971 
2 *284:8 *284:14 26.9936 
3 *284:14 *1165:RESET_B 0.548929 
4 *284:14 *284:24 32.0479 
5 *284:24 *284:30 10.5436 
6 *284:30 *1166:RESET_B 22.2811 
7 *284:30 *1164:RESET_B 16.0254 
8 *284:24 *1163:RESET_B 15.5489 
9 *284:8 *1173:A 48.7093 
*END

*D_NET *285 0.0156015
*CONN
*I *958:B I *D sky130_fd_sc_hd__nand2_2
*I *1021:A I *D sky130_fd_sc_hd__nand2_1
*I *985:A I *D sky130_fd_sc_hd__buf_2
*I *1188:X O *D sky130_fd_sc_hd__dlymetal6s2s_1
*CAP
1 *958:B 0
2 *1021:A 0
3 *985:A 2.6761e-05
4 *1188:X 0
5 *285:49 0.000714775
6 *285:34 0.0011906
7 *285:28 0.00152688
8 *285:12 0.00205832
9 *285:10 0.0014673
10 *285:6 0.00048679
11 *985:A *316:62 2.64616e-05
12 *285:10 *291:8 0.0017027
13 *285:10 *308:33 0.00143285
14 *285:28 *1157:RESET_B 4.41587e-05
15 *285:34 *316:62 0.000269593
16 *285:49 *293:16 0.000256061
17 *285:49 *293:24 9.27998e-05
18 *285:49 *315:38 9.84794e-05
19 *987:C *285:34 6.33631e-05
20 *997:B *285:28 0.000144931
21 *997:B *285:34 1.57659e-05
22 *998:B *285:28 1.12796e-05
23 *1003:B1 *285:28 0.00018413
24 *1004:A *285:28 2.95423e-05
25 *1014:B *285:49 0
26 *56:29 *285:28 0.000112161
27 *71:10 *985:A 2.95526e-05
28 *71:10 *285:34 2.193e-05
29 *71:53 *285:49 8.87351e-05
30 *71:64 *285:34 0.000615272
31 *72:18 *285:34 9.66585e-05
32 *80:14 *285:28 6.83142e-05
33 *80:14 *285:34 0.000580574
34 *80:24 *285:28 7.43741e-05
35 *82:6 *285:34 2.95423e-05
36 *90:10 *285:28 5.32912e-06
37 *95:27 *285:49 0.000108681
38 *96:8 *285:49 0.000344882
39 *97:12 *285:49 0
40 *99:10 *285:49 0
41 *99:34 *285:49 0
42 *139:33 *285:49 0
43 *235:68 *285:28 7.98226e-05
44 *241:148 *285:34 0.000138859
45 *270:16 *285:28 2.4526e-05
46 *270:16 *285:34 5.17749e-05
47 *270:18 *285:34 0.000703516
48 *270:28 *285:34 5.81185e-05
49 *270:47 *285:49 8.1304e-05
50 *284:8 *285:12 0.000444065
*RES
1 *1188:X *285:6 38 
2 *285:6 *285:10 37.33 
3 *285:10 *285:12 19.2021 
4 *285:12 *285:28 46.7786 
5 *285:28 *285:34 18.415 
6 *285:34 *985:A 23.6214 
7 *285:34 *285:49 45.6807 
8 *285:49 *1021:A 23 
9 *285:12 *958:B 23 
*END

*D_NET *286 0.0221779
*CONN
*I *1036:A I *D sky130_fd_sc_hd__and2_1
*I *962:B I *D sky130_fd_sc_hd__and2_1
*I *1005:A I *D sky130_fd_sc_hd__and2_1
*I *1024:A I *D sky130_fd_sc_hd__and2_1
*I *1057:B I *D sky130_fd_sc_hd__and4_1
*I *1058:A1 I *D sky130_fd_sc_hd__a22o_1
*I *971:A I *D sky130_fd_sc_hd__buf_2
*I *1189:X O *D sky130_fd_sc_hd__clkbuf_2
*CAP
1 *1036:A 8.71941e-05
2 *962:B 2.6392e-05
3 *1005:A 0
4 *1024:A 0
5 *1057:B 0.0002906
6 *1058:A1 0
7 *971:A 0.000128522
8 *1189:X 0.000524655
9 *286:119 0.00176271
10 *286:94 0.000465969
11 *286:84 0.00253765
12 *286:73 0.000254736
13 *286:63 0.000973351
14 *286:57 0.000649813
15 *286:33 0.0002906
16 *286:18 0.000268761
17 *286:14 0.00167988
18 *286:10 0.00303904
19 *286:8 0.00184468
20 *286:10 *1162:RESET_B 0.000164644
21 *286:10 *310:12 0
22 *286:10 *315:72 0.000387273
23 *286:10 *315:74 0.00020103
24 *286:14 *1034:B2 0.000222916
25 *286:14 *294:14 0.000105116
26 *286:14 *305:70 0.000153708
27 *286:18 *293:24 4.29197e-05
28 *286:57 *294:14 0.000166233
29 *286:57 *315:72 3.87677e-05
30 *286:63 *294:14 0.000943604
31 *286:63 *298:18 0.000195238
32 *286:63 *315:68 0
33 *286:63 *315:72 0.000381109
34 *286:73 *294:14 0
35 *286:84 *294:14 0.000194602
36 *286:119 *332:120 4.22374e-05
37 *974:B *286:119 0.000312459
38 *1027:A2 *286:119 3.46521e-05
39 *1027:B1_N *286:84 6.17437e-06
40 *1027:B1_N *286:119 2.68258e-05
41 *1040:B *286:14 2.39778e-06
42 *1055:B *286:119 9.80703e-06
43 *57:20 *971:A 0.000164641
44 *57:20 *286:18 7.43673e-05
45 *69:10 *286:119 0.000273866
46 *91:16 *286:94 1.07201e-06
47 *110:14 *286:73 0.000125019
48 *111:34 *286:73 3.27749e-06
49 *113:12 *286:119 0.000140021
50 *126:10 *286:14 0.000603675
51 *132:12 *286:73 2.31591e-05
52 *141:8 *286:119 0.000179725
53 *144:8 *971:A 2.23884e-05
54 *230:12 *286:10 0
55 *230:14 *286:10 0
56 *230:20 *286:10 0
57 *232:14 *286:10 0
58 *232:47 *286:63 0.000151827
59 *232:47 *286:84 9.3422e-05
60 *232:62 *286:94 0.000114004
61 *235:32 *286:119 0.000124864
62 *235:109 *286:14 0.000117078
63 *236:34 *286:18 2.21614e-05
64 *236:42 *1057:B 5.56356e-05
65 *238:59 *1057:B 0.0002278
66 *241:148 *286:119 5.62266e-05
67 *269:21 *286:73 8.37996e-05
68 *269:21 *286:94 0.000322528
69 *272:14 *286:119 0.000150139
70 *272:32 *971:A 6.86315e-06
71 *274:42 *962:B 5.56356e-05
72 *282:21 *286:94 0.000528417
*RES
1 *1189:X *286:8 44.815 
2 *286:8 *286:10 29.3729 
3 *286:10 *286:14 35.6314 
4 *286:14 *286:18 17.61 
5 *286:18 *971:A 41.0243 
6 *286:18 *286:33 15 
7 *286:33 *1058:A1 23 
8 *286:33 *1057:B 27.5986 
9 *286:10 *286:57 19.4329 
10 *286:57 *286:63 28.5679 
11 *286:63 *286:73 48.7286 
12 *286:73 *1024:A 23 
13 *286:63 *286:84 21.09 
14 *286:84 *286:94 40.0879 
15 *286:94 *1005:A 23 
16 *286:84 *286:119 42.6743 
17 *286:119 *962:B 38.6214 
18 *286:57 *1036:A 24.5743 
*END

*D_NET *287 0.00672108
*CONN
*I *1025:A1 I *D sky130_fd_sc_hd__a22o_1
*I *975:A I *D sky130_fd_sc_hd__buf_2
*I *960:A I *D sky130_fd_sc_hd__clkbuf_4
*I *1190:X O *D sky130_fd_sc_hd__buf_1
*CAP
1 *1025:A1 0
2 *975:A 0
3 *960:A 0
4 *1190:X 0
5 *287:35 0.000232467
6 *287:20 0.000442914
7 *287:14 0.00102146
8 *287:12 0.00188657
9 *287:6 0.00107556
10 *287:12 *1213:A 0.000294647
11 *287:12 *298:8 0.000412635
12 *287:12 *299:8 4.334e-05
13 *287:12 *302:10 8.51329e-05
14 *287:14 *1025:A2 5.81185e-05
15 *287:20 *1025:A2 1.73995e-05
16 *287:20 *305:85 0.000166736
17 *287:35 *976:B2 9.41704e-05
18 *287:35 *305:85 8.79053e-05
19 *287:35 *316:62 1.21972e-05
20 int4_out[0] *287:12 0.000126901
21 int4_out[3] *287:12 5.28413e-05
22 *1007:C *287:35 9.66585e-05
23 *5:13 *287:12 0
24 *61:10 *287:35 0.000190742
25 *61:95 *287:35 7.35277e-05
26 *111:10 *287:14 9.92279e-05
27 *113:12 *287:35 6.63214e-05
28 *269:36 *287:35 8.36198e-05
*RES
1 *1190:X *287:6 38 
2 *287:6 *287:12 43.1093 
3 *287:12 *287:14 13.0086 
4 *287:14 *287:20 3.52143 
5 *287:20 *960:A 23 
6 *287:20 *287:35 35.8621 
7 *287:35 *975:A 23 
8 *287:14 *1025:A1 23 
*END

*D_NET *288 0.0168709
*CONN
*I *1006:B2 I *D sky130_fd_sc_hd__a22o_1
*I *976:B2 I *D sky130_fd_sc_hd__a22o_1
*I *1007:A I *D sky130_fd_sc_hd__nand4_1
*I *1025:B2 I *D sky130_fd_sc_hd__a22o_1
*I *1026:A I *D sky130_fd_sc_hd__nand4_1
*I *980:B2 I *D sky130_fd_sc_hd__a22o_1
*I *959:A I *D sky130_fd_sc_hd__buf_2
*I *1034:B2 I *D sky130_fd_sc_hd__a22o_1
*I *1041:B2 I *D sky130_fd_sc_hd__a22o_1
*I *1191:X O *D sky130_fd_sc_hd__buf_2
*CAP
1 *1006:B2 0.000118401
2 *976:B2 0.000126112
3 *1007:A 0.000244273
4 *1025:B2 0
5 *1026:A 0.000139677
6 *980:B2 4.92811e-05
7 *959:A 0.000106387
8 *1034:B2 0.000134624
9 *1041:B2 0
10 *1191:X 0.00115831
11 *288:103 0.00036949
12 *288:81 0.000810977
13 *288:66 0.000711382
14 *288:55 0.000246525
15 *288:44 0.000746746
16 *288:32 0.000934567
17 *288:19 0.000466829
18 *288:10 0.00114408
19 *288:6 0.00219713
20 *959:A *305:41 5.67058e-05
21 *976:B2 *1007:D 5.3304e-05
22 *1006:B2 *1006:B1 0.000232527
23 *1007:A *316:79 0.000134767
24 *1026:A *1026:D 9.36748e-05
25 *1034:B2 *1040:C 2.20564e-05
26 *1034:B2 *294:14 1.83327e-05
27 *1034:B2 *294:38 1.47795e-05
28 *1034:B2 *305:70 2.64616e-05
29 *288:10 *311:12 0.00014411
30 *288:10 *316:158 0.000560387
31 *288:10 *329:8 0.000140949
32 *288:19 *316:158 0.000175382
33 *288:32 *316:158 0.000116246
34 *288:55 *305:70 0
35 *288:66 *305:70 4.6381e-05
36 *288:66 *305:85 6.7177e-06
37 *288:81 *305:85 4.38375e-05
38 *288:81 *316:119 0.000469399
39 *288:103 *1006:B1 1.13812e-05
40 *288:103 *316:79 0.000136905
41 *288:103 *316:119 6.437e-05
42 *1007:C *976:B2 6.33357e-05
43 *1026:B *1026:A 7.12843e-05
44 *1040:D *288:10 8.52094e-06
45 *1040:D *288:19 4.70495e-05
46 *1040:D *288:32 1.57006e-05
47 *1044:A1 *288:44 6.11176e-06
48 *1044:C1 *288:44 0.000229821
49 *1047:A2 *288:44 6.17437e-06
50 *1080:B *288:81 8.72173e-05
51 *1130:B2 *1007:A 1.35999e-05
52 *1141:A1 *288:10 8.56844e-05
53 *1150:A *288:10 3.57337e-05
54 *65:10 *288:44 1.57659e-05
55 *66:10 *959:A 2.64616e-05
56 *66:10 *288:44 6.0779e-05
57 *91:29 *1006:B2 2.64616e-05
58 *93:10 *1006:B2 1.47563e-05
59 *111:22 *288:81 4.83325e-05
60 *113:12 *288:103 5.77764e-05
61 *113:16 *1006:B2 0.00021006
62 *113:16 *288:103 2.23467e-05
63 *120:8 *288:32 0.000137744
64 *120:12 *288:44 8.48502e-06
65 *120:18 *288:32 2.07509e-05
66 *121:27 *980:B2 9.84851e-05
67 *122:23 *288:32 1.13812e-05
68 *122:23 *288:55 0.000159536
69 *123:28 *288:44 3.26241e-05
70 *124:8 *288:32 3.673e-05
71 *124:8 *288:55 8.57577e-05
72 *124:14 *288:44 0.000293399
73 *129:10 *288:44 0.00039552
74 *132:31 *288:81 0.000114083
75 *133:8 *288:66 9.80568e-05
76 *133:8 *288:81 9.70251e-05
77 *133:23 *288:81 0.000182233
78 *227:8 *288:10 0.000140949
79 *231:31 *288:10 0.000313339
80 *233:44 *288:44 0
81 *234:6 *976:B2 0.000263954
82 *234:6 *1007:A 5.5792e-05
83 *238:10 *288:10 8.8781e-05
84 *241:78 *288:10 2.54646e-05
85 *271:6 *959:A 3.46302e-05
86 *271:10 *959:A 1.35714e-05
87 *271:60 *288:44 1.07299e-05
88 *282:8 *1026:A 0.000207329
89 *283:18 *288:10 0.000200971
90 *286:14 *1034:B2 0.000222916
91 *287:35 *976:B2 9.41704e-05
*RES
1 *1191:X *288:6 37.4379 
2 *288:6 *288:10 39.4429 
3 *288:10 *1041:B2 38 
4 *288:10 *288:19 2.61 
5 *288:19 *1034:B2 41.3764 
6 *288:19 *288:32 4.37071 
7 *288:32 *288:44 41.9729 
8 *288:44 *959:A 40.0507 
9 *288:32 *288:55 2.25786 
10 *288:55 *980:B2 39.0979 
11 *288:55 *288:66 2.96214 
12 *288:66 *1026:A 41.6457 
13 *288:66 *288:81 11.0614 
14 *288:81 *1025:B2 38 
15 *288:81 *1007:A 42.6814 
16 *288:81 *288:103 2.96214 
17 *288:103 *976:B2 41.5007 
18 *288:103 *1006:B2 41.5836 
*END

*D_NET *289 0.00571304
*CONN
*I *947:B1 I *D sky130_fd_sc_hd__a211o_1
*I *1192:X O *D sky130_fd_sc_hd__buf_1
*CAP
1 *947:B1 0
2 *1192:X 0.00010303
3 *289:20 0.00271142
4 *289:10 0.00281445
5 *289:10 *333:10 0
6 *1192:A *289:10 2.26497e-05
7 *1192:A *289:20 3.73592e-05
8 *238:137 *289:20 1.13812e-05
9 *258:22 *289:20 1.27489e-05
*RES
1 *1192:X *289:10 47.7296 
2 *289:10 *289:20 29.5798 
3 *289:20 *947:B1 23 
*END

*D_NET *290 0.00446025
*CONN
*I *947:A1 I *D sky130_fd_sc_hd__a211o_1
*I *948:A I *D sky130_fd_sc_hd__or2_1
*I *1193:X O *D sky130_fd_sc_hd__buf_1
*CAP
1 *947:A1 0
2 *948:A 0.00010598
3 *1193:X 0.000840142
4 *290:12 0.000883248
5 *290:6 0.00161741
6 *290:6 *332:8 0.000443679
7 *947:A2 *948:A 3.86731e-05
8 *3:9 *290:12 0
9 *238:137 *948:A 0.000278377
10 *238:137 *290:12 6.33771e-05
11 *258:22 *948:A 3.32199e-05
12 *259:14 *948:A 0.000141362
13 *260:10 *948:A 1.47795e-05
*RES
1 *1193:X *290:6 35.0557 
2 *290:6 *290:12 43.5264 
3 *290:12 *948:A 27.1429 
4 *290:12 *947:A1 23 
*END

*D_NET *291 0.01195
*CONN
*I *943:A I *D sky130_fd_sc_hd__or2_1
*I *949:A1 I *D sky130_fd_sc_hd__a22o_1
*I *1194:X O *D sky130_fd_sc_hd__buf_1
*CAP
1 *943:A 0
2 *949:A1 5.7284e-05
3 *1194:X 0
4 *291:20 0.00192815
5 *291:8 0.00425088
6 *291:6 0.00238001
7 *291:8 *306:21 6.68378e-05
8 *291:8 *308:33 0.000182601
9 *291:8 *333:10 0.000353003
10 *291:20 *307:6 0.000185428
11 *291:20 *307:25 0.000183733
12 int4_out[1] *291:8 2.47015e-05
13 valid_out *291:8 6.54744e-05
14 *943:B *949:A1 0.000145238
15 *949:B2 *949:A1 0.000230818
16 *1164:CLK *291:20 3.23186e-05
17 *1164:RESET_B *291:20 5.66251e-05
18 *1192:A *291:8 6.07611e-06
19 *255:14 *949:A1 2.4754e-05
20 *281:74 *949:A1 3.18142e-05
21 *281:74 *291:20 4.15295e-05
22 *285:10 *291:8 0.0017027
*RES
1 *1194:X *291:6 38 
2 *291:6 *291:8 58.6007 
3 *291:8 *291:20 43.4614 
4 *291:20 *949:A1 26.0036 
5 *291:20 *943:A 23 
*END

*D_NET *292 0.00979777
*CONN
*I *940:A I *D sky130_fd_sc_hd__or2_1
*I *950:A1 I *D sky130_fd_sc_hd__a22o_1
*I *1195:X O *D sky130_fd_sc_hd__buf_1
*CAP
1 *940:A 0
2 *950:A1 9.10444e-05
3 *1195:X 0.00014074
4 *292:14 0.00129334
5 *292:10 0.00427853
6 *292:8 0.00321698
7 *292:14 *1144:B 0.000182826
8 *940:B *950:A1 6.0632e-05
9 *950:B1 *950:A1 5.56279e-05
10 *950:B2 *950:A1 5.56279e-05
11 *1173:A *292:10 0
12 *253:16 *950:A1 0.000320032
13 *253:16 *292:14 0.000102389
14 *284:14 *292:10 0
*RES
1 *1195:X *292:8 39.5743 
2 *292:8 *292:10 57.8964 
3 *292:10 *292:14 34.6786 
4 *292:14 *950:A1 26.48 
5 *292:14 *940:A 23 
*END

*D_NET *293 0.00995176
*CONN
*I *937:A I *D sky130_fd_sc_hd__or2_1
*I *951:A1 I *D sky130_fd_sc_hd__a22o_1
*I *1196:X O *D sky130_fd_sc_hd__buf_1
*CAP
1 *937:A 7.48302e-05
2 *951:A1 0
3 *1196:X 0.000116674
4 *293:34 0.000247208
5 *293:24 0.00174549
6 *293:16 0.00277072
7 *293:8 0.00146394
8 *937:A *297:12 4.93812e-05
9 *293:24 *297:12 2.32004e-05
10 *981:A *293:24 6.16439e-05
11 *1012:A1 *293:16 3.3761e-05
12 *1065:B *293:24 7.66914e-06
13 *1097:B *293:16 5.01151e-05
14 *1172:A *293:24 0
15 *1196:A *293:8 2.93845e-05
16 *57:20 *293:24 0.000277872
17 *57:31 *293:24 0.000691208
18 *63:8 *293:16 3.68066e-05
19 *63:8 *293:24 1.76436e-05
20 *63:25 *293:16 9.15169e-05
21 *66:18 *293:24 9.03054e-05
22 *69:10 *293:24 0
23 *71:53 *293:24 2.46399e-05
24 *96:8 *293:16 0.000177849
25 *98:12 *293:16 0.000218407
26 *99:34 *293:16 0
27 *107:10 *293:16 0
28 *115:8 *293:16 0
29 *117:8 *293:16 8.97299e-05
30 *118:14 *293:16 0.000220969
31 *126:22 *293:24 8.57485e-05
32 *127:25 *293:24 2.14599e-05
33 *130:14 *293:24 0.000168515
34 *131:10 *293:24 0
35 *139:14 *293:24 0
36 *140:10 *293:24 0
37 *170:18 *293:16 0
38 *174:8 *293:16 4.89706e-05
39 *174:17 *293:16 1.41891e-05
40 *233:44 *293:24 0
41 *233:88 *293:16 0
42 *235:99 *293:24 8.38067e-05
43 *235:109 *293:24 0.000217246
44 *235:115 *293:24 1.37232e-05
45 *249:18 *937:A 4.3198e-05
46 *249:18 *293:24 6.47492e-05
47 *249:18 *293:34 0.000179967
48 *272:32 *293:24 0
49 *280:14 *293:24 0
50 *280:14 *293:34 7.4469e-06
51 *285:49 *293:16 0.000256061
52 *285:49 *293:24 9.27998e-05
53 *286:18 *293:24 4.29197e-05
*RES
1 *1196:X *293:8 39.5743 
2 *293:8 *293:16 27.8918 
3 *293:16 *293:24 46.0196 
4 *293:24 *293:34 34.205 
5 *293:34 *951:A1 23 
6 *293:24 *937:A 25.0714 
*END

*D_NET *294 0.00754456
*CONN
*I *1040:C I *D sky130_fd_sc_hd__nand4_1
*I *1034:B1 I *D sky130_fd_sc_hd__a22o_1
*I *1041:A2 I *D sky130_fd_sc_hd__a22o_1
*I *924:A I *D sky130_fd_sc_hd__buf_2
*I *1197:X O *D sky130_fd_sc_hd__dlymetal6s2s_1
*CAP
1 *1040:C 0.000164765
2 *1034:B1 0
3 *1041:A2 0.000190336
4 *924:A 0
5 *1197:X 0.000377748
6 *294:38 0.000198432
7 *294:20 0.00042559
8 *294:14 0.00181446
9 *294:8 0.00192329
10 *1040:C *305:70 0.000107894
11 *294:14 *315:58 0
12 *294:14 *315:68 0
13 *294:14 *315:72 7.73177e-05
14 *294:20 *316:158 1.98009e-05
15 *1034:B2 *1040:C 2.20564e-05
16 *1034:B2 *294:14 1.83327e-05
17 *1034:B2 *294:38 1.47795e-05
18 *1040:D *1040:C 5.51558e-05
19 *1041:A1 *1041:A2 4.08322e-05
20 *41:10 *294:14 5.80963e-05
21 *42:10 *294:14 0
22 *61:48 *1041:A2 0.000297655
23 *61:48 *294:20 8.78333e-05
24 *110:14 *294:14 3.55887e-05
25 *111:34 *294:14 0
26 *232:14 *294:14 0
27 *232:39 *294:14 2.25091e-05
28 *232:47 *294:14 0.000113634
29 *232:62 *294:14 0
30 *237:10 *1041:A2 6.8899e-05
31 *269:21 *294:14 0
32 *286:14 *294:14 0.000105116
33 *286:57 *294:14 0.000166233
34 *286:63 *294:14 0.000943604
35 *286:73 *294:14 0
36 *286:84 *294:14 0.000194602
*RES
1 *1197:X *294:8 44.3386 
2 *294:8 *294:14 48.4743 
3 *294:14 *294:20 33.6664 
4 *294:20 *924:A 23 
5 *294:20 *1041:A2 27.9507 
6 *294:14 *294:38 0.621429 
7 *294:38 *1034:B1 23 
8 *294:38 *1040:C 26.0036 
*END

*D_NET *295 0.0118529
*CONN
*I *953:B2 I *D sky130_fd_sc_hd__o221a_1
*I *952:A1 I *D sky130_fd_sc_hd__a22o_1
*I *1198:X O *D sky130_fd_sc_hd__buf_1
*CAP
1 *953:B2 0
2 *952:A1 0.000125984
3 *1198:X 0
4 *295:35 0.000285593
5 *295:16 0.00170471
6 *295:10 0.00273787
7 *295:6 0.00144474
8 *295:10 *315:22 8.82654e-05
9 *295:16 *332:35 0.000376386
10 *295:16 *332:46 6.51997e-06
11 *295:35 *953:A1 5.2273e-05
12 *295:35 *955:A1 2.80193e-05
13 *295:35 *297:16 1.68817e-05
14 *295:35 *332:35 7.75329e-06
15 *945:A *295:16 0
16 *953:A2 *295:35 6.93453e-05
17 *953:C1 *295:35 9.64755e-05
18 *964:A *295:16 7.10527e-05
19 *989:C1 *295:16 0.000135557
20 *992:B *295:10 6.52951e-05
21 *1111:A2 *295:10 0
22 *1118:B *295:10 0.000214966
23 *1134:A1 *295:10 0
24 *57:74 *295:16 0.000188071
25 *71:68 *295:16 0.000108597
26 *71:76 *295:16 8.57485e-05
27 *74:8 *295:16 0.000212091
28 *75:21 *295:16 0.000137481
29 *77:10 *295:10 2.0974e-05
30 *77:10 *295:16 0.000178941
31 *78:10 *295:10 0.000183001
32 *97:29 *295:10 0
33 *102:10 *295:10 0
34 *103:8 *295:10 0
35 *103:19 *295:10 0
36 *118:33 *295:10 0.000131878
37 *141:16 *295:10 0.00053946
38 *145:12 *295:16 0.000470475
39 *171:16 *295:10 0.00014411
40 *178:12 *295:10 0
41 *178:22 *295:10 0
42 *202:21 *295:10 0
43 *204:8 *295:10 8.61223e-05
44 *237:85 *295:16 4.31263e-05
45 *242:27 *295:35 0.000138727
46 *247:20 *295:35 3.23857e-06
47 *253:16 *952:A1 0.000135246
48 *253:16 *295:16 8.40718e-05
49 *265:10 *295:35 6.76939e-05
50 *266:10 *295:35 0.000369735
51 *268:93 *952:A1 0.000182087
52 *268:93 *295:16 0.000181125
53 *269:78 *295:10 8.22421e-06
54 *271:86 *295:16 0.000104086
55 *274:54 *295:16 0.000110922
56 *275:16 *295:16 8.69741e-05
57 *276:10 *295:16 0.000131852
58 *277:46 *295:16 0.000191157
*RES
1 *1198:X *295:6 38 
2 *295:6 *295:10 30.5225 
3 *295:10 *295:16 45.1911 
4 *295:16 *952:A1 26.0036 
5 *295:16 *295:35 37.9957 
6 *295:35 *953:B2 23 
*END

*D_NET *296 0.00495471
*CONN
*I *932:A I *D sky130_fd_sc_hd__and2_1
*I *953:A1 I *D sky130_fd_sc_hd__o221a_1
*I *1199:X O *D sky130_fd_sc_hd__buf_1
*CAP
1 *932:A 0.000142011
2 *953:A1 0.000325241
3 *1199:X 0.000121697
4 *296:18 0.000625725
5 *296:14 0.00128625
6 *296:8 0.00124947
7 *932:A *332:10 1.13812e-05
8 *932:A *332:27 0.000178096
9 *296:8 *332:8 0.000189336
10 *296:18 *332:10 0.000269539
11 *945:A *932:A 0
12 *945:B *953:A1 7.9566e-05
13 *953:A2 *953:A1 2.95423e-05
14 *230:79 *296:14 0.000231709
15 *244:31 *953:A1 0.000104588
16 *266:10 *953:A1 5.82853e-05
17 *295:35 *953:A1 5.2273e-05
*RES
1 *1199:X *296:8 40.0507 
2 *296:8 *296:14 35.6314 
3 *296:14 *296:18 18.6664 
4 *296:18 *953:A1 44.8564 
5 *296:18 *932:A 40.61 
*END

*D_NET *297 0.0077141
*CONN
*I *954:A1 I *D sky130_fd_sc_hd__o22a_1
*I *955:A1 I *D sky130_fd_sc_hd__a21oi_4
*I *1200:X O *D sky130_fd_sc_hd__dlymetal6s2s_1
*CAP
1 *954:A1 0
2 *955:A1 0.000187602
3 *1200:X 0.000443714
4 *297:16 0.000326671
5 *297:12 0.00200673
6 *297:8 0.00231137
7 *297:8 *1177:A 0
8 *297:12 *1177:A 0.000743952
9 *925:A *297:12 8.264e-05
10 *933:A1 *297:12 0.000178517
11 *933:A2 *297:12 2.32004e-05
12 *937:A *297:12 4.93812e-05
13 *1200:A *297:8 2.21044e-05
14 *235:115 *297:12 0.000216471
15 *238:36 *297:12 2.07355e-05
16 *241:12 *955:A1 5.56356e-05
17 *241:78 *297:12 0.00015543
18 *242:27 *955:A1 5.3304e-05
19 *249:18 *297:12 9.65021e-05
20 *250:10 *297:12 9.67842e-05
21 *265:10 *955:A1 0.000158796
22 *268:85 *955:A1 0.000216015
23 *268:85 *297:16 2.02256e-05
24 *283:14 *297:12 0.000180218
25 *293:24 *297:12 2.32004e-05
26 *295:35 *955:A1 2.80193e-05
27 *295:35 *297:16 1.68817e-05
*RES
1 *1200:X *297:8 46.9486 
2 *297:8 *297:12 48.0186 
3 *297:12 *297:16 17.2579 
4 *297:16 *955:A1 42.7021 
5 *297:16 *954:A1 38 
*END

*D_NET *298 0.0161259
*CONN
*I *917:A I *D sky130_fd_sc_hd__clkbuf_4
*I *1157:D I *D sky130_fd_sc_hd__dfrtp_1
*I *1201:X O *D sky130_fd_sc_hd__buf_1
*CAP
1 *917:A 0.00012717
2 *1157:D 0.00105086
3 *1201:X 0
4 *298:22 0.00284117
5 *298:18 0.00184793
6 *298:12 0.000482642
7 *298:8 0.00179193
8 *298:6 0.00149408
9 *1157:D *332:58 0.000472412
10 *1157:D *332:81 4.2573e-05
11 *298:8 *1213:A 0.000599607
12 *298:8 *299:8 8.85189e-05
13 *298:8 *302:10 0.000167443
14 *298:8 *315:56 0
15 *298:8 *315:58 0
16 *298:8 *315:68 0
17 *298:8 *319:8 0
18 *1128:B *1157:D 4.26799e-05
19 *1156:CLK *298:22 9.41704e-05
20 *1157:CLK *1157:D 0.000184689
21 *66:18 *298:22 0.000349818
22 *214:8 *1157:D 9.75779e-05
23 *232:39 *298:22 9.75213e-05
24 *232:47 *298:18 0.00019747
25 *269:54 *298:8 0
26 *275:16 *1157:D 0.000226306
27 *282:8 *298:22 0.000907505
28 *282:54 *1157:D 0.00197302
29 *282:54 *298:22 0.000340957
30 *286:63 *298:18 0.000195238
31 *287:12 *298:8 0.000412635
*RES
1 *1201:X *298:6 38 
2 *298:6 *298:8 35.3593 
3 *298:8 *298:12 19.4329 
4 *298:12 *298:18 32.61 
5 *298:18 *298:22 25.8929 
6 *298:22 *1157:D 49.0379 
7 *298:12 *917:A 24.5743 
*END

*D_NET *299 0.000542371
*CONN
*I *1174:A I *D sky130_fd_sc_hd__dlygate4sd3_1
*I *1210:A I *D sky130_fd_sc_hd__clkbuf_4
*I *1158:Q O *D sky130_fd_sc_hd__dfrtp_1
*CAP
1 *1174:A 0.000120729
2 *1210:A 0
3 *1158:Q 4.63418e-05
4 *299:12 0.000158914
5 *299:8 8.45275e-05
6 *287:12 *299:8 4.334e-05
7 *298:8 *299:8 8.85189e-05
*RES
1 *1158:Q *299:8 39.2014 
2 *299:8 *299:12 15.8493 
3 *299:12 *1210:A 23 
4 *299:12 *1174:A 25.0507 
*END

*D_NET *300 0.00191133
*CONN
*I *1211:A I *D sky130_fd_sc_hd__clkbuf_4
*I *1180:A I *D sky130_fd_sc_hd__dlygate4sd3_1
*I *1159:Q O *D sky130_fd_sc_hd__dfrtp_1
*CAP
1 *1211:A 0.000731792
2 *1180:A 0
3 *1159:Q 0.000171946
4 *300:12 0.000731792
5 *300:10 0.000171946
6 *1211:A *315:8 5.12328e-05
7 *300:10 *305:8 5.26204e-05
*RES
1 *1159:Q *300:10 40.8793 
2 *300:10 *300:12 15 
3 *300:12 *1180:A 23 
4 *300:12 *1211:A 34.6 
*END

*D_NET *301 0.00271941
*CONN
*I *1212:A I *D sky130_fd_sc_hd__clkbuf_4
*I *1181:A I *D sky130_fd_sc_hd__dlygate4sd3_1
*I *1160:Q O *D sky130_fd_sc_hd__dfrtp_1
*CAP
1 *1212:A 0
2 *1181:A 7.91567e-05
3 *1160:Q 7.68064e-05
4 *301:23 0.000726006
5 *301:8 0.000881969
6 *1181:A *315:38 0.000228909
7 *301:8 *315:38 9.67842e-05
8 *1029:A *1181:A 0.000230604
9 *1084:A2 *301:23 0.000112396
10 *114:10 *1181:A 2.96051e-05
11 *114:10 *301:23 5.87296e-05
12 *167:14 *301:23 0
13 *168:8 *301:23 0.000198447
*RES
1 *1160:Q *301:8 39.0979 
2 *301:8 *1181:A 41.3764 
3 *301:8 *301:23 27.8221 
4 *301:23 *1212:A 23 
*END

*D_NET *302 0.00202544
*CONN
*I *1213:A I *D sky130_fd_sc_hd__clkbuf_4
*I *1179:A I *D sky130_fd_sc_hd__dlygate4sd3_1
*I *1161:Q O *D sky130_fd_sc_hd__dfrtp_1
*CAP
1 *1213:A 0.000176171
2 *1179:A 0.000107513
3 *1161:Q 0.000155623
4 *302:10 0.000439307
5 *287:12 *1213:A 0.000294647
6 *287:12 *302:10 8.51329e-05
7 *298:8 *1213:A 0.000599607
8 *298:8 *302:10 0.000167443
*RES
1 *1161:Q *302:10 41.3557 
2 *302:10 *1179:A 39.5743 
3 *302:10 *1213:A 45.8921 
*END

*D_NET *303 0.000981986
*CONN
*I *1214:A I *D sky130_fd_sc_hd__clkbuf_4
*I *1178:A I *D sky130_fd_sc_hd__dlygate4sd3_1
*I *1156:Q O *D sky130_fd_sc_hd__dfrtp_1
*CAP
1 *1214:A 0.000268312
2 *1178:A 0.00022268
3 *1156:Q 0
4 *303:6 0.000490993
5 *1178:A *315:68 0
6 *1214:A *315:68 0
7 *16:10 *1214:A 0
*RES
1 *1156:Q *303:6 38 
2 *303:6 *1178:A 41.9564 
3 *303:6 *1214:A 43.1164 
*END

*D_NET *304 0.0021285
*CONN
*I *1183:A I *D sky130_fd_sc_hd__dlygate4sd3_1
*I *1215:A I *D sky130_fd_sc_hd__clkbuf_4
*I *1162:Q O *D sky130_fd_sc_hd__dfrtp_1
*CAP
1 *1183:A 0.000184378
2 *1215:A 0
3 *1162:Q 0
4 *304:12 0.000669997
5 *304:4 0.000854376
6 *304:12 *323:8 0.000137754
7 *931:A *1183:A 0.000233617
8 *230:79 *1183:A 4.83798e-05
*RES
1 *1162:Q *304:4 23 
2 *304:4 *304:12 42.76 
3 *304:12 *1215:A 23 
4 *304:4 *1183:A 27.3293 
*END

*D_NET *305 0.0205263
*CONN
*I *1025:B1 I *D sky130_fd_sc_hd__a22o_1
*I *1034:A2 I *D sky130_fd_sc_hd__a22o_1
*I *1026:D I *D sky130_fd_sc_hd__nand4_1
*I *923:A I *D sky130_fd_sc_hd__clkbuf_4
*I *1202:X O *D sky130_fd_sc_hd__clkbuf_2
*CAP
1 *1025:B1 0
2 *1034:A2 0
3 *1026:D 6.1126e-05
4 *923:A 0
5 *1202:X 0
6 *305:85 0.000534388
7 *305:70 0.00055059
8 *305:54 0.00108498
9 *305:45 0.000455048
10 *305:41 0.00122803
11 *305:35 0.0023053
12 *305:14 0.000611613
13 *305:8 0.00409918
14 *305:6 0.00201638
15 *305:8 *308:8 0
16 *305:8 *308:29 0
17 *305:14 *1103:B1 0.000353062
18 *305:41 *332:54 0.000477634
19 *305:85 *1025:A2 6.25547e-05
20 *305:85 *316:62 4.05745e-05
21 *305:85 *316:64 2.82308e-05
22 *305:85 *316:119 0.000385674
23 *959:A *305:41 5.67058e-05
24 *1026:A *1026:D 9.36748e-05
25 *1026:B *1026:D 0.000221496
26 *1026:B *305:45 8.43466e-05
27 *1034:B2 *305:70 2.64616e-05
28 *1040:B *305:70 3.34276e-06
29 *1040:C *305:70 0.000107894
30 *1040:D *305:70 6.53476e-05
31 *1078:A2 *305:35 0.000492901
32 *1100:B *305:35 2.48018e-05
33 *1104:A *305:35 0.000107085
34 *1104:C *305:35 8.25698e-05
35 *1127:A2 *305:35 0.000180224
36 *1127:B1 *305:35 7.05643e-06
37 *1170:A *305:41 9.84794e-05
38 *1173:A *305:8 0.000249182
39 *57:31 *305:41 8.05985e-05
40 *57:110 *305:35 0.000265829
41 *57:110 *305:41 1.24376e-05
42 *61:10 *305:70 2.3529e-05
43 *61:10 *305:85 0.000388829
44 *61:12 *305:70 8.39506e-05
45 *61:14 *305:70 0.000360418
46 *61:16 *305:70 6.437e-05
47 *113:12 *305:85 0.000132638
48 *120:8 *305:70 3.56295e-05
49 *124:8 *305:70 2.91178e-05
50 *235:95 *305:41 0.000373704
51 *271:6 *305:41 1.90678e-05
52 *271:60 *305:41 0.000168136
53 *271:69 *305:41 2.90421e-05
54 *274:54 *305:41 0.000567984
55 *280:8 *305:41 0.000317708
56 *282:8 *1026:D 6.9805e-05
57 *282:8 *305:45 0.000206512
58 *282:54 *305:45 0.00039238
59 *284:14 *305:8 0.000150799
60 *284:24 *305:8 0
61 *284:24 *305:14 0
62 *286:14 *305:70 0.000153708
63 *287:20 *305:85 0.000166736
64 *287:35 *305:85 8.79053e-05
65 *288:55 *305:70 0
66 *288:66 *305:70 4.6381e-05
67 *288:66 *305:85 6.7177e-06
68 *288:81 *305:85 4.38375e-05
69 *300:10 *305:8 5.26204e-05
*RES
1 *1202:X *305:6 38 
2 *305:6 *305:8 41.3457 
3 *305:8 *305:14 27.5943 
4 *305:14 *923:A 23 
5 *305:8 *305:35 39.8157 
6 *305:35 *305:41 36.46 
7 *305:41 *305:45 23.7207 
8 *305:45 *1026:D 25.4909 
9 *305:45 *305:54 15 
10 *305:54 *305:70 28.3814 
11 *305:70 *1034:A2 23 
12 *305:54 *305:85 29.5829 
13 *305:85 *1025:B1 23 
*END

*D_NET *306 0.0027193
*CONN
*I *1216:A I *D sky130_fd_sc_hd__buf_2
*I *1185:A I *D sky130_fd_sc_hd__dlygate4sd3_1
*I *1163:Q O *D sky130_fd_sc_hd__dfrtp_1
*CAP
1 *1216:A 0
2 *1185:A 3.93156e-05
3 *1163:Q 0.000308886
4 *306:21 0.000961276
5 *306:6 0.00130948
6 sideband_out[1] *306:21 3.35075e-05
7 *291:8 *306:21 6.68378e-05
*RES
1 *1163:Q *306:6 26.9564 
2 *306:6 *1185:A 23.8493 
3 *306:6 *306:21 43.0086 
4 *306:21 *1216:A 23 
*END

*D_NET *307 0.00301606
*CONN
*I *1217:A I *D sky130_fd_sc_hd__clkbuf_4
*I *1175:A I *D sky130_fd_sc_hd__dlygate4sd3_1
*I *1164:Q O *D sky130_fd_sc_hd__dfrtp_1
*CAP
1 *1217:A 0
2 *1175:A 0
3 *1164:Q 0.000123057
4 *307:25 0.000994697
5 *307:12 0.000205693
6 *307:6 0.00132345
7 *1166:RESET_B *307:25 0
8 *284:30 *307:12 0
9 *291:20 *307:6 0.000185428
10 *291:20 *307:25 0.000183733
*RES
1 *1164:Q *307:6 25.0507 
2 *307:6 *307:12 33.6664 
3 *307:12 *1175:A 23 
4 *307:6 *307:25 48.3943 
5 *307:25 *1217:A 23 
*END

*D_NET *308 0.00735945
*CONN
*I *1218:A I *D sky130_fd_sc_hd__clkbuf_4
*I *1146:B I *D sky130_fd_sc_hd__and2_1
*I *1165:Q O *D sky130_fd_sc_hd__dfrtp_1
*CAP
1 *1218:A 0
2 *1146:B 0.000317357
3 *1165:Q 0.000115817
4 *308:33 0.00103522
5 *308:29 0.00243882
6 *308:8 0.00183678
7 *1146:B *1147:A1 0
8 *33:13 *308:33 0
9 *232:150 *308:8 0
10 *232:169 *308:8 0
11 *232:169 *308:29 0
12 *285:10 *308:33 0.00143285
13 *291:8 *308:33 0.000182601
14 *305:8 *308:8 0
15 *305:8 *308:29 0
*RES
1 *1165:Q *308:8 39.9057 
2 *308:8 *1146:B 43.4271 
3 *308:8 *308:29 49.8443 
4 *308:29 *308:33 41.9079 
5 *308:33 *1218:A 23 
*END

*D_NET *309 0.00252669
*CONN
*I *1176:A I *D sky130_fd_sc_hd__dlygate4sd3_1
*I *1219:A I *D sky130_fd_sc_hd__buf_2
*I *1166:Q O *D sky130_fd_sc_hd__dfrtp_1
*CAP
1 *1176:A 0
2 *1219:A 0
3 *1166:Q 0.000296971
4 *309:16 0.000966376
5 *309:10 0.00126335
*RES
1 *1166:Q *309:10 42.3086 
2 *309:10 *309:16 32.4 
3 *309:16 *1219:A 23 
4 *309:10 *1176:A 38 
*END

*D_NET *310 0.00400479
*CONN
*I *1177:A I *D sky130_fd_sc_hd__dlygate4sd3_1
*I *1220:A I *D sky130_fd_sc_hd__clkbuf_4
*I *1167:Q O *D sky130_fd_sc_hd__dfrtp_1
*CAP
1 *1177:A 0.000543651
2 *1220:A 0
3 *1167:Q 8.53459e-05
4 *310:12 0.000996213
5 *310:8 0.00162521
6 *1177:A *315:72 0
7 *1177:A *315:74 0
8 *310:12 *1182:A 0
9 *310:12 *315:74 0
10 *22:11 *310:12 0
11 *283:6 *310:8 1.04196e-05
12 *286:10 *310:12 0
13 *297:8 *1177:A 0
14 *297:12 *1177:A 0.000743952
*RES
1 *1167:Q *310:8 39.0979 
2 *310:8 *310:12 34.1607 
3 *310:12 *1220:A 23 
4 *310:8 *1177:A 49.9107 
*END

*D_NET *311 0.00313908
*CONN
*I *1184:A I *D sky130_fd_sc_hd__dlygate4sd3_1
*I *1221:A I *D sky130_fd_sc_hd__clkbuf_4
*I *1168:Q O *D sky130_fd_sc_hd__dfrtp_1
*CAP
1 *1184:A 0
2 *1221:A 0
3 *1168:Q 0
4 *311:27 0.000461315
5 *311:12 0.000708143
6 *311:4 0.00116946
7 *311:12 *1168:RESET_B 3.46214e-05
8 *311:27 *1168:RESET_B 1.24298e-05
9 *311:27 *324:8 8.57577e-05
10 *1141:B1 *311:27 0.000224411
11 *1153:A1 *311:27 2.02872e-05
12 *46:8 *311:27 4.92798e-05
13 *230:69 *311:27 3.56295e-05
14 *268:74 *311:27 1.0092e-05
15 *281:33 *311:27 0.000183544
16 *288:10 *311:12 0.00014411
*RES
1 *1168:Q *311:4 23 
2 *311:4 *311:12 42.325 
3 *311:12 *1221:A 23 
4 *311:4 *311:27 39.6321 
5 *311:27 *1184:A 23 
*END

*D_NET *312 0.00134081
*CONN
*I *1182:A I *D sky130_fd_sc_hd__dlygate4sd3_1
*I *1222:A I *D sky130_fd_sc_hd__clkbuf_4
*I *1169:Q O *D sky130_fd_sc_hd__dfrtp_1
*CAP
1 *1182:A 0.000384397
2 *1222:A 0.000231554
3 *1169:Q 0
4 *312:6 0.000615951
5 *919:A *1182:A 5.41288e-05
6 *232:6 *1182:A 5.47808e-05
7 *310:12 *1182:A 0
*RES
1 *1169:Q *312:6 38 
2 *312:6 *1222:A 42.64 
3 *312:6 *1182:A 45.2914 
*END

*D_NET *313 0.00170423
*CONN
*I *1223:A I *D sky130_fd_sc_hd__clkbuf_4
*I *1157:Q O *D sky130_fd_sc_hd__dfrtp_1
*CAP
1 *1223:A 0
2 *1157:Q 0.000852113
3 *313:8 0.000852113
*RES
1 *1157:Q *313:8 36.5057 
2 *313:8 *1223:A 23 
*END

*D_NET *314 0.00148156
*CONN
*I *1113:B I *D sky130_fd_sc_hd__nand3_2
*I *1115:A2 I *D sky130_fd_sc_hd__a21oi_2
*I *1209:X O *D sky130_fd_sc_hd__buf_1
*CAP
1 *1113:B 0.000340531
2 *1115:A2 0
3 *1209:X 0
4 *314:10 8.55072e-05
5 *314:4 0.000426038
6 *314:10 *316:22 0.000140958
7 *1113:A *1113:B 6.91908e-05
8 *1209:A *1113:B 0.000183506
9 *164:23 *314:10 0
10 *181:32 *1113:B 3.97902e-05
11 *193:14 *1113:B 4.19082e-05
12 *208:20 *1113:B 5.79559e-05
13 *209:10 *1113:B 9.61729e-05
*RES
1 *1209:X *314:4 23 
2 *314:4 *314:10 31.9057 
3 *314:10 *1115:A2 23 
4 *314:4 *1113:B 29.8564 
*END

*D_NET *315 0.0251139
*CONN
*I *1159:RESET_B I *D sky130_fd_sc_hd__dfrtp_1
*I *1157:RESET_B I *D sky130_fd_sc_hd__dfrtp_1
*I *1161:RESET_B I *D sky130_fd_sc_hd__dfrtp_1
*I *1158:RESET_B I *D sky130_fd_sc_hd__dfrtp_1
*I *1156:RESET_B I *D sky130_fd_sc_hd__dfrtp_1
*I *1167:RESET_B I *D sky130_fd_sc_hd__dfrtp_1
*I *1169:RESET_B I *D sky130_fd_sc_hd__dfrtp_1
*I *1168:RESET_B I *D sky130_fd_sc_hd__dfrtp_1
*I *1162:RESET_B I *D sky130_fd_sc_hd__dfrtp_1
*I *1160:RESET_B I *D sky130_fd_sc_hd__dfrtp_1
*I *1173:X O *D sky130_fd_sc_hd__buf_4
*CAP
1 *1159:RESET_B 0
2 *1157:RESET_B 0.000741298
3 *1161:RESET_B 0
4 *1158:RESET_B 0
5 *1156:RESET_B 3.08132e-05
6 *1167:RESET_B 3.07223e-05
7 *1169:RESET_B 0
8 *1168:RESET_B 0.000320479
9 *1162:RESET_B 0.001472
10 *1160:RESET_B 7.40153e-06
11 *1173:X 0.000422623
12 *315:134 0.000810511
13 *315:74 0.0013954
14 *315:72 0.00102059
15 *315:68 0.00191047
16 *315:58 0.00143228
17 *315:56 0.0012884
18 *315:38 0.00200076
19 *315:22 0.00238081
20 *315:8 0.00186907
21 *1157:RESET_B *327:20 1.31808e-05
22 *1162:RESET_B *1152:B 6.70982e-06
23 *1168:RESET_B *331:18 0.000113235
24 *315:8 *1133:A2 9.74722e-05
25 *315:134 *327:20 2.19539e-05
26 *1029:A *315:38 0.00012116
27 *1029:B *315:38 5.61255e-06
28 *1029:C *315:38 6.04112e-05
29 *1108:B *315:22 4.6595e-05
30 *1109:A *315:22 0.000129522
31 *1110:B1 *315:22 0.000223698
32 *1129:B1 *315:22 2.93747e-05
33 *1152:A *1162:RESET_B 0.00014384
34 *1154:A *1162:RESET_B 1.61385e-05
35 *1155:A1 *1162:RESET_B 4.62577e-05
36 *1155:B1 *1162:RESET_B 4.72245e-05
37 *1160:CLK *315:56 4.7554e-05
38 *1162:CLK *1162:RESET_B 0.000140555
39 *1162:D *1162:RESET_B 5.82853e-05
40 *1177:A *315:72 0
41 *1177:A *315:74 0
42 *1178:A *315:68 0
43 *1181:A *315:38 0.000228909
44 *1211:A *315:8 5.12328e-05
45 *1214:A *315:68 0
46 *43:8 *315:134 0.000141888
47 *53:10 *1162:RESET_B 7.83367e-06
48 *79:25 *315:22 0.000183733
49 *97:29 *315:22 0.000238313
50 *106:8 *315:38 3.22051e-05
51 *107:10 *315:38 7.80696e-05
52 *108:14 *1160:RESET_B 2.8521e-05
53 *108:14 *315:38 2.18409e-05
54 *108:14 *315:56 3.44502e-05
55 *118:33 *315:22 3.47781e-05
56 *196:10 *315:22 1.21972e-05
57 *200:30 *315:22 5.18413e-05
58 *200:40 *315:22 6.36802e-05
59 *200:69 *315:38 0.000402384
60 *215:8 *315:22 0.000499011
61 *215:18 *315:22 0.000221621
62 *216:8 *1157:RESET_B 0.000114083
63 *230:30 *1162:RESET_B 0.000139591
64 *232:39 *1156:RESET_B 2.8521e-05
65 *232:39 *315:68 2.68674e-06
66 *232:47 *315:68 0.000166742
67 *232:62 *315:58 0
68 *232:150 *1157:RESET_B 0.000465319
69 *232:169 *1157:RESET_B 0.000810159
70 *232:169 *315:8 5.3304e-05
71 *232:169 *315:22 0.000182826
72 *232:169 *315:134 0.000225265
73 *233:88 *315:38 0.000139352
74 *235:68 *1157:RESET_B 0
75 *268:36 *1162:RESET_B 1.08879e-05
76 *269:54 *315:56 0.000107325
77 *269:54 *315:58 4.21594e-06
78 *269:78 *315:22 2.33476e-05
79 *269:90 *315:22 0.000180505
80 *285:28 *1157:RESET_B 4.41587e-05
81 *285:49 *315:38 9.84794e-05
82 *286:10 *1162:RESET_B 0.000164644
83 *286:10 *315:72 0.000387273
84 *286:10 *315:74 0.00020103
85 *286:57 *315:72 3.87677e-05
86 *286:63 *315:68 0
87 *286:63 *315:72 0.000381109
88 *294:14 *315:58 0
89 *294:14 *315:68 0
90 *294:14 *315:72 7.73177e-05
91 *295:10 *315:22 8.82654e-05
92 *298:8 *315:56 0
93 *298:8 *315:58 0
94 *298:8 *315:68 0
95 *301:8 *315:38 9.67842e-05
96 *310:12 *315:74 0
97 *311:12 *1168:RESET_B 3.46214e-05
98 *311:27 *1168:RESET_B 1.24298e-05
*RES
1 *1173:X *315:8 30.7886 
2 *315:8 *315:22 46.1543 
3 *315:22 *315:38 36.0043 
4 *315:38 *1160:RESET_B 0.548929 
5 *315:38 *315:56 31.2607 
6 *315:56 *315:58 5.77929 
7 *315:58 *315:68 36.6464 
8 *315:68 *315:72 33.8086 
9 *315:72 *315:74 5.42714 
10 *315:74 *1162:RESET_B 34.3782 
11 *1162:RESET_B *1168:RESET_B 35.9346 
12 *315:74 *1169:RESET_B 15 
13 *315:72 *1167:RESET_B 15.6214 
14 *315:68 *1156:RESET_B 1.04607 
15 *315:58 *1158:RESET_B 15 
16 *315:56 *1161:RESET_B 15 
17 *315:8 *315:134 17.9621 
18 *315:134 *1157:RESET_B 34.4611 
19 *315:134 *1159:RESET_B 15 
*END

*D_NET *316 0.0299361
*CONN
*I *1147:A1 I *D sky130_fd_sc_hd__a31o_1
*I *1026:C I *D sky130_fd_sc_hd__nand4_1
*I *926:A I *D sky130_fd_sc_hd__or4_1
*I *1036:B I *D sky130_fd_sc_hd__and2_1
*I *1006:B1 I *D sky130_fd_sc_hd__a22o_1
*I *1007:D I *D sky130_fd_sc_hd__nand4_1
*I *1025:A2 I *D sky130_fd_sc_hd__a22o_1
*I *939:A I *D sky130_fd_sc_hd__xnor2_1
*I *1060:B I *D sky130_fd_sc_hd__nand2_1
*I *1203:X O *D sky130_fd_sc_hd__clkbuf_4
*CAP
1 *1147:A1 0.000439398
2 *1026:C 0
3 *926:A 0
4 *1036:B 0.000105207
5 *1006:B1 0.000242155
6 *1007:D 6.8092e-05
7 *1025:A2 9.68356e-05
8 *939:A 0
9 *1060:B 0.000127147
10 *1203:X 0.000605595
11 *316:168 0.000237037
12 *316:158 0.00122946
13 *316:135 0.00109763
14 *316:133 0.000403877
15 *316:123 0.000568511
16 *316:119 0.00075807
17 *316:79 0.000413421
18 *316:64 0.000273131
19 *316:62 0.0025
20 *316:47 0.000668563
21 *316:32 0.001328
22 *316:26 0.00252072
23 *316:22 0.00179078
24 *316:10 0.00180201
25 *316:22 *327:28 8.50366e-05
26 *316:62 *332:120 0
27 *926:C *316:168 0.000272321
28 *969:A *1147:A1 8.264e-05
29 *969:A *316:26 0.00014196
30 *973:A1 *316:26 7.1915e-05
31 *976:B2 *1007:D 5.3304e-05
32 *985:A *316:62 2.64616e-05
33 *992:B *316:62 0.00013652
34 *1006:B2 *1006:B1 0.000232527
35 *1007:A *316:79 0.000134767
36 *1007:B *1007:D 2.02872e-05
37 *1007:C *1007:D 5.3304e-05
38 *1037:C *316:158 1.12349e-05
39 *1049:B *316:119 7.15126e-05
40 *1075:A *1060:B 5.58003e-05
41 *1075:C *1060:B 3.90896e-05
42 *1075:C *316:47 5.3304e-05
43 *1096:A *316:10 0
44 *1130:B2 *1007:D 5.55743e-06
45 *1134:A2 *316:10 0
46 *1135:B *316:10 0
47 *1146:B *1147:A1 0
48 *1147:A2 *1147:A1 0.00035886
49 *1150:A *316:158 6.343e-05
50 *1151:A1 *316:168 9.11801e-05
51 *1167:CLK *316:158 1.61361e-05
52 *3:9 *316:32 0.000433188
53 *56:8 *316:22 2.70133e-05
54 *56:29 *316:22 7.75677e-05
55 *57:54 *316:62 9.66668e-05
56 *57:100 *316:32 0.000110044
57 *57:121 *316:32 8.21763e-05
58 *57:142 *316:32 4.17929e-05
59 *57:142 *316:62 7.70213e-05
60 *59:10 *1147:A1 0.000272033
61 *61:48 *316:158 0.000189903
62 *71:10 *316:62 3.52362e-05
63 *71:53 *316:62 0.000400403
64 *71:68 *316:62 0
65 *71:89 *1060:B 5.5792e-05
66 *72:18 *316:62 9.41704e-05
67 *73:10 *316:62 0.000232794
68 *78:10 *316:62 5.3304e-05
69 *81:10 *316:62 0.000162416
70 *83:8 *316:22 7.6774e-06
71 *85:17 *316:22 0
72 *86:14 *316:22 0.000300135
73 *91:29 *1006:B1 4.2062e-05
74 *93:10 *1006:B1 0.000116314
75 *111:22 *316:119 1.32314e-05
76 *112:8 *316:123 5.12448e-05
77 *112:8 *316:133 2.75733e-06
78 *113:12 *316:119 0.000184634
79 *121:27 *316:133 5.73288e-05
80 *121:33 *316:133 6.39814e-05
81 *122:6 *1036:B 5.56279e-05
82 *122:6 *316:158 1.47394e-05
83 *122:15 *316:158 2.78272e-05
84 *123:10 *316:158 0
85 *132:31 *316:119 0.000114083
86 *133:8 *316:123 0.000211691
87 *133:8 *316:133 8.62876e-05
88 *135:10 *316:119 0
89 *149:10 *316:32 5.68297e-05
90 *154:8 *1060:B 0.00012015
91 *154:23 *1060:B 1.21972e-05
92 *156:10 *316:32 6.12392e-05
93 *156:29 *316:47 0.000122599
94 *161:6 *316:47 0.000202961
95 *164:8 *316:62 7.48137e-05
96 *164:23 *316:10 0
97 *164:23 *316:22 0
98 *181:21 *316:10 1.25723e-05
99 *181:21 *316:22 8.02811e-05
100 *192:41 *316:10 0.000245501
101 *207:10 *316:10 0
102 *208:8 *316:10 6.4045e-05
103 *208:20 *316:10 0
104 *230:10 *316:133 1.69668e-05
105 *230:108 *316:47 0
106 *233:69 *316:62 7.7752e-05
107 *234:6 *1007:D 2.02872e-05
108 *234:45 *316:168 2.24973e-05
109 *234:70 *316:168 1.14154e-05
110 *236:14 *316:47 4.96024e-05
111 *236:56 *316:168 0.000219882
112 *238:10 *316:168 2.35393e-05
113 *241:123 *316:47 0.000318471
114 *268:8 *316:168 1.24376e-05
115 *268:14 *316:168 9.84794e-05
116 *268:56 *316:133 0.000113604
117 *268:93 *316:47 6.07611e-06
118 *269:8 *316:133 3.7122e-06
119 *269:90 *316:22 3.884e-05
120 *270:16 *316:62 0.000100477
121 *270:18 *316:62 0.000180126
122 *270:28 *316:62 2.95526e-05
123 *272:103 *316:32 0.000342115
124 *274:44 *316:32 0.000389172
125 *274:54 *316:32 0.000111852
126 *274:76 *316:26 0.000348911
127 *274:76 *316:32 0.000120405
128 *274:76 *316:62 2.55642e-05
129 *274:91 *1147:A1 5.3304e-05
130 *274:91 *316:22 3.47781e-05
131 *274:91 *316:26 8.52481e-05
132 *278:40 *1147:A1 5.56356e-05
133 *278:53 *316:22 0.000122574
134 *283:14 *316:158 0.000136486
135 *285:34 *316:62 0.000269593
136 *287:14 *1025:A2 5.81185e-05
137 *287:20 *1025:A2 1.73995e-05
138 *287:35 *316:62 1.21972e-05
139 *288:10 *316:158 0.000560387
140 *288:19 *316:158 0.000175382
141 *288:32 *316:158 0.000116246
142 *288:81 *316:119 0.000469399
143 *288:103 *1006:B1 1.13812e-05
144 *288:103 *316:79 0.000136905
145 *288:103 *316:119 6.437e-05
146 *294:20 *316:158 1.98009e-05
147 *305:85 *1025:A2 6.25547e-05
148 *305:85 *316:62 4.05745e-05
149 *305:85 *316:64 2.82308e-05
150 *305:85 *316:119 0.000385674
151 *314:10 *316:22 0.000140958
*RES
1 *1203:X *316:10 49.5068 
2 *316:10 *316:22 38.3346 
3 *316:22 *316:26 19.9093 
4 *316:26 *316:32 30.4321 
5 *316:32 *1060:B 26.0036 
6 *316:32 *316:47 43.8579 
7 *316:47 *939:A 23 
8 *316:26 *316:62 49.5514 
9 *316:62 *316:64 1.09786 
10 *316:64 *1025:A2 25.4236 
11 *316:64 *316:79 17.4029 
12 *316:79 *1007:D 39.595 
13 *316:79 *1006:B1 42.6607 
14 *316:62 *316:119 43.7336 
15 *316:119 *316:123 17.9621 
16 *316:123 *316:133 37.2707 
17 *316:133 *316:135 15 
18 *316:135 *1036:B 24.5743 
19 *316:135 *316:158 49.6164 
20 *316:158 *316:168 35.9657 
21 *316:168 *926:A 23 
22 *316:123 *1026:C 38 
23 *316:22 *1147:A1 32.2179 
*END

*D_NET *317 0.000291704
*CONN
*I *1130:A2 I *D sky130_fd_sc_hd__a22o_1
*I *1174:X O *D sky130_fd_sc_hd__dlygate4sd3_1
*CAP
1 *1130:A2 7.41407e-05
2 *1174:X 7.41407e-05
3 *232:47 *1130:A2 0.000143423
*RES
1 *1174:X *1130:A2 47.5743 
*END

*D_NET *318 8.40496e-05
*CONN
*I *957:A1 I *D sky130_fd_sc_hd__o21ba_1
*I *1178:X O *D sky130_fd_sc_hd__dlygate4sd3_1
*CAP
1 *957:A1 4.20248e-05
2 *1178:X 4.20248e-05
*RES
1 *1178:X *957:A1 46.6214 
*END

*D_NET *319 0.000272851
*CONN
*I *1139:A2 I *D sky130_fd_sc_hd__a22o_1
*I *1179:X O *D sky130_fd_sc_hd__dlygate4sd3_1
*CAP
1 *1139:A2 0
2 *1179:X 9.32865e-05
3 *319:8 9.32865e-05
4 *221:10 *319:8 0
5 *269:54 *319:8 8.62783e-05
6 *298:8 *319:8 0
*RES
1 *1179:X *319:8 39.9057 
2 *319:8 *1139:A2 38 
*END

*D_NET *320 0.000604942
*CONN
*I *1133:A2 I *D sky130_fd_sc_hd__a22o_1
*I *1180:X O *D sky130_fd_sc_hd__dlygate4sd3_1
*CAP
1 *1133:A2 0.000163169
2 *1180:X 0.000163169
3 *232:169 *1133:A2 0.000181131
4 *315:8 *1133:A2 9.74722e-05
*RES
1 *1180:X *1133:A2 49.9564 
*END

*D_NET *321 0.00124555
*CONN
*I *1137:A2 I *D sky130_fd_sc_hd__a22o_1
*I *1181:X O *D sky130_fd_sc_hd__dlygate4sd3_1
*CAP
1 *1137:A2 0.000139839
2 *1181:X 9.74108e-05
3 *321:8 0.000237249
4 *1028:A2 *1137:A2 5.67058e-05
5 *1138:A *1137:A2 0.000392391
6 *108:20 *321:8 2.24973e-05
7 *114:10 *321:8 8.62876e-05
8 *167:14 *321:8 0
9 *220:30 *1137:A2 0.000138008
10 *269:42 *1137:A2 2.25809e-05
11 *269:54 *1137:A2 5.25848e-05
*RES
1 *1181:X *321:8 39.9057 
2 *321:8 *1137:A2 42.93 
*END

*D_NET *322 0.00181324
*CONN
*I *1154:B I *D sky130_fd_sc_hd__and2_1
*I *1182:X O *D sky130_fd_sc_hd__dlygate4sd3_1
*CAP
1 *1154:B 0
2 *1182:X 0.000436089
3 *322:12 0.000436089
4 *919:A *322:12 4.34876e-05
5 *230:30 *322:12 0
6 *230:155 *322:12 0.000235304
7 *241:78 *322:12 0.000346271
8 *268:14 *322:12 3.85196e-05
9 *268:18 *322:12 0.000229804
10 *268:36 *322:12 4.76783e-05
*RES
1 *1182:X *322:12 47.0521 
2 *322:12 *1154:B 38 
*END

*D_NET *323 0.00117725
*CONN
*I *1140:B I *D sky130_fd_sc_hd__and2_1
*I *1183:X O *D sky130_fd_sc_hd__dlygate4sd3_1
*CAP
1 *1140:B 8.90645e-05
2 *1183:X 6.85554e-05
3 *323:8 0.00015762
4 *1140:B *331:18 0.000360955
5 *232:107 *1140:B 0.000275411
6 *233:8 *323:8 8.78864e-05
7 *304:12 *323:8 0.000137754
*RES
1 *1183:X *323:8 39.9057 
2 *323:8 *1140:B 41.9564 
*END

*D_NET *324 0.000887835
*CONN
*I *1152:B I *D sky130_fd_sc_hd__and2_1
*I *1184:X O *D sky130_fd_sc_hd__dlygate4sd3_1
*CAP
1 *1152:B 0.000253952
2 *1184:X 3.95568e-05
3 *324:8 0.000293509
4 *1152:A *1152:B 4.46598e-05
5 *1162:CLK *1152:B 7.79323e-05
6 *1162:RESET_B *1152:B 6.70982e-06
7 *46:8 *324:8 8.57577e-05
8 *311:27 *324:8 8.57577e-05
*RES
1 *1184:X *324:8 39.2014 
2 *324:8 *1152:B 42.205 
*END

*D_NET *325 0.000910808
*CONN
*I *1142:B I *D sky130_fd_sc_hd__and2_1
*I *1185:X O *D sky130_fd_sc_hd__dlygate4sd3_1
*CAP
1 *1142:B 0.000352933
2 *1185:X 6.95826e-05
3 *325:8 0.000422515
4 *1142:A *1142:B 3.7877e-05
5 *1143:A2 *1142:B 0
6 *284:30 *325:8 2.79004e-05
*RES
1 *1185:X *325:8 39.2014 
2 *325:8 *1142:B 44.2557 
*END

*D_NET *326 0.000403075
*CONN
*I *1144:B I *D sky130_fd_sc_hd__and2_1
*I *1175:X O *D sky130_fd_sc_hd__dlygate4sd3_1
*CAP
1 *1144:B 6.21861e-05
2 *1175:X 6.21861e-05
3 *1144:A *1144:B 9.5877e-05
4 *292:14 *1144:B 0.000182826
*RES
1 *1175:X *1144:B 48.0507 
*END

*D_NET *327 0.0109816
*CONN
*I *922:A I *D sky130_fd_sc_hd__clkbuf_4
*I *1006:A2 I *D sky130_fd_sc_hd__a22o_1
*I *1204:X O *D sky130_fd_sc_hd__buf_1
*CAP
1 *922:A 2.10269e-05
2 *1006:A2 0
3 *1204:X 0.000179786
4 *327:36 0.00231396
5 *327:28 0.002846
6 *327:20 0.00207108
7 *327:8 0.0016978
8 *1006:A1 *327:36 2.3853e-05
9 *1010:A *327:36 6.35228e-05
10 *1010:C *327:36 4.3198e-05
11 *1011:C *327:36 0.000207783
12 *1017:A *327:36 0.000103637
13 *1105:A *327:36 5.10805e-05
14 *1106:A *327:28 1.85903e-05
15 *1131:A *327:20 7.66384e-05
16 *1131:A *327:28 0.000122669
17 *1157:RESET_B *327:20 1.31808e-05
18 *8:9 *327:8 5.70419e-05
19 *43:8 *327:20 7.03869e-05
20 *91:29 *327:36 5.37348e-06
21 *92:10 *327:36 2.65879e-05
22 *94:16 *327:36 2.40374e-05
23 *97:12 *327:36 3.90643e-05
24 *139:33 *327:36 3.16784e-05
25 *141:16 *327:36 0.000162104
26 *191:8 *327:36 0.000114499
27 *191:18 *327:20 3.09148e-05
28 *192:33 *327:20 0
29 *199:14 *327:20 0.000199701
30 *200:10 *327:20 2.35393e-05
31 *200:16 *327:20 9.03979e-05
32 *200:30 *327:20 5.36427e-06
33 *211:10 *327:20 0
34 *214:16 *327:20 0
35 *216:8 *327:20 0.000111852
36 *217:10 *327:20 0
37 *219:14 *327:20 0
38 *232:169 *327:20 1.02561e-05
39 *235:14 *327:28 1.79604e-05
40 *315:134 *327:20 2.19539e-05
41 *316:22 *327:28 8.50366e-05
*RES
1 *1204:X *327:8 40.5271 
2 *327:8 *327:20 43.3579 
3 *327:20 *327:28 37.54 
4 *327:28 *327:36 33.205 
5 *327:36 *1006:A2 23 
6 *327:20 *922:A 23.4971 
*END

*D_NET *328 0.000363781
*CONN
*I *1148:B I *D sky130_fd_sc_hd__and2_1
*I *1176:X O *D sky130_fd_sc_hd__dlygate4sd3_1
*CAP
1 *1148:B 5.97316e-05
2 *1176:X 5.97316e-05
3 *1148:B *331:12 0.000188526
4 *232:118 *1148:B 5.5792e-05
*RES
1 *1176:X *1148:B 48.0507 
*END

*D_NET *329 0.000357762
*CONN
*I *1150:B I *D sky130_fd_sc_hd__and2_1
*I *1177:X O *D sky130_fd_sc_hd__dlygate4sd3_1
*CAP
1 *1150:B 7.33821e-06
2 *1177:X 6.63958e-05
3 *329:8 7.37341e-05
4 *934:B *1150:B 0
5 *238:10 *329:8 6.93449e-05
6 *288:10 *329:8 0.000140949
*RES
1 *1177:X *329:8 39.9057 
2 *329:8 *1150:B 38.1554 
*END

*D_NET *330 0.00442144
*CONN
*I *1005:B I *D sky130_fd_sc_hd__and2_1
*I *921:A I *D sky130_fd_sc_hd__clkbuf_4
*I *1205:X O *D sky130_fd_sc_hd__clkbuf_1
*CAP
1 *1005:B 0
2 *921:A 0.000193453
3 *1205:X 0.000473004
4 *330:10 0.00130567
5 *330:8 0.00158522
6 *1130:B2 *921:A 0.000229774
7 *91:16 *330:10 7.84107e-05
8 *93:10 *330:10 2.39018e-05
9 *93:21 *330:10 1.43921e-05
10 *215:18 *921:A 0.000141975
11 *215:18 *330:10 0.000166281
12 *221:10 *330:10 0
13 *232:66 *330:10 2.72882e-05
14 *232:79 *330:10 0.000182064
*RES
1 *1205:X *330:8 43.8621 
2 *330:8 *330:10 21.9779 
3 *330:10 *921:A 42.4536 
4 *330:10 *1005:B 38 
*END

*D_NET *331 0.0148334
*CONN
*I *920:A I *D sky130_fd_sc_hd__clkbuf_4
*I *980:A2 I *D sky130_fd_sc_hd__a22o_1
*I *1206:X O *D sky130_fd_sc_hd__buf_1
*CAP
1 *920:A 0
2 *980:A2 0
3 *1206:X 0.000347009
4 *331:26 0.000455811
5 *331:18 0.00162619
6 *331:12 0.00370548
7 *331:10 0.0025351
8 *331:8 0.000347009
9 *331:8 *333:10 0.000195009
10 *927:C *331:18 0.00026431
11 *933:A2 *331:18 0.000204337
12 *1035:A *331:18 6.11198e-05
13 *1040:A *331:26 0.000115425
14 *1140:B *331:18 0.000360955
15 *1148:B *331:12 0.000188526
16 *1162:CLK *331:18 0.000212121
17 *1167:CLK *331:18 0.000160191
18 *1168:RESET_B *331:18 0.000113235
19 *61:12 *331:26 1.14452e-05
20 *61:14 *331:26 0.000364483
21 *61:16 *331:26 1.0092e-05
22 *125:10 *331:18 0.000215405
23 *126:10 *331:26 1.61361e-05
24 *222:8 *331:18 0.000350168
25 *226:10 *331:12 5.82853e-05
26 *232:107 *331:12 0.00155014
27 *232:107 *331:18 5.00237e-05
28 *232:118 *331:12 5.00237e-05
29 *233:44 *331:18 0.00031719
30 *234:37 *331:26 5.13479e-05
31 *234:39 *331:18 0
32 *234:39 *331:26 0.000313135
33 *234:45 *331:18 0
34 *237:40 *331:18 0.000135785
35 *239:21 *331:18 0.00015637
36 *241:61 *331:18 4.23817e-05
37 *271:14 *331:18 1.16551e-05
38 *272:24 *331:18 0
39 *281:10 *331:18 0.000237547
*RES
1 *1206:X *331:8 46.2443 
2 *331:8 *331:10 15 
3 *331:10 *331:12 49.6936 
4 *331:12 *331:18 44.3729 
5 *331:18 *331:26 38.555 
6 *331:26 *980:A2 38 
7 *331:12 *920:A 23 
*END

*D_NET *332 0.0208235
*CONN
*I *928:A I *D sky130_fd_sc_hd__buf_2
*I *963:A1 I *D sky130_fd_sc_hd__a22o_1
*I *962:A I *D sky130_fd_sc_hd__and2_1
*I *961:B I *D sky130_fd_sc_hd__and4_1
*I *967:B1 I *D sky130_fd_sc_hd__o21ai_1
*I *958:A I *D sky130_fd_sc_hd__nand2_2
*I *966:B I *D sky130_fd_sc_hd__and3_1
*I *964:B I *D sky130_fd_sc_hd__nand4_1
*I *944:A I *D sky130_fd_sc_hd__nand2_1
*I *1207:X O *D sky130_fd_sc_hd__buf_2
*CAP
1 *928:A 0
2 *963:A1 0.000133188
3 *962:A 0
4 *961:B 0
5 *967:B1 0
6 *958:A 0
7 *966:B 0
8 *964:B 1.08577e-05
9 *944:A 0
10 *1207:X 0
11 *332:120 0.000867827
12 *332:103 0.000978911
13 *332:91 0.000576985
14 *332:81 0.000936956
15 *332:58 0.000747122
16 *332:54 0.000899094
17 *332:46 0.000642951
18 *332:35 0.000864765
19 *332:27 0.00102322
20 *332:10 0.000860937
21 *332:8 0.00231666
22 *332:4 0.00173394
23 *932:A *332:10 1.13812e-05
24 *932:A *332:27 0.000178096
25 *942:A *332:27 5.90675e-06
26 *945:A *332:35 0
27 *955:B1 *332:27 4.37033e-05
28 *964:A *332:46 0.000162254
29 *968:A1 *332:81 1.72443e-05
30 *968:A2 *332:81 0.000137368
31 *970:C *332:81 5.3304e-05
32 *1001:B *332:91 0.000141185
33 *1045:A1 *964:B 2.08774e-05
34 *1059:B *332:35 7.34394e-06
35 *1157:D *332:58 0.000472412
36 *1157:D *332:81 4.2573e-05
37 *1199:A *332:8 8.15864e-05
38 *3:9 *332:10 0.000303557
39 *3:9 *332:27 5.61457e-05
40 *3:9 *332:54 2.76611e-06
41 *25:12 *332:8 9.37067e-05
42 *57:74 *332:35 7.06554e-05
43 *58:8 *332:91 0
44 *71:68 *332:54 0
45 *71:68 *332:103 0
46 *71:68 *332:120 0
47 *76:10 *332:120 0
48 *152:8 *964:B 1.03641e-05
49 *190:30 *332:91 0.000395868
50 *235:95 *332:54 0.000306147
51 *238:80 *332:35 4.85244e-05
52 *241:12 *332:27 0.000109895
53 *241:91 *332:27 0.000352421
54 *241:138 *332:81 0.000114083
55 *241:138 *332:120 0.000339983
56 *241:148 *332:120 0.000356938
57 *244:31 *332:27 0.000226306
58 *244:31 *332:35 6.07611e-06
59 *245:10 *332:35 0.000163361
60 *255:14 *332:27 0
61 *266:10 *332:35 4.07715e-05
62 *267:8 *332:35 0.000135557
63 *270:6 *332:91 8.84365e-05
64 *271:86 *963:A1 0.000164291
65 *271:86 *332:46 7.66032e-05
66 *271:109 *332:103 1.12487e-05
67 *271:151 *332:81 1.32924e-05
68 *271:151 *332:91 1.71252e-05
69 *272:45 *332:35 0.000112235
70 *272:60 *332:35 0.000185238
71 *272:60 *332:46 2.6435e-05
72 *272:69 *963:A1 0.000155077
73 *272:69 *332:46 0.000241088
74 *272:86 *332:103 0.000148523
75 *272:103 *332:103 5.24393e-05
76 *272:103 *332:120 1.14452e-05
77 *272:153 *332:81 3.38662e-05
78 *274:44 *332:54 0
79 *274:44 *332:120 0
80 *274:54 *332:54 0
81 *274:76 *332:120 0
82 *274:91 *332:81 2.93845e-05
83 *274:91 *332:91 0
84 *277:12 *332:54 8.69741e-05
85 *277:12 *332:103 7.20342e-05
86 *277:27 *332:103 8.72173e-05
87 *278:12 *332:81 0.000111852
88 *278:31 *332:91 0
89 *279:8 *332:81 7.98246e-05
90 *281:74 *332:27 5.43324e-05
91 *282:54 *963:A1 4.9662e-05
92 *286:119 *332:120 4.22374e-05
93 *290:6 *332:8 0.000443679
94 *295:16 *332:35 0.000376386
95 *295:16 *332:46 6.51997e-06
96 *295:35 *332:35 7.75329e-06
97 *296:8 *332:8 0.000189336
98 *296:18 *332:10 0.000269539
99 *305:41 *332:54 0.000477634
100 *316:62 *332:120 0
*RES
1 *1207:X *332:4 23 
2 *332:4 *332:8 48.0186 
3 *332:8 *332:10 13.8786 
4 *332:10 *944:A 38 
5 *332:10 *332:27 23.5136 
6 *332:27 *332:35 32.9386 
7 *332:35 *964:B 38.2434 
8 *332:35 *332:46 3.66643 
9 *332:46 *332:54 39.0521 
10 *332:54 *332:58 20.3857 
11 *332:58 *966:B 23 
12 *332:58 *332:81 38.0164 
13 *332:81 *332:91 41.1857 
14 *332:91 *958:A 23 
15 *332:81 *967:B1 23 
16 *332:54 *332:103 2.96214 
17 *332:103 *961:B 38 
18 *332:103 *332:120 44.0443 
19 *332:120 *962:A 38 
20 *332:46 *963:A1 41.3557 
21 *332:27 *928:A 23 
*END

*D_NET *333 0.00560389
*CONN
*I *1103:B1 I *D sky130_fd_sc_hd__o21a_1
*I *1208:X O *D sky130_fd_sc_hd__buf_1
*CAP
1 *1103:B1 0.000950067
2 *1208:X 0
3 *333:10 0.0022948
4 *333:6 0.00134473
5 *1192:A *333:10 0
6 *187:29 *1103:B1 5.55743e-06
7 *236:6 *1103:B1 0.00010766
8 *289:10 *333:10 0
9 *291:8 *333:10 0.000353003
10 *305:14 *1103:B1 0.000353062
11 *331:8 *333:10 0.000195009
*RES
1 *1208:X *333:6 38 
2 *333:6 *333:10 45.0771 
3 *333:10 *1103:B1 42.6993 
*END
